# vtk DataFile Version 3.0
Some data
ASCII
DATASET UNSTRUCTURED_GRID
POINTS 861 float
0.0 0.0 0.0
0.4 0.0 0.0
0.8 0.0 0.0
1.2000000000000002 0.0 0.0
1.6 0.0 0.0
2.0 0.0 0.0
2.4000000000000004 0.0 0.0
2.8000000000000003 0.0 0.0
3.2 0.0 0.0
3.6 0.0 0.0
4.0 0.0 0.0
4.4 0.0 0.0
4.800000000000001 0.0 0.0
5.2 0.0 0.0
5.6000000000000005 0.0 0.0
6.0 0.0 0.0
6.4 0.0 0.0
6.800000000000001 0.0 0.0
7.2 0.0 0.0
7.6000000000000005 0.0 0.0
8.0 0.0 0.0
8.4 0.0 0.0
8.8 0.0 0.0
9.200000000000001 0.0 0.0
9.600000000000001 0.0 0.0
10.0 0.0 0.0
10.4 0.0 0.0
10.8 0.0 0.0
11.200000000000001 0.0 0.0
11.600000000000001 0.0 0.0
12.0 0.0 0.0
12.4 0.0 0.0
12.8 0.0 0.0
13.200000000000001 0.0 0.0
13.600000000000001 0.0 0.0
14.0 0.0 0.0
14.4 0.0 0.0
14.8 0.0 0.0
15.200000000000001 0.0 0.0
15.600000000000001 0.0 0.0
16.0 0.0 0.0
0.0 0.1 0.0
0.4 0.1 0.0
0.8 0.1 0.0
1.2000000000000002 0.1 0.0
1.6 0.1 0.0
2.0 0.1 0.0
2.4000000000000004 0.1 0.0
2.8000000000000003 0.1 0.0
3.2 0.1 0.0
3.6 0.1 0.0
4.0 0.1 0.0
4.4 0.1 0.0
4.800000000000001 0.1 0.0
5.2 0.1 0.0
5.6000000000000005 0.1 0.0
6.0 0.1 0.0
6.4 0.1 0.0
6.800000000000001 0.1 0.0
7.2 0.1 0.0
7.6000000000000005 0.1 0.0
8.0 0.1 0.0
8.4 0.1 0.0
8.8 0.1 0.0
9.200000000000001 0.1 0.0
9.600000000000001 0.1 0.0
10.0 0.1 0.0
10.4 0.1 0.0
10.8 0.1 0.0
11.200000000000001 0.1 0.0
11.600000000000001 0.1 0.0
12.0 0.1 0.0
12.4 0.1 0.0
12.8 0.1 0.0
13.200000000000001 0.1 0.0
13.600000000000001 0.1 0.0
14.0 0.1 0.0
14.4 0.1 0.0
14.8 0.1 0.0
15.200000000000001 0.1 0.0
15.600000000000001 0.1 0.0
16.0 0.1 0.0
0.0 0.2 0.0
0.4 0.2 0.0
0.8 0.2 0.0
1.2000000000000002 0.2 0.0
1.6 0.2 0.0
2.0 0.2 0.0
2.4000000000000004 0.2 0.0
2.8000000000000003 0.2 0.0
3.2 0.2 0.0
3.6 0.2 0.0
4.0 0.2 0.0
4.4 0.2 0.0
4.800000000000001 0.2 0.0
5.2 0.2 0.0
5.6000000000000005 0.2 0.0
6.0 0.2 0.0
6.4 0.2 0.0
6.800000000000001 0.2 0.0
7.2 0.2 0.0
7.6000000000000005 0.2 0.0
8.0 0.2 0.0
8.4 0.2 0.0
8.8 0.2 0.0
9.200000000000001 0.2 0.0
9.600000000000001 0.2 0.0
10.0 0.2 0.0
10.4 0.2 0.0
10.8 0.2 0.0
11.200000000000001 0.2 0.0
11.600000000000001 0.2 0.0
12.0 0.2 0.0
12.4 0.2 0.0
12.8 0.2 0.0
13.200000000000001 0.2 0.0
13.600000000000001 0.2 0.0
14.0 0.2 0.0
14.4 0.2 0.0
14.8 0.2 0.0
15.200000000000001 0.2 0.0
15.600000000000001 0.2 0.0
16.0 0.2 0.0
0.0 0.30000000000000004 0.0
0.4 0.30000000000000004 0.0
0.8 0.30000000000000004 0.0
1.2000000000000002 0.30000000000000004 0.0
1.6 0.30000000000000004 0.0
2.0 0.30000000000000004 0.0
2.4000000000000004 0.30000000000000004 0.0
2.8000000000000003 0.30000000000000004 0.0
3.2 0.30000000000000004 0.0
3.6 0.30000000000000004 0.0
4.0 0.30000000000000004 0.0
4.4 0.30000000000000004 0.0
4.800000000000001 0.30000000000000004 0.0
5.2 0.30000000000000004 0.0
5.6000000000000005 0.30000000000000004 0.0
6.0 0.30000000000000004 0.0
6.4 0.30000000000000004 0.0
6.800000000000001 0.30000000000000004 0.0
7.2 0.30000000000000004 0.0
7.6000000000000005 0.30000000000000004 0.0
8.0 0.30000000000000004 0.0
8.4 0.30000000000000004 0.0
8.8 0.30000000000000004 0.0
9.200000000000001 0.30000000000000004 0.0
9.600000000000001 0.30000000000000004 0.0
10.0 0.30000000000000004 0.0
10.4 0.30000000000000004 0.0
10.8 0.30000000000000004 0.0
11.200000000000001 0.30000000000000004 0.0
11.600000000000001 0.30000000000000004 0.0
12.0 0.30000000000000004 0.0
12.4 0.30000000000000004 0.0
12.8 0.30000000000000004 0.0
13.200000000000001 0.30000000000000004 0.0
13.600000000000001 0.30000000000000004 0.0
14.0 0.30000000000000004 0.0
14.4 0.30000000000000004 0.0
14.8 0.30000000000000004 0.0
15.200000000000001 0.30000000000000004 0.0
15.600000000000001 0.30000000000000004 0.0
16.0 0.30000000000000004 0.0
0.0 0.4 0.0
0.4 0.4 0.0
0.8 0.4 0.0
1.2000000000000002 0.4 0.0
1.6 0.4 0.0
2.0 0.4 0.0
2.4000000000000004 0.4 0.0
2.8000000000000003 0.4 0.0
3.2 0.4 0.0
3.6 0.4 0.0
4.0 0.4 0.0
4.4 0.4 0.0
4.800000000000001 0.4 0.0
5.2 0.4 0.0
5.6000000000000005 0.4 0.0
6.0 0.4 0.0
6.4 0.4 0.0
6.800000000000001 0.4 0.0
7.2 0.4 0.0
7.6000000000000005 0.4 0.0
8.0 0.4 0.0
8.4 0.4 0.0
8.8 0.4 0.0
9.200000000000001 0.4 0.0
9.600000000000001 0.4 0.0
10.0 0.4 0.0
10.4 0.4 0.0
10.8 0.4 0.0
11.200000000000001 0.4 0.0
11.600000000000001 0.4 0.0
12.0 0.4 0.0
12.4 0.4 0.0
12.8 0.4 0.0
13.200000000000001 0.4 0.0
13.600000000000001 0.4 0.0
14.0 0.4 0.0
14.4 0.4 0.0
14.8 0.4 0.0
15.200000000000001 0.4 0.0
15.600000000000001 0.4 0.0
16.0 0.4 0.0
0.0 0.5 0.0
0.4 0.5 0.0
0.8 0.5 0.0
1.2000000000000002 0.5 0.0
1.6 0.5 0.0
2.0 0.5 0.0
2.4000000000000004 0.5 0.0
2.8000000000000003 0.5 0.0
3.2 0.5 0.0
3.6 0.5 0.0
4.0 0.5 0.0
4.4 0.5 0.0
4.800000000000001 0.5 0.0
5.2 0.5 0.0
5.6000000000000005 0.5 0.0
6.0 0.5 0.0
6.4 0.5 0.0
6.800000000000001 0.5 0.0
7.2 0.5 0.0
7.6000000000000005 0.5 0.0
8.0 0.5 0.0
8.4 0.5 0.0
8.8 0.5 0.0
9.200000000000001 0.5 0.0
9.600000000000001 0.5 0.0
10.0 0.5 0.0
10.4 0.5 0.0
10.8 0.5 0.0
11.200000000000001 0.5 0.0
11.600000000000001 0.5 0.0
12.0 0.5 0.0
12.4 0.5 0.0
12.8 0.5 0.0
13.200000000000001 0.5 0.0
13.600000000000001 0.5 0.0
14.0 0.5 0.0
14.4 0.5 0.0
14.8 0.5 0.0
15.200000000000001 0.5 0.0
15.600000000000001 0.5 0.0
16.0 0.5 0.0
0.0 0.6000000000000001 0.0
0.4 0.6000000000000001 0.0
0.8 0.6000000000000001 0.0
1.2000000000000002 0.6000000000000001 0.0
1.6 0.6000000000000001 0.0
2.0 0.6000000000000001 0.0
2.4000000000000004 0.6000000000000001 0.0
2.8000000000000003 0.6000000000000001 0.0
3.2 0.6000000000000001 0.0
3.6 0.6000000000000001 0.0
4.0 0.6000000000000001 0.0
4.4 0.6000000000000001 0.0
4.800000000000001 0.6000000000000001 0.0
5.2 0.6000000000000001 0.0
5.6000000000000005 0.6000000000000001 0.0
6.0 0.6000000000000001 0.0
6.4 0.6000000000000001 0.0
6.800000000000001 0.6000000000000001 0.0
7.2 0.6000000000000001 0.0
7.6000000000000005 0.6000000000000001 0.0
8.0 0.6000000000000001 0.0
8.4 0.6000000000000001 0.0
8.8 0.6000000000000001 0.0
9.200000000000001 0.6000000000000001 0.0
9.600000000000001 0.6000000000000001 0.0
10.0 0.6000000000000001 0.0
10.4 0.6000000000000001 0.0
10.8 0.6000000000000001 0.0
11.200000000000001 0.6000000000000001 0.0
11.600000000000001 0.6000000000000001 0.0
12.0 0.6000000000000001 0.0
12.4 0.6000000000000001 0.0
12.8 0.6000000000000001 0.0
13.200000000000001 0.6000000000000001 0.0
13.600000000000001 0.6000000000000001 0.0
14.0 0.6000000000000001 0.0
14.4 0.6000000000000001 0.0
14.8 0.6000000000000001 0.0
15.200000000000001 0.6000000000000001 0.0
15.600000000000001 0.6000000000000001 0.0
16.0 0.6000000000000001 0.0
0.0 0.7000000000000001 0.0
0.4 0.7000000000000001 0.0
0.8 0.7000000000000001 0.0
1.2000000000000002 0.7000000000000001 0.0
1.6 0.7000000000000001 0.0
2.0 0.7000000000000001 0.0
2.4000000000000004 0.7000000000000001 0.0
2.8000000000000003 0.7000000000000001 0.0
3.2 0.7000000000000001 0.0
3.6 0.7000000000000001 0.0
4.0 0.7000000000000001 0.0
4.4 0.7000000000000001 0.0
4.800000000000001 0.7000000000000001 0.0
5.2 0.7000000000000001 0.0
5.6000000000000005 0.7000000000000001 0.0
6.0 0.7000000000000001 0.0
6.4 0.7000000000000001 0.0
6.800000000000001 0.7000000000000001 0.0
7.2 0.7000000000000001 0.0
7.6000000000000005 0.7000000000000001 0.0
8.0 0.7000000000000001 0.0
8.4 0.7000000000000001 0.0
8.8 0.7000000000000001 0.0
9.200000000000001 0.7000000000000001 0.0
9.600000000000001 0.7000000000000001 0.0
10.0 0.7000000000000001 0.0
10.4 0.7000000000000001 0.0
10.8 0.7000000000000001 0.0
11.200000000000001 0.7000000000000001 0.0
11.600000000000001 0.7000000000000001 0.0
12.0 0.7000000000000001 0.0
12.4 0.7000000000000001 0.0
12.8 0.7000000000000001 0.0
13.200000000000001 0.7000000000000001 0.0
13.600000000000001 0.7000000000000001 0.0
14.0 0.7000000000000001 0.0
14.4 0.7000000000000001 0.0
14.8 0.7000000000000001 0.0
15.200000000000001 0.7000000000000001 0.0
15.600000000000001 0.7000000000000001 0.0
16.0 0.7000000000000001 0.0
0.0 0.8 0.0
0.4 0.8 0.0
0.8 0.8 0.0
1.2000000000000002 0.8 0.0
1.6 0.8 0.0
2.0 0.8 0.0
2.4000000000000004 0.8 0.0
2.8000000000000003 0.8 0.0
3.2 0.8 0.0
3.6 0.8 0.0
4.0 0.8 0.0
4.4 0.8 0.0
4.800000000000001 0.8 0.0
5.2 0.8 0.0
5.6000000000000005 0.8 0.0
6.0 0.8 0.0
6.4 0.8 0.0
6.800000000000001 0.8 0.0
7.2 0.8 0.0
7.6000000000000005 0.8 0.0
8.0 0.8 0.0
8.4 0.8 0.0
8.8 0.8 0.0
9.200000000000001 0.8 0.0
9.600000000000001 0.8 0.0
10.0 0.8 0.0
10.4 0.8 0.0
10.8 0.8 0.0
11.200000000000001 0.8 0.0
11.600000000000001 0.8 0.0
12.0 0.8 0.0
12.4 0.8 0.0
12.8 0.8 0.0
13.200000000000001 0.8 0.0
13.600000000000001 0.8 0.0
14.0 0.8 0.0
14.4 0.8 0.0
14.8 0.8 0.0
15.200000000000001 0.8 0.0
15.600000000000001 0.8 0.0
16.0 0.8 0.0
0.0 0.9 0.0
0.4 0.9 0.0
0.8 0.9 0.0
1.2000000000000002 0.9 0.0
1.6 0.9 0.0
2.0 0.9 0.0
2.4000000000000004 0.9 0.0
2.8000000000000003 0.9 0.0
3.2 0.9 0.0
3.6 0.9 0.0
4.0 0.9 0.0
4.4 0.9 0.0
4.800000000000001 0.9 0.0
5.2 0.9 0.0
5.6000000000000005 0.9 0.0
6.0 0.9 0.0
6.4 0.9 0.0
6.800000000000001 0.9 0.0
7.2 0.9 0.0
7.6000000000000005 0.9 0.0
8.0 0.9 0.0
8.4 0.9 0.0
8.8 0.9 0.0
9.200000000000001 0.9 0.0
9.600000000000001 0.9 0.0
10.0 0.9 0.0
10.4 0.9 0.0
10.8 0.9 0.0
11.200000000000001 0.9 0.0
11.600000000000001 0.9 0.0
12.0 0.9 0.0
12.4 0.9 0.0
12.8 0.9 0.0
13.200000000000001 0.9 0.0
13.600000000000001 0.9 0.0
14.0 0.9 0.0
14.4 0.9 0.0
14.8 0.9 0.0
15.200000000000001 0.9 0.0
15.600000000000001 0.9 0.0
16.0 0.9 0.0
0.0 1.0 0.0
0.4 1.0 0.0
0.8 1.0 0.0
1.2000000000000002 1.0 0.0
1.6 1.0 0.0
2.0 1.0 0.0
2.4000000000000004 1.0 0.0
2.8000000000000003 1.0 0.0
3.2 1.0 0.0
3.6 1.0 0.0
4.0 1.0 0.0
4.4 1.0 0.0
4.800000000000001 1.0 0.0
5.2 1.0 0.0
5.6000000000000005 1.0 0.0
6.0 1.0 0.0
6.4 1.0 0.0
6.800000000000001 1.0 0.0
7.2 1.0 0.0
7.6000000000000005 1.0 0.0
8.0 1.0 0.0
8.4 1.0 0.0
8.8 1.0 0.0
9.200000000000001 1.0 0.0
9.600000000000001 1.0 0.0
10.0 1.0 0.0
10.4 1.0 0.0
10.8 1.0 0.0
11.200000000000001 1.0 0.0
11.600000000000001 1.0 0.0
12.0 1.0 0.0
12.4 1.0 0.0
12.8 1.0 0.0
13.200000000000001 1.0 0.0
13.600000000000001 1.0 0.0
14.0 1.0 0.0
14.4 1.0 0.0
14.8 1.0 0.0
15.200000000000001 1.0 0.0
15.600000000000001 1.0 0.0
16.0 1.0 0.0
0.0 1.1 0.0
0.4 1.1 0.0
0.8 1.1 0.0
1.2000000000000002 1.1 0.0
1.6 1.1 0.0
2.0 1.1 0.0
2.4000000000000004 1.1 0.0
2.8000000000000003 1.1 0.0
3.2 1.1 0.0
3.6 1.1 0.0
4.0 1.1 0.0
4.4 1.1 0.0
4.800000000000001 1.1 0.0
5.2 1.1 0.0
5.6000000000000005 1.1 0.0
6.0 1.1 0.0
6.4 1.1 0.0
6.800000000000001 1.1 0.0
7.2 1.1 0.0
7.6000000000000005 1.1 0.0
8.0 1.1 0.0
8.4 1.1 0.0
8.8 1.1 0.0
9.200000000000001 1.1 0.0
9.600000000000001 1.1 0.0
10.0 1.1 0.0
10.4 1.1 0.0
10.8 1.1 0.0
11.200000000000001 1.1 0.0
11.600000000000001 1.1 0.0
12.0 1.1 0.0
12.4 1.1 0.0
12.8 1.1 0.0
13.200000000000001 1.1 0.0
13.600000000000001 1.1 0.0
14.0 1.1 0.0
14.4 1.1 0.0
14.8 1.1 0.0
15.200000000000001 1.1 0.0
15.600000000000001 1.1 0.0
16.0 1.1 0.0
0.0 1.2000000000000002 0.0
0.4 1.2000000000000002 0.0
0.8 1.2000000000000002 0.0
1.2000000000000002 1.2000000000000002 0.0
1.6 1.2000000000000002 0.0
2.0 1.2000000000000002 0.0
2.4000000000000004 1.2000000000000002 0.0
2.8000000000000003 1.2000000000000002 0.0
3.2 1.2000000000000002 0.0
3.6 1.2000000000000002 0.0
4.0 1.2000000000000002 0.0
4.4 1.2000000000000002 0.0
4.800000000000001 1.2000000000000002 0.0
5.2 1.2000000000000002 0.0
5.6000000000000005 1.2000000000000002 0.0
6.0 1.2000000000000002 0.0
6.4 1.2000000000000002 0.0
6.800000000000001 1.2000000000000002 0.0
7.2 1.2000000000000002 0.0
7.6000000000000005 1.2000000000000002 0.0
8.0 1.2000000000000002 0.0
8.4 1.2000000000000002 0.0
8.8 1.2000000000000002 0.0
9.200000000000001 1.2000000000000002 0.0
9.600000000000001 1.2000000000000002 0.0
10.0 1.2000000000000002 0.0
10.4 1.2000000000000002 0.0
10.8 1.2000000000000002 0.0
11.200000000000001 1.2000000000000002 0.0
11.600000000000001 1.2000000000000002 0.0
12.0 1.2000000000000002 0.0
12.4 1.2000000000000002 0.0
12.8 1.2000000000000002 0.0
13.200000000000001 1.2000000000000002 0.0
13.600000000000001 1.2000000000000002 0.0
14.0 1.2000000000000002 0.0
14.4 1.2000000000000002 0.0
14.8 1.2000000000000002 0.0
15.200000000000001 1.2000000000000002 0.0
15.600000000000001 1.2000000000000002 0.0
16.0 1.2000000000000002 0.0
0.0 1.3 0.0
0.4 1.3 0.0
0.8 1.3 0.0
1.2000000000000002 1.3 0.0
1.6 1.3 0.0
2.0 1.3 0.0
2.4000000000000004 1.3 0.0
2.8000000000000003 1.3 0.0
3.2 1.3 0.0
3.6 1.3 0.0
4.0 1.3 0.0
4.4 1.3 0.0
4.800000000000001 1.3 0.0
5.2 1.3 0.0
5.6000000000000005 1.3 0.0
6.0 1.3 0.0
6.4 1.3 0.0
6.800000000000001 1.3 0.0
7.2 1.3 0.0
7.6000000000000005 1.3 0.0
8.0 1.3 0.0
8.4 1.3 0.0
8.8 1.3 0.0
9.200000000000001 1.3 0.0
9.600000000000001 1.3 0.0
10.0 1.3 0.0
10.4 1.3 0.0
10.8 1.3 0.0
11.200000000000001 1.3 0.0
11.600000000000001 1.3 0.0
12.0 1.3 0.0
12.4 1.3 0.0
12.8 1.3 0.0
13.200000000000001 1.3 0.0
13.600000000000001 1.3 0.0
14.0 1.3 0.0
14.4 1.3 0.0
14.8 1.3 0.0
15.200000000000001 1.3 0.0
15.600000000000001 1.3 0.0
16.0 1.3 0.0
0.0 1.4000000000000001 0.0
0.4 1.4000000000000001 0.0
0.8 1.4000000000000001 0.0
1.2000000000000002 1.4000000000000001 0.0
1.6 1.4000000000000001 0.0
2.0 1.4000000000000001 0.0
2.4000000000000004 1.4000000000000001 0.0
2.8000000000000003 1.4000000000000001 0.0
3.2 1.4000000000000001 0.0
3.6 1.4000000000000001 0.0
4.0 1.4000000000000001 0.0
4.4 1.4000000000000001 0.0
4.800000000000001 1.4000000000000001 0.0
5.2 1.4000000000000001 0.0
5.6000000000000005 1.4000000000000001 0.0
6.0 1.4000000000000001 0.0
6.4 1.4000000000000001 0.0
6.800000000000001 1.4000000000000001 0.0
7.2 1.4000000000000001 0.0
7.6000000000000005 1.4000000000000001 0.0
8.0 1.4000000000000001 0.0
8.4 1.4000000000000001 0.0
8.8 1.4000000000000001 0.0
9.200000000000001 1.4000000000000001 0.0
9.600000000000001 1.4000000000000001 0.0
10.0 1.4000000000000001 0.0
10.4 1.4000000000000001 0.0
10.8 1.4000000000000001 0.0
11.200000000000001 1.4000000000000001 0.0
11.600000000000001 1.4000000000000001 0.0
12.0 1.4000000000000001 0.0
12.4 1.4000000000000001 0.0
12.8 1.4000000000000001 0.0
13.200000000000001 1.4000000000000001 0.0
13.600000000000001 1.4000000000000001 0.0
14.0 1.4000000000000001 0.0
14.4 1.4000000000000001 0.0
14.8 1.4000000000000001 0.0
15.200000000000001 1.4000000000000001 0.0
15.600000000000001 1.4000000000000001 0.0
16.0 1.4000000000000001 0.0
0.0 1.5 0.0
0.4 1.5 0.0
0.8 1.5 0.0
1.2000000000000002 1.5 0.0
1.6 1.5 0.0
2.0 1.5 0.0
2.4000000000000004 1.5 0.0
2.8000000000000003 1.5 0.0
3.2 1.5 0.0
3.6 1.5 0.0
4.0 1.5 0.0
4.4 1.5 0.0
4.800000000000001 1.5 0.0
5.2 1.5 0.0
5.6000000000000005 1.5 0.0
6.0 1.5 0.0
6.4 1.5 0.0
6.800000000000001 1.5 0.0
7.2 1.5 0.0
7.6000000000000005 1.5 0.0
8.0 1.5 0.0
8.4 1.5 0.0
8.8 1.5 0.0
9.200000000000001 1.5 0.0
9.600000000000001 1.5 0.0
10.0 1.5 0.0
10.4 1.5 0.0
10.8 1.5 0.0
11.200000000000001 1.5 0.0
11.600000000000001 1.5 0.0
12.0 1.5 0.0
12.4 1.5 0.0
12.8 1.5 0.0
13.200000000000001 1.5 0.0
13.600000000000001 1.5 0.0
14.0 1.5 0.0
14.4 1.5 0.0
14.8 1.5 0.0
15.200000000000001 1.5 0.0
15.600000000000001 1.5 0.0
16.0 1.5 0.0
0.0 1.6 0.0
0.4 1.6 0.0
0.8 1.6 0.0
1.2000000000000002 1.6 0.0
1.6 1.6 0.0
2.0 1.6 0.0
2.4000000000000004 1.6 0.0
2.8000000000000003 1.6 0.0
3.2 1.6 0.0
3.6 1.6 0.0
4.0 1.6 0.0
4.4 1.6 0.0
4.800000000000001 1.6 0.0
5.2 1.6 0.0
5.6000000000000005 1.6 0.0
6.0 1.6 0.0
6.4 1.6 0.0
6.800000000000001 1.6 0.0
7.2 1.6 0.0
7.6000000000000005 1.6 0.0
8.0 1.6 0.0
8.4 1.6 0.0
8.8 1.6 0.0
9.200000000000001 1.6 0.0
9.600000000000001 1.6 0.0
10.0 1.6 0.0
10.4 1.6 0.0
10.8 1.6 0.0
11.200000000000001 1.6 0.0
11.600000000000001 1.6 0.0
12.0 1.6 0.0
12.4 1.6 0.0
12.8 1.6 0.0
13.200000000000001 1.6 0.0
13.600000000000001 1.6 0.0
14.0 1.6 0.0
14.4 1.6 0.0
14.8 1.6 0.0
15.200000000000001 1.6 0.0
15.600000000000001 1.6 0.0
16.0 1.6 0.0
0.0 1.7000000000000002 0.0
0.4 1.7000000000000002 0.0
0.8 1.7000000000000002 0.0
1.2000000000000002 1.7000000000000002 0.0
1.6 1.7000000000000002 0.0
2.0 1.7000000000000002 0.0
2.4000000000000004 1.7000000000000002 0.0
2.8000000000000003 1.7000000000000002 0.0
3.2 1.7000000000000002 0.0
3.6 1.7000000000000002 0.0
4.0 1.7000000000000002 0.0
4.4 1.7000000000000002 0.0
4.800000000000001 1.7000000000000002 0.0
5.2 1.7000000000000002 0.0
5.6000000000000005 1.7000000000000002 0.0
6.0 1.7000000000000002 0.0
6.4 1.7000000000000002 0.0
6.800000000000001 1.7000000000000002 0.0
7.2 1.7000000000000002 0.0
7.6000000000000005 1.7000000000000002 0.0
8.0 1.7000000000000002 0.0
8.4 1.7000000000000002 0.0
8.8 1.7000000000000002 0.0
9.200000000000001 1.7000000000000002 0.0
9.600000000000001 1.7000000000000002 0.0
10.0 1.7000000000000002 0.0
10.4 1.7000000000000002 0.0
10.8 1.7000000000000002 0.0
11.200000000000001 1.7000000000000002 0.0
11.600000000000001 1.7000000000000002 0.0
12.0 1.7000000000000002 0.0
12.4 1.7000000000000002 0.0
12.8 1.7000000000000002 0.0
13.200000000000001 1.7000000000000002 0.0
13.600000000000001 1.7000000000000002 0.0
14.0 1.7000000000000002 0.0
14.4 1.7000000000000002 0.0
14.8 1.7000000000000002 0.0
15.200000000000001 1.7000000000000002 0.0
15.600000000000001 1.7000000000000002 0.0
16.0 1.7000000000000002 0.0
0.0 1.8 0.0
0.4 1.8 0.0
0.8 1.8 0.0
1.2000000000000002 1.8 0.0
1.6 1.8 0.0
2.0 1.8 0.0
2.4000000000000004 1.8 0.0
2.8000000000000003 1.8 0.0
3.2 1.8 0.0
3.6 1.8 0.0
4.0 1.8 0.0
4.4 1.8 0.0
4.800000000000001 1.8 0.0
5.2 1.8 0.0
5.6000000000000005 1.8 0.0
6.0 1.8 0.0
6.4 1.8 0.0
6.800000000000001 1.8 0.0
7.2 1.8 0.0
7.6000000000000005 1.8 0.0
8.0 1.8 0.0
8.4 1.8 0.0
8.8 1.8 0.0
9.200000000000001 1.8 0.0
9.600000000000001 1.8 0.0
10.0 1.8 0.0
10.4 1.8 0.0
10.8 1.8 0.0
11.200000000000001 1.8 0.0
11.600000000000001 1.8 0.0
12.0 1.8 0.0
12.4 1.8 0.0
12.8 1.8 0.0
13.200000000000001 1.8 0.0
13.600000000000001 1.8 0.0
14.0 1.8 0.0
14.4 1.8 0.0
14.8 1.8 0.0
15.200000000000001 1.8 0.0
15.600000000000001 1.8 0.0
16.0 1.8 0.0
0.0 1.9000000000000001 0.0
0.4 1.9000000000000001 0.0
0.8 1.9000000000000001 0.0
1.2000000000000002 1.9000000000000001 0.0
1.6 1.9000000000000001 0.0
2.0 1.9000000000000001 0.0
2.4000000000000004 1.9000000000000001 0.0
2.8000000000000003 1.9000000000000001 0.0
3.2 1.9000000000000001 0.0
3.6 1.9000000000000001 0.0
4.0 1.9000000000000001 0.0
4.4 1.9000000000000001 0.0
4.800000000000001 1.9000000000000001 0.0
5.2 1.9000000000000001 0.0
5.6000000000000005 1.9000000000000001 0.0
6.0 1.9000000000000001 0.0
6.4 1.9000000000000001 0.0
6.800000000000001 1.9000000000000001 0.0
7.2 1.9000000000000001 0.0
7.6000000000000005 1.9000000000000001 0.0
8.0 1.9000000000000001 0.0
8.4 1.9000000000000001 0.0
8.8 1.9000000000000001 0.0
9.200000000000001 1.9000000000000001 0.0
9.600000000000001 1.9000000000000001 0.0
10.0 1.9000000000000001 0.0
10.4 1.9000000000000001 0.0
10.8 1.9000000000000001 0.0
11.200000000000001 1.9000000000000001 0.0
11.600000000000001 1.9000000000000001 0.0
12.0 1.9000000000000001 0.0
12.4 1.9000000000000001 0.0
12.8 1.9000000000000001 0.0
13.200000000000001 1.9000000000000001 0.0
13.600000000000001 1.9000000000000001 0.0
14.0 1.9000000000000001 0.0
14.4 1.9000000000000001 0.0
14.8 1.9000000000000001 0.0
15.200000000000001 1.9000000000000001 0.0
15.600000000000001 1.9000000000000001 0.0
16.0 1.9000000000000001 0.0
0.0 2.0 0.0
0.4 2.0 0.0
0.8 2.0 0.0
1.2000000000000002 2.0 0.0
1.6 2.0 0.0
2.0 2.0 0.0
2.4000000000000004 2.0 0.0
2.8000000000000003 2.0 0.0
3.2 2.0 0.0
3.6 2.0 0.0
4.0 2.0 0.0
4.4 2.0 0.0
4.800000000000001 2.0 0.0
5.2 2.0 0.0
5.6000000000000005 2.0 0.0
6.0 2.0 0.0
6.4 2.0 0.0
6.800000000000001 2.0 0.0
7.2 2.0 0.0
7.6000000000000005 2.0 0.0
8.0 2.0 0.0
8.4 2.0 0.0
8.8 2.0 0.0
9.200000000000001 2.0 0.0
9.600000000000001 2.0 0.0
10.0 2.0 0.0
10.4 2.0 0.0
10.8 2.0 0.0
11.200000000000001 2.0 0.0
11.600000000000001 2.0 0.0
12.0 2.0 0.0
12.4 2.0 0.0
12.8 2.0 0.0
13.200000000000001 2.0 0.0
13.600000000000001 2.0 0.0
14.0 2.0 0.0
14.4 2.0 0.0
14.8 2.0 0.0
15.200000000000001 2.0 0.0
15.600000000000001 2.0 0.0
16.0 2.0 0.0
CELLS 800 4000
4 0 1 42 41
4 1 2 43 42
4 2 3 44 43
4 3 4 45 44
4 4 5 46 45
4 5 6 47 46
4 6 7 48 47
4 7 8 49 48
4 8 9 50 49
4 9 10 51 50
4 10 11 52 51
4 11 12 53 52
4 12 13 54 53
4 13 14 55 54
4 14 15 56 55
4 15 16 57 56
4 16 17 58 57
4 17 18 59 58
4 18 19 60 59
4 19 20 61 60
4 20 21 62 61
4 21 22 63 62
4 22 23 64 63
4 23 24 65 64
4 24 25 66 65
4 25 26 67 66
4 26 27 68 67
4 27 28 69 68
4 28 29 70 69
4 29 30 71 70
4 30 31 72 71
4 31 32 73 72
4 32 33 74 73
4 33 34 75 74
4 34 35 76 75
4 35 36 77 76
4 36 37 78 77
4 37 38 79 78
4 38 39 80 79
4 39 40 81 80
4 41 42 83 82
4 42 43 84 83
4 43 44 85 84
4 44 45 86 85
4 45 46 87 86
4 46 47 88 87
4 47 48 89 88
4 48 49 90 89
4 49 50 91 90
4 50 51 92 91
4 51 52 93 92
4 52 53 94 93
4 53 54 95 94
4 54 55 96 95
4 55 56 97 96
4 56 57 98 97
4 57 58 99 98
4 58 59 100 99
4 59 60 101 100
4 60 61 102 101
4 61 62 103 102
4 62 63 104 103
4 63 64 105 104
4 64 65 106 105
4 65 66 107 106
4 66 67 108 107
4 67 68 109 108
4 68 69 110 109
4 69 70 111 110
4 70 71 112 111
4 71 72 113 112
4 72 73 114 113
4 73 74 115 114
4 74 75 116 115
4 75 76 117 116
4 76 77 118 117
4 77 78 119 118
4 78 79 120 119
4 79 80 121 120
4 80 81 122 121
4 82 83 124 123
4 83 84 125 124
4 84 85 126 125
4 85 86 127 126
4 86 87 128 127
4 87 88 129 128
4 88 89 130 129
4 89 90 131 130
4 90 91 132 131
4 91 92 133 132
4 92 93 134 133
4 93 94 135 134
4 94 95 136 135
4 95 96 137 136
4 96 97 138 137
4 97 98 139 138
4 98 99 140 139
4 99 100 141 140
4 100 101 142 141
4 101 102 143 142
4 102 103 144 143
4 103 104 145 144
4 104 105 146 145
4 105 106 147 146
4 106 107 148 147
4 107 108 149 148
4 108 109 150 149
4 109 110 151 150
4 110 111 152 151
4 111 112 153 152
4 112 113 154 153
4 113 114 155 154
4 114 115 156 155
4 115 116 157 156
4 116 117 158 157
4 117 118 159 158
4 118 119 160 159
4 119 120 161 160
4 120 121 162 161
4 121 122 163 162
4 123 124 165 164
4 124 125 166 165
4 125 126 167 166
4 126 127 168 167
4 127 128 169 168
4 128 129 170 169
4 129 130 171 170
4 130 131 172 171
4 131 132 173 172
4 132 133 174 173
4 133 134 175 174
4 134 135 176 175
4 135 136 177 176
4 136 137 178 177
4 137 138 179 178
4 138 139 180 179
4 139 140 181 180
4 140 141 182 181
4 141 142 183 182
4 142 143 184 183
4 143 144 185 184
4 144 145 186 185
4 145 146 187 186
4 146 147 188 187
4 147 148 189 188
4 148 149 190 189
4 149 150 191 190
4 150 151 192 191
4 151 152 193 192
4 152 153 194 193
4 153 154 195 194
4 154 155 196 195
4 155 156 197 196
4 156 157 198 197
4 157 158 199 198
4 158 159 200 199
4 159 160 201 200
4 160 161 202 201
4 161 162 203 202
4 162 163 204 203
4 164 165 206 205
4 165 166 207 206
4 166 167 208 207
4 167 168 209 208
4 168 169 210 209
4 169 170 211 210
4 170 171 212 211
4 171 172 213 212
4 172 173 214 213
4 173 174 215 214
4 174 175 216 215
4 175 176 217 216
4 176 177 218 217
4 177 178 219 218
4 178 179 220 219
4 179 180 221 220
4 180 181 222 221
4 181 182 223 222
4 182 183 224 223
4 183 184 225 224
4 184 185 226 225
4 185 186 227 226
4 186 187 228 227
4 187 188 229 228
4 188 189 230 229
4 189 190 231 230
4 190 191 232 231
4 191 192 233 232
4 192 193 234 233
4 193 194 235 234
4 194 195 236 235
4 195 196 237 236
4 196 197 238 237
4 197 198 239 238
4 198 199 240 239
4 199 200 241 240
4 200 201 242 241
4 201 202 243 242
4 202 203 244 243
4 203 204 245 244
4 205 206 247 246
4 206 207 248 247
4 207 208 249 248
4 208 209 250 249
4 209 210 251 250
4 210 211 252 251
4 211 212 253 252
4 212 213 254 253
4 213 214 255 254
4 214 215 256 255
4 215 216 257 256
4 216 217 258 257
4 217 218 259 258
4 218 219 260 259
4 219 220 261 260
4 220 221 262 261
4 221 222 263 262
4 222 223 264 263
4 223 224 265 264
4 224 225 266 265
4 225 226 267 266
4 226 227 268 267
4 227 228 269 268
4 228 229 270 269
4 229 230 271 270
4 230 231 272 271
4 231 232 273 272
4 232 233 274 273
4 233 234 275 274
4 234 235 276 275
4 235 236 277 276
4 236 237 278 277
4 237 238 279 278
4 238 239 280 279
4 239 240 281 280
4 240 241 282 281
4 241 242 283 282
4 242 243 284 283
4 243 244 285 284
4 244 245 286 285
4 246 247 288 287
4 247 248 289 288
4 248 249 290 289
4 249 250 291 290
4 250 251 292 291
4 251 252 293 292
4 252 253 294 293
4 253 254 295 294
4 254 255 296 295
4 255 256 297 296
4 256 257 298 297
4 257 258 299 298
4 258 259 300 299
4 259 260 301 300
4 260 261 302 301
4 261 262 303 302
4 262 263 304 303
4 263 264 305 304
4 264 265 306 305
4 265 266 307 306
4 266 267 308 307
4 267 268 309 308
4 268 269 310 309
4 269 270 311 310
4 270 271 312 311
4 271 272 313 312
4 272 273 314 313
4 273 274 315 314
4 274 275 316 315
4 275 276 317 316
4 276 277 318 317
4 277 278 319 318
4 278 279 320 319
4 279 280 321 320
4 280 281 322 321
4 281 282 323 322
4 282 283 324 323
4 283 284 325 324
4 284 285 326 325
4 285 286 327 326
4 287 288 329 328
4 288 289 330 329
4 289 290 331 330
4 290 291 332 331
4 291 292 333 332
4 292 293 334 333
4 293 294 335 334
4 294 295 336 335
4 295 296 337 336
4 296 297 338 337
4 297 298 339 338
4 298 299 340 339
4 299 300 341 340
4 300 301 342 341
4 301 302 343 342
4 302 303 344 343
4 303 304 345 344
4 304 305 346 345
4 305 306 347 346
4 306 307 348 347
4 307 308 349 348
4 308 309 350 349
4 309 310 351 350
4 310 311 352 351
4 311 312 353 352
4 312 313 354 353
4 313 314 355 354
4 314 315 356 355
4 315 316 357 356
4 316 317 358 357
4 317 318 359 358
4 318 319 360 359
4 319 320 361 360
4 320 321 362 361
4 321 322 363 362
4 322 323 364 363
4 323 324 365 364
4 324 325 366 365
4 325 326 367 366
4 326 327 368 367
4 328 329 370 369
4 329 330 371 370
4 330 331 372 371
4 331 332 373 372
4 332 333 374 373
4 333 334 375 374
4 334 335 376 375
4 335 336 377 376
4 336 337 378 377
4 337 338 379 378
4 338 339 380 379
4 339 340 381 380
4 340 341 382 381
4 341 342 383 382
4 342 343 384 383
4 343 344 385 384
4 344 345 386 385
4 345 346 387 386
4 346 347 388 387
4 347 348 389 388
4 348 349 390 389
4 349 350 391 390
4 350 351 392 391
4 351 352 393 392
4 352 353 394 393
4 353 354 395 394
4 354 355 396 395
4 355 356 397 396
4 356 357 398 397
4 357 358 399 398
4 358 359 400 399
4 359 360 401 400
4 360 361 402 401
4 361 362 403 402
4 362 363 404 403
4 363 364 405 404
4 364 365 406 405
4 365 366 407 406
4 366 367 408 407
4 367 368 409 408
4 369 370 411 410
4 370 371 412 411
4 371 372 413 412
4 372 373 414 413
4 373 374 415 414
4 374 375 416 415
4 375 376 417 416
4 376 377 418 417
4 377 378 419 418
4 378 379 420 419
4 379 380 421 420
4 380 381 422 421
4 381 382 423 422
4 382 383 424 423
4 383 384 425 424
4 384 385 426 425
4 385 386 427 426
4 386 387 428 427
4 387 388 429 428
4 388 389 430 429
4 389 390 431 430
4 390 391 432 431
4 391 392 433 432
4 392 393 434 433
4 393 394 435 434
4 394 395 436 435
4 395 396 437 436
4 396 397 438 437
4 397 398 439 438
4 398 399 440 439
4 399 400 441 440
4 400 401 442 441
4 401 402 443 442
4 402 403 444 443
4 403 404 445 444
4 404 405 446 445
4 405 406 447 446
4 406 407 448 447
4 407 408 449 448
4 408 409 450 449
4 410 411 452 451
4 411 412 453 452
4 412 413 454 453
4 413 414 455 454
4 414 415 456 455
4 415 416 457 456
4 416 417 458 457
4 417 418 459 458
4 418 419 460 459
4 419 420 461 460
4 420 421 462 461
4 421 422 463 462
4 422 423 464 463
4 423 424 465 464
4 424 425 466 465
4 425 426 467 466
4 426 427 468 467
4 427 428 469 468
4 428 429 470 469
4 429 430 471 470
4 430 431 472 471
4 431 432 473 472
4 432 433 474 473
4 433 434 475 474
4 434 435 476 475
4 435 436 477 476
4 436 437 478 477
4 437 438 479 478
4 438 439 480 479
4 439 440 481 480
4 440 441 482 481
4 441 442 483 482
4 442 443 484 483
4 443 444 485 484
4 444 445 486 485
4 445 446 487 486
4 446 447 488 487
4 447 448 489 488
4 448 449 490 489
4 449 450 491 490
4 451 452 493 492
4 452 453 494 493
4 453 454 495 494
4 454 455 496 495
4 455 456 497 496
4 456 457 498 497
4 457 458 499 498
4 458 459 500 499
4 459 460 501 500
4 460 461 502 501
4 461 462 503 502
4 462 463 504 503
4 463 464 505 504
4 464 465 506 505
4 465 466 507 506
4 466 467 508 507
4 467 468 509 508
4 468 469 510 509
4 469 470 511 510
4 470 471 512 511
4 471 472 513 512
4 472 473 514 513
4 473 474 515 514
4 474 475 516 515
4 475 476 517 516
4 476 477 518 517
4 477 478 519 518
4 478 479 520 519
4 479 480 521 520
4 480 481 522 521
4 481 482 523 522
4 482 483 524 523
4 483 484 525 524
4 484 485 526 525
4 485 486 527 526
4 486 487 528 527
4 487 488 529 528
4 488 489 530 529
4 489 490 531 530
4 490 491 532 531
4 492 493 534 533
4 493 494 535 534
4 494 495 536 535
4 495 496 537 536
4 496 497 538 537
4 497 498 539 538
4 498 499 540 539
4 499 500 541 540
4 500 501 542 541
4 501 502 543 542
4 502 503 544 543
4 503 504 545 544
4 504 505 546 545
4 505 506 547 546
4 506 507 548 547
4 507 508 549 548
4 508 509 550 549
4 509 510 551 550
4 510 511 552 551
4 511 512 553 552
4 512 513 554 553
4 513 514 555 554
4 514 515 556 555
4 515 516 557 556
4 516 517 558 557
4 517 518 559 558
4 518 519 560 559
4 519 520 561 560
4 520 521 562 561
4 521 522 563 562
4 522 523 564 563
4 523 524 565 564
4 524 525 566 565
4 525 526 567 566
4 526 527 568 567
4 527 528 569 568
4 528 529 570 569
4 529 530 571 570
4 530 531 572 571
4 531 532 573 572
4 533 534 575 574
4 534 535 576 575
4 535 536 577 576
4 536 537 578 577
4 537 538 579 578
4 538 539 580 579
4 539 540 581 580
4 540 541 582 581
4 541 542 583 582
4 542 543 584 583
4 543 544 585 584
4 544 545 586 585
4 545 546 587 586
4 546 547 588 587
4 547 548 589 588
4 548 549 590 589
4 549 550 591 590
4 550 551 592 591
4 551 552 593 592
4 552 553 594 593
4 553 554 595 594
4 554 555 596 595
4 555 556 597 596
4 556 557 598 597
4 557 558 599 598
4 558 559 600 599
4 559 560 601 600
4 560 561 602 601
4 561 562 603 602
4 562 563 604 603
4 563 564 605 604
4 564 565 606 605
4 565 566 607 606
4 566 567 608 607
4 567 568 609 608
4 568 569 610 609
4 569 570 611 610
4 570 571 612 611
4 571 572 613 612
4 572 573 614 613
4 574 575 616 615
4 575 576 617 616
4 576 577 618 617
4 577 578 619 618
4 578 579 620 619
4 579 580 621 620
4 580 581 622 621
4 581 582 623 622
4 582 583 624 623
4 583 584 625 624
4 584 585 626 625
4 585 586 627 626
4 586 587 628 627
4 587 588 629 628
4 588 589 630 629
4 589 590 631 630
4 590 591 632 631
4 591 592 633 632
4 592 593 634 633
4 593 594 635 634
4 594 595 636 635
4 595 596 637 636
4 596 597 638 637
4 597 598 639 638
4 598 599 640 639
4 599 600 641 640
4 600 601 642 641
4 601 602 643 642
4 602 603 644 643
4 603 604 645 644
4 604 605 646 645
4 605 606 647 646
4 606 607 648 647
4 607 608 649 648
4 608 609 650 649
4 609 610 651 650
4 610 611 652 651
4 611 612 653 652
4 612 613 654 653
4 613 614 655 654
4 615 616 657 656
4 616 617 658 657
4 617 618 659 658
4 618 619 660 659
4 619 620 661 660
4 620 621 662 661
4 621 622 663 662
4 622 623 664 663
4 623 624 665 664
4 624 625 666 665
4 625 626 667 666
4 626 627 668 667
4 627 628 669 668
4 628 629 670 669
4 629 630 671 670
4 630 631 672 671
4 631 632 673 672
4 632 633 674 673
4 633 634 675 674
4 634 635 676 675
4 635 636 677 676
4 636 637 678 677
4 637 638 679 678
4 638 639 680 679
4 639 640 681 680
4 640 641 682 681
4 641 642 683 682
4 642 643 684 683
4 643 644 685 684
4 644 645 686 685
4 645 646 687 686
4 646 647 688 687
4 647 648 689 688
4 648 649 690 689
4 649 650 691 690
4 650 651 692 691
4 651 652 693 692
4 652 653 694 693
4 653 654 695 694
4 654 655 696 695
4 656 657 698 697
4 657 658 699 698
4 658 659 700 699
4 659 660 701 700
4 660 661 702 701
4 661 662 703 702
4 662 663 704 703
4 663 664 705 704
4 664 665 706 705
4 665 666 707 706
4 666 667 708 707
4 667 668 709 708
4 668 669 710 709
4 669 670 711 710
4 670 671 712 711
4 671 672 713 712
4 672 673 714 713
4 673 674 715 714
4 674 675 716 715
4 675 676 717 716
4 676 677 718 717
4 677 678 719 718
4 678 679 720 719
4 679 680 721 720
4 680 681 722 721
4 681 682 723 722
4 682 683 724 723
4 683 684 725 724
4 684 685 726 725
4 685 686 727 726
4 686 687 728 727
4 687 688 729 728
4 688 689 730 729
4 689 690 731 730
4 690 691 732 731
4 691 692 733 732
4 692 693 734 733
4 693 694 735 734
4 694 695 736 735
4 695 696 737 736
4 697 698 739 738
4 698 699 740 739
4 699 700 741 740
4 700 701 742 741
4 701 702 743 742
4 702 703 744 743
4 703 704 745 744
4 704 705 746 745
4 705 706 747 746
4 706 707 748 747
4 707 708 749 748
4 708 709 750 749
4 709 710 751 750
4 710 711 752 751
4 711 712 753 752
4 712 713 754 753
4 713 714 755 754
4 714 715 756 755
4 715 716 757 756
4 716 717 758 757
4 717 718 759 758
4 718 719 760 759
4 719 720 761 760
4 720 721 762 761
4 721 722 763 762
4 722 723 764 763
4 723 724 765 764
4 724 725 766 765
4 725 726 767 766
4 726 727 768 767
4 727 728 769 768
4 728 729 770 769
4 729 730 771 770
4 730 731 772 771
4 731 732 773 772
4 732 733 774 773
4 733 734 775 774
4 734 735 776 775
4 735 736 777 776
4 736 737 778 777
4 738 739 780 779
4 739 740 781 780
4 740 741 782 781
4 741 742 783 782
4 742 743 784 783
4 743 744 785 784
4 744 745 786 785
4 745 746 787 786
4 746 747 788 787
4 747 748 789 788
4 748 749 790 789
4 749 750 791 790
4 750 751 792 791
4 751 752 793 792
4 752 753 794 793
4 753 754 795 794
4 754 755 796 795
4 755 756 797 796
4 756 757 798 797
4 757 758 799 798
4 758 759 800 799
4 759 760 801 800
4 760 761 802 801
4 761 762 803 802
4 762 763 804 803
4 763 764 805 804
4 764 765 806 805
4 765 766 807 806
4 766 767 808 807
4 767 768 809 808
4 768 769 810 809
4 769 770 811 810
4 770 771 812 811
4 771 772 813 812
4 772 773 814 813
4 773 774 815 814
4 774 775 816 815
4 775 776 817 816
4 776 777 818 817
4 777 778 819 818
4 779 780 821 820
4 780 781 822 821
4 781 782 823 822
4 782 783 824 823
4 783 784 825 824
4 784 785 826 825
4 785 786 827 826
4 786 787 828 827
4 787 788 829 828
4 788 789 830 829
4 789 790 831 830
4 790 791 832 831
4 791 792 833 832
4 792 793 834 833
4 793 794 835 834
4 794 795 836 835
4 795 796 837 836
4 796 797 838 837
4 797 798 839 838
4 798 799 840 839
4 799 800 841 840
4 800 801 842 841
4 801 802 843 842
4 802 803 844 843
4 803 804 845 844
4 804 805 846 845
4 805 806 847 846
4 806 807 848 847
4 807 808 849 848
4 808 809 850 849
4 809 810 851 850
4 810 811 852 851
4 811 812 853 852
4 812 813 854 853
4 813 814 855 854
4 814 815 856 855
4 815 816 857 856
4 816 817 858 857
4 817 818 859 858
4 818 819 860 859
CELL_TYPES 800
9
9
9
9
9
9
9
9
9
9
9
9
9
9
9
9
9
9
9
9
9
9
9
9
9
9
9
9
9
9
9
9
9
9
9
9
9
9
9
9
9
9
9
9
9
9
9
9
9
9
9
9
9
9
9
9
9
9
9
9
9
9
9
9
9
9
9
9
9
9
9
9
9
9
9
9
9
9
9
9
9
9
9
9
9
9
9
9
9
9
9
9
9
9
9
9
9
9
9
9
9
9
9
9
9
9
9
9
9
9
9
9
9
9
9
9
9
9
9
9
9
9
9
9
9
9
9
9
9
9
9
9
9
9
9
9
9
9
9
9
9
9
9
9
9
9
9
9
9
9
9
9
9
9
9
9
9
9
9
9
9
9
9
9
9
9
9
9
9
9
9
9
9
9
9
9
9
9
9
9
9
9
9
9
9
9
9
9
9
9
9
9
9
9
9
9
9
9
9
9
9
9
9
9
9
9
9
9
9
9
9
9
9
9
9
9
9
9
9
9
9
9
9
9
9
9
9
9
9
9
9
9
9
9
9
9
9
9
9
9
9
9
9
9
9
9
9
9
9
9
9
9
9
9
9
9
9
9
9
9
9
9
9
9
9
9
9
9
9
9
9
9
9
9
9
9
9
9
9
9
9
9
9
9
9
9
9
9
9
9
9
9
9
9
9
9
9
9
9
9
9
9
9
9
9
9
9
9
9
9
9
9
9
9
9
9
9
9
9
9
9
9
9
9
9
9
9
9
9
9
9
9
9
9
9
9
9
9
9
9
9
9
9
9
9
9
9
9
9
9
9
9
9
9
9
9
9
9
9
9
9
9
9
9
9
9
9
9
9
9
9
9
9
9
9
9
9
9
9
9
9
9
9
9
9
9
9
9
9
9
9
9
9
9
9
9
9
9
9
9
9
9
9
9
9
9
9
9
9
9
9
9
9
9
9
9
9
9
9
9
9
9
9
9
9
9
9
9
9
9
9
9
9
9
9
9
9
9
9
9
9
9
9
9
9
9
9
9
9
9
9
9
9
9
9
9
9
9
9
9
9
9
9
9
9
9
9
9
9
9
9
9
9
9
9
9
9
9
9
9
9
9
9
9
9
9
9
9
9
9
9
9
9
9
9
9
9
9
9
9
9
9
9
9
9
9
9
9
9
9
9
9
9
9
9
9
9
9
9
9
9
9
9
9
9
9
9
9
9
9
9
9
9
9
9
9
9
9
9
9
9
9
9
9
9
9
9
9
9
9
9
9
9
9
9
9
9
9
9
9
9
9
9
9
9
9
9
9
9
9
9
9
9
9
9
9
9
9
9
9
9
9
9
9
9
9
9
9
9
9
9
9
9
9
9
9
9
9
9
9
9
9
9
9
9
9
9
9
9
9
9
9
9
9
9
9
9
9
9
9
9
9
9
9
9
9
9
9
9
9
9
9
9
9
9
9
9
9
9
9
9
9
9
9
9
9
9
9
9
9
9
9
9
9
9
9
9
9
9
9
9
9
9
9
9
9
9
9
9
9
9
9
9
9
9
9
9
9
9
9
9
9
9
9
9
9
9
9
9
9
9
9
9
9
9
9
9
9
9
9
9
9
9
9
9
9
9
9
9
9
9
9
9
9
9
9
9
9
9
9
9
9
9
9
9
9
9
9
9
9
9
9
9
9
9
9
9
9
9
9
9
9
9
9
9
9
9
9
9
9
9
9
9
9
9
9
9
9
9
9
9
9
9
9
9
9
9
9
9
9
9
9
9
9
9
9
9
9
9
9
9
9
9
9
9
9
9
9
9
9
9
9
9
9
9
9
9
9
9
9
POINT_DATA 861
SCALARS Disp float 2
LOOKUP_TABLE default
0.0 0.0
0.005761497476400312 -0.24591300249478457
0.007077768775351228 -0.4826807178402762
0.007860843510982036 -0.7184114419074077
0.008869629438823632 -0.9537798577119039
0.010494304087006879 -1.188382432854839
0.013342288689018355 -1.4216829935050717
0.018152781259444674 -1.653006884452507
0.025795302890426638 -1.8815113362493796
0.037217876128774176 -2.1061003579599418
0.05336829776216762 -2.3252961666887533
0.07514307909522515 -2.5371595963440963
0.10336369409916105 -2.7393136386070087
0.13876797955838902 -2.929054483442634
0.18200788167402293 -3.1034337315844387
0.23358245710680428 -3.2593224511634653
0.29371549780548384 -3.393492206462361
0.3622073129917557 -3.5027467451033703
0.43830685706973843 -3.5841399827366422
0.520657406118746 -3.6352220868913343
0.6070990928054927 -3.654323557933457
0.6935407794922348 -3.6352220868912193
0.7758913285412244 -3.584139982736411
0.8519908726191775 -3.5027467451030345
0.9204826878054115 -3.39349220646194
0.9806157285040497 -3.259322451162985
1.0321903039367897 -3.1034337315839124
1.0754302060523824 -2.929054483442077
1.1108344915115695 -2.739313638606438
1.1390551065154655 -2.5371595963435305
1.1608298878484875 -2.3252961666882066
1.1769803094818525 -2.106100357959429
1.188402882720178 -1.8815113362489049
1.1960454043511428 -1.6530068844520787
1.200855896921558 -1.421682993504694
1.2037038815235623 -1.1883824328545187
1.2053285561717426 -0.9537798577116416
1.2063373420995835 -0.7184114419072067
1.2071204168352139 -0.4826807178401352
1.2084366881341633 -0.24591300249470652
1.2141981856105601 0.0
0.06134011362369725 -0.002400222169398744
0.06536661701589232 -0.24617337871698922
0.06605430920184768 -0.482742655615147
0.06674881392497266 -0.718500668075336
0.06763418211521291 -0.9539233732183402
0.06901592876757129 -1.1886989249695321
0.07146519030845157 -1.4223391059638215
0.07568012036802545 -1.6542015893995272
0.08247757924586971 -1.883466947208177
0.09272349419210471 -2.1090433645338216
0.10726362448524245 -2.3294431423181865
0.12688260868302348 -2.542711015867265
0.15230383063842154 -2.7464535655433227
0.18419837290906033 -2.9379500693994407
0.22316198086176045 -3.1142278663077834
0.26966026583967795 -3.272110779617469
0.3239184421919689 -3.408289406944488
0.3857894892605278 -3.5194520461271397
0.4546322908948311 -3.6025094427834365
0.5291639287008673 -3.654843738234625
0.6070990928054787 -3.6744622219112415
0.6850342569100855 -3.6548437382345074
0.759565894716105 -3.602509442783199
0.8284086963503822 -3.519452046126796
0.8902797434189081 -3.4082894069440575
0.9445379197711625 -3.272110779616979
0.9910362047490426 -3.114227866307248
1.0299998127017056 -2.9379500693988736
1.0618943549723077 -2.7464535655427422
1.0873155769276697 -2.54271101586669
1.1069345611254189 -2.3294431423176327
1.1214746914185307 -2.109043364533302
1.1317206063647456 -1.8834669472076981
1.1385180652425746 -1.6542015893990953
1.1427329953021381 -1.4223391059634418
1.1451822568430126 -1.188698924969211
1.1465640034953684 -0.9539233732180777
1.147449371685608 -0.718500668075135
1.1481438764087326 -0.48274265561500607
1.148831568594688 -0.24617337871691086
1.1528580719868775 -0.002400222169396234
0.12170449095452214 -0.004305143792520008
0.12465645352717564 -0.24630240470133902
0.1250506990026478 -0.48277567447052594
0.12561735018977357 -0.7185792707689358
0.1263889734985766 -0.9540380310914567
0.1275524946106462 -1.1889493361545818
0.12961243553955729 -1.4228822460238602
0.13323459619102584 -1.6552259318928702
0.1391725196556485 -1.8851791167950065
0.14821284850743655 -2.1116478973240684
0.1611040094690665 -2.3331307480375094
0.17852858516198888 -2.5476560895914346
0.2011142053764051 -2.752818723913421
0.22945263737882818 -2.9458872890854235
0.26408776143088825 -3.1238684788662723
0.3054522255167695 -3.283546188095805
0.3537825076912134 -3.421542194525414
0.4090008932786631 -3.5344430485231535
0.4705684378584749 -3.619022981263521
0.5372709639048109 -3.672463699177898
0.607099092805465 -3.692549035045696
0.6769272217061149 -3.672463699177778
0.7436297477524356 -3.619022981263278
0.8051972923322243 -3.534443048522803
0.8604156779196456 -3.4215421945249758
0.9087459600940568 -3.2835461880953063
0.9501104241799049 -3.123868478865728
0.9847455482319316 -2.9458872890848484
1.0130839802343221 -2.752818723912832
1.035669600448707 -2.5476560895908515
1.0530941761416008 -2.333130748036949
1.0659853371032078 -2.1116478973235435
1.0750256659549773 -1.8851791167945235
1.0809635894195864 -1.6552259318924356
1.0845857500710459 -1.4228822460234787
1.086645690999952 -1.1889493361542598
1.0878092121120198 -0.954038031091194
1.0885808354208222 -0.7185792707687348
1.089147486607948 -0.48277567447038516
1.08954173208342 -0.24630240470126027
1.0924936946560682 -0.00430514379251474
0.18155431607680883 -0.005835873505901078
0.18378457835998188 -0.2463903350138221
0.18402504942104742 -0.48279393094410145
0.18446838946170374 -0.7186429290407295
0.18512896478121343 -0.9541317223523486
0.18610062793092405 -1.1891415934477356
0.18779385940099266 -1.4233162960543129
0.19083020398333678 -1.65608104132886
0.19590376410010044 -1.886644727217875
0.20372156674598343 -2.1139080828701604
0.21493938137857502 -2.33635176137796
0.23014195529624498 -2.551988152799182
0.2498654873565995 -2.7584023785889693
0.2746211286392168 -2.9528570056697188
0.3048890508127374 -3.132344642843727
0.341076044917931 -3.293617199042534
0.3834338440984518 -3.4332405434505717
0.4319531518163613 -3.5477128506402806
0.48620440763035616 -3.63367383876858
0.5451539306280275 -3.688125632643403
0.6070990928054518 -3.708682291349284
0.6690442549828719 -3.6881256326432807
0.7279937779805299 -3.633673838768333
0.782245033794504 -3.5477128506399236
0.8307643415123889 -3.4332405434501267
0.8731221406928813 -3.2936171990420275
0.9093091347980454 -3.1323446428431754
0.939577056971537 -2.9528570056691357
0.9643326982541256 -2.7584023785883733
0.9840562303144528 -2.5519881527985917
0.9992588042320981 -2.336351761377393
1.0104766188646692 -2.11390808286963
1.0182944215105358 -1.886644727217388
1.0233679816272878 -1.6560810413284226
1.0264043262096239 -1.4233162960539298
1.0280975576796885 -1.1891415934474132
1.029069220829398 -0.9541317223520858
1.0297297961489074 -0.7186429290405286
1.0301731361895636 -0.4827939309439607
1.0304136072506291 -0.246390335013743
1.0326438695337972 -0.00583587350589332
0.24111043693432627 -0.0070726278078811575
0.24280167571450384 -0.24645887184417828
0.24295857133605875 -0.48280442183462524
0.2432979377271137 -0.718692332140081
0.2438505623592004 -0.9542083263064869
0.2446524683794662 -1.1892873973915936
0.24601610986931596 -1.4236491658916823
0.2484801132774531 -1.6567697909642414
0.2526951858962453 -1.887863980852345
0.2592854276404326 -2.115821382342704
0.2688181917432609 -2.339102674498468
0.2817851387733867 -2.555703170315312
0.29863061196367957 -2.763200555803724
0.3197861655842735 -2.958854883450019
0.3456719286816948 -3.139649926500238
0.37665520931978036 -3.302315476104168
0.4129996970814822 -3.4433742982706645
0.4547664880256077 -3.5592494755284347
0.5016670988287255 -3.646462873898471
0.5529048026835222 -3.701862285717338
0.6070990928054388 -3.7229161550461054
0.6612933829273515 -3.701862285717214
0.7125310867821363 -3.6464628738982197
0.7594316975852359 -3.5592494755280724
0.8011984885293404 -3.443374298270214
0.8375429762910176 -3.3023154761036553
0.8685262569290776 -3.1396499264996796
0.8944120200264741 -2.9588548834494293
0.9155675736470433 -2.7632005558031216
0.932413046837313 -2.5557031703147164
0.9453799938674178 -2.339102674497897
0.9549127579702286 -2.1158213823421694
0.9615029997144018 -1.887863980851855
0.9657180723331836 -1.6567697909638022
0.9681820757413144 -1.4236491658912982
0.9695457172311611 -1.1892873973912708
0.970347623251426 -0.9542083263062241
0.9709002478835125 -0.7186923321398802
0.9712396142745675 -0.4828044218344846
0.9713965098961224 -0.2464588718440989
0.9730877486762957 -0.007072627807871225
0.30047253146972763 -0.00806596012971471
0.30174119272186745 -0.24651543901550144
0.3018494830183109 -0.4828118878637571
0.302103032496791 -0.7187289292394655
0.30254987130954325 -0.9542707675837689
0.3032019251499112 -1.1893970319504779
0.30427177692625185 -1.4238940674004155
0.30620403150888625 -1.6572980354230786
0.3095707974144965 -1.8888398176529024
0.3149403695223663 -2.117388832177832
0.32278907550490293 -2.3413831662900018
0.3335184968636138 -2.558800683127021
0.34748470760013345 -2.7672125728747323
0.3650384096102049 -2.963879883830226
0.3865350068986633 -3.145783173405306
0.4123088095697054 -3.309637131600735
0.44261697202508943 -3.4519340108801475
0.4775797629669128 -3.569040840802564
0.5170792905152803 -3.657386936508511
0.5605986493886101 -3.7136899806281405
0.6070990928054258 -3.735282701537825
0.6535995362222377 -3.7136899806280144
0.6971188950955571 -3.6573869365082565
0.7366184226439093 -3.5690408408021965
0.7715812135857149 -3.4519340108796914
0.801889376041078 -3.309637131600217
0.8276631787120985 -3.1457831734047406
0.8491597760005364 -2.9638798838296303
0.8667134780105873 -2.7672125728741244
0.8806796887470876 -2.55880068312642
0.8914091101057809 -2.341383166289426
0.8992578160883031 -2.117388832177294
0.9046273881961611 -1.8888398176524097
0.9079941541017631 -1.6572980354226379
0.9099264086843926 -1.4238940674000304
0.9109962604607309 -1.189397031950155
0.9116483143010983 -0.954270767583506
0.9120951531138504 -0.7187289292392647
0.9123487025923304 -0.4828118878636164
0.9124569928887738 -0.2465154390154219
0.9137256541409102 -0.008065960129702886
0.3596930130152538 -0.00885455450867548
0.36062614251798597 -0.24656286140664854
0.360702896005869 -0.48281872799509046
0.3608834422719029 -0.718754161650011
0.3612259967672684 -0.954320499127861
0.36174172085201084 -1.1894789801787866
0.3625516736826711 -1.4240666993036155
0.3639996301804719 -1.657680189915702
0.3665587380546184 -1.8895785458624346
0.3707232382711485 -2.118614775759791
0.3769016612230037 -2.343196655153741
0.38540475696420157 -2.5612836842111064
0.39650268372601244 -2.7704416444204782
0.4104668321055561 -2.967935252755927
0.42758768505264944 -3.1507466122560315
0.44815553272520875 -3.3155828862797154
0.4724197934134898 -3.458914905592069
0.5005450033369926 -3.5770749895600953
0.5325751125602937 -3.6664344909746704
0.5683107775193095 -3.7236083314755914
0.6070990928054125 -3.745795685836046
0.6458874080915123 -3.7236083314754636
0.6816230730505194 -3.666434490974413
0.7136531822738079 -3.577074989559724
0.741778392197296 -3.458914905591608
0.7660426528855598 -3.315582886279192
0.7866105005581014 -3.150746612255462
0.8037313535051787 -2.9679352527553275
0.8176955018847062 -2.7704416444198663
0.828793428646502 -2.5612836842105016
0.8372965243876858 -2.3431966551531613
0.8434749473395294 -2.1186147757592497
0.8476394475560501 -1.8895785458619392
0.8501985554301901 -1.6576801899152602
0.8516465119279875 -1.42406669930323
0.8524564647586461 -1.1894789801784635
0.8529721888433882 -0.9543204991275981
0.8533147433387536 -0.7187541616498101
0.8534952896047873 -0.48281872799494985
0.8535720430926703 -0.24656286140656877
0.8545051725953999 -0.008854554508662148
0.4188069691605842 -0.009469479286789796
0.419473728386654 -0.2466033169800122
0.4195262003829471 -0.4828254508058086
0.4196409727307952 -0.7187693394574822
0.4198807978154985 -0.9543573546419459
0.4202646638650085 -1.1895397305306836
0.42085029577760785 -1.4241817508524566
0.4218621223129314 -1.6579356858893868
0.42367144686324687 -1.8900952090359344
0.42667485516641823 -2.11950791861922
0.4312079411975524 -2.3445502475559996
0.4375070272062258 -2.563159048320234
0.44576208436810527 -2.772895243377372
0.4561644752539244 -2.9710287305081753
0.4689349858978072 -3.154547481264417
0.48431915213522236 -3.3201577991141664
0.5025510687127304 -3.464317503882295
0.5238178933989693 -3.5833424565231953
0.5483000918128599 -3.6735854102434877
0.576126550647512 -3.7315985878801103
0.6070990928053986 -3.7544501915215345
0.6380716349632836 -3.731598587879981
0.6658980937979285 -3.673585410243228
0.6903802922118096 -3.5833424565228214
0.7116471168980366 -3.4643175038818312
0.7298790334755314 -3.3201577991136393
0.7452631997129331 -3.1545474812638443
0.7580337103568039 -2.971028730507572
0.7684361012426116 -2.7728952433767566
0.7766911584044799 -2.563159048319626
0.7829902444131429 -2.344550247555418
0.7875233304442683 -2.1195079186186763
0.7905267387474328 -1.8900952090354375
0.7923360632977439 -1.6579356858889438
0.793347889833065 -1.4241817508520709
0.7939335217456636 -1.1895397305303606
0.7943173877951731 -0.954357354641683
0.7945572128798762 -0.7187693394572812
0.7946719852277242 -0.4828254508056678
0.7947244572240174 -0.24660331697993237
0.7953912164500853 -0.009469479286775235
0.4778357740883841 -0.009939999688535752
0.47829996821292514 -0.24663873145958326
0.47832619302865614 -0.48283124341437444
0.47837879399206057 -0.718775502278434
0.4785184977701457 -0.9543806567696277
0.47876767100674605 -1.1895824369265582
0.4791526412349205 -1.4242545314544226
0.4797855683527736 -1.65808740516605
0.48091233363391883 -1.8904135941965534
0.48282279697506253 -2.1200862623113896
0.4857615545219232 -2.3454567267582203
0.48989561325976094 -2.5644386712435154
0.4953438630391298 -2.7745858694508256
0.5022256259467661 -2.9731736240577984
0.5106892067794232 -3.157198255190783
0.5209237469229591 -3.3233723155753743
0.5331471781721865 -3.4681497815545046
0.5475702646616277 -3.5878395365237403
0.5644313397905468 -3.6788129396219644
0.5841530320986555 -3.7376212914458207
0.6070990928053844 -3.76122040438676
0.6300451535121124 -3.73762129144569
0.6497668458202164 -3.678812939621703
0.6666279209491286 -3.587839536523364
0.6810510074385613 -3.4681497815540383
0.6932744386877796 -3.3233723155748445
0.7035089788313065 -3.1571982551902074
0.7119725596639561 -2.973173624057193
0.7188543225715853 -2.7745858694502084
0.7243025723509471 -2.564438671242906
0.728436631088778 -2.3454567267576363
0.7313753886356329 -2.120086262310845
0.7332858519767728 -1.8904135941960556
0.7344126172579152 -1.6580874051656065
0.7350455443757669 -1.4242545314540367
0.7354305146039409 -1.1895824369262353
0.7356796878405409 -0.9543806567693646
0.735819391618626 -0.718775502278233
0.7358719925820304 -0.48283124341423367
0.7358982173977612 -0.24663873145950344
0.7363624115223011 -0.009939999688520232
0.5367944106335533 -0.010295632541524801
0.5371140311120897 -0.24667157307126544
0.5371091305896145 -0.48283434213610665
0.5371010027563855 -0.7187734148861511
0.537143505097418 -0.9543902444962037
0.5372545619653595 -1.189606657876555
0.5374442202450797 -1.424296136214297
0.5377514176959058 -1.6581626001565661
0.5382763208095009 -1.8905679290964414
0.539182569528952 -2.120381343593269
0.5406048694298916 -2.3459416291631126
0.5426366867097389 -2.565144186871645
0.5453292051787259 -2.775534110034031
0.5487403469926052 -2.9743915570149424
0.5529510058014083 -3.1587204086132274
0.5580831849993498 -3.3252444462066184
0.5643226988620942 -3.4704265637526963
0.5719191050453708 -3.5905781784895057
0.5811642726128717 -3.6820964524523556
0.5925546966940838 -3.7416128577876173
0.6070990928053699 -3.7660506348159073
0.6216434889166559 -3.7416128577874863
0.6330339129978655 -3.682096452452093
0.6422790805653622 -3.5905781784891286
0.6498754867486336 -3.4704265637522282
0.6561150006113735 -3.3252444462060877
0.6612471798093111 -3.15872040861265
0.6654578386181113 -2.9743915570143353
0.6688689804319878 -2.775534110033413
0.6715614989009717 -2.565144186871034
0.673593316180816 -2.3459416291625272
0.675015616081753 -2.1203813435927237
0.6759218648012026 -1.8905679290959434
0.6764467679147966 -1.6581626001561223
0.6767539653656224 -1.4242961362139108
0.6769436236453424 -1.1896066578762314
0.6770546805132837 -0.9543902444959407
0.6770971828543161 -0.7187734148859499
0.6770890550210872 -0.4828343421359659
0.6770841544986119 -0.2466715730711856
0.6774037749771475 -0.010295632541508613
0.5956997974122563 -0.010561861938717481
0.5959176609077876 -0.2467046053549434
0.5958800548063463 -0.48283297696839067
0.5958121179549748 -0.7187635725241244
0.5957599584630292 -0.954386271996308
0.5957333412721665 -1.1896115737844917
0.595723197233152 -1.4243092392110828
0.5957197672913337 -1.6581856195923936
0.5957187338519887 -1.8906090861692528
0.5957187314690837 -2.120456096714676
0.595718892555168 -2.346065197554565
0.5957179418589744 -2.565329097020617
0.5957104541934745 -2.7757907392160655
0.5956932491819912 -2.974731351767988
0.5956780535695276 -3.159161020445297
0.5957235749672986 -3.3258165729567306
0.595980685120327 -3.4711829989856184
0.5967427138913464 -3.5915959819238874
0.5984267836879265 -3.6834675040279734
0.6014972761676616 -3.743514880041318
0.6070990928053548 -3.7688483496316914
0.6127009094430489 -3.743514880041187
0.6157714019227831 -3.68346750402771
0.6174554717193622 -3.5915959819235086
0.6182175004903808 -3.4711829989851504
0.6184746106434101 -3.325816572956199
0.6185201320411817 -3.1591610204447194
0.6185049364287194 -2.974731351767381
0.6184877314172378 -2.775790739215447
0.6184802437517392 -2.565329097020006
0.6184792930555468 -2.34606519755398
0.6184794541416319 -2.1204560967141304
0.6184794517587274 -1.890609086168755
0.6184784183193828 -1.65818561959195
0.6184749883775645 -1.424309239210697
0.6184648443385503 -1.1896115737841684
0.6184382271476876 -0.9543862719960451
0.618386067655742 -0.7187635725239232
0.6183181308043705 -0.4828329769682499
0.6182805247029292 -0.2467046053548636
0.61849838819846 -0.01056186193870085
0.6545629877863539 -0.010763344195526088
0.654710592392305 -0.2467378279228545
0.6546431222482907 -0.482826697229918
0.6545171142698168 -0.7187461418686097
0.6543730302861495 -0.9543691556411424
0.654210917364445 -1.189597004624238
0.6540015939631987 -1.4242935797356433
0.6536875353640866 -1.6581619416603897
0.6531607690271928 -1.8905678076372128
0.6522548275311095 -2.120381364136294
0.6508332526494977 -2.345941632674813
0.6487982323998898 -2.56514227824575
0.646089967037447 -2.7755282914609936
0.642645123122472 -2.9743826320752067
0.6384076834564185 -3.1587222566433395
0.633371643020131 -3.3253016926252426
0.6276393783303681 -3.4706365723889125
0.6214875817577795 -3.5911050862647262
0.615367342717995 -3.6831263823311984
0.6099318707900568 -3.7434423304348026
0.6070990928053397 -3.769715148120871
0.604266314820622 -3.743442330434671
0.598830842892684 -3.683126382330935
0.592710603852903 -3.591105086264348
0.5865588072803194 -3.470636572388446
0.5808265425905627 -3.325301692624711
0.5757905021542805 -3.1587222566427626
0.5715530624882326 -2.9743826320746005
0.5681082185732633 -2.775528291460376
0.5653999532108266 -2.565142278245139
0.5633649329612241 -2.345941632674228
0.5619433580796166 -2.1203813641357487
0.561037416583536 -1.890567807636715
0.5605106502466437 -1.658161941659946
0.5601965916475325 -1.4242935797352572
0.5599872682462866 -1.1895970046239146
0.5598251553245824 -0.9543691556408794
0.5596810713409152 -0.7187461418684086
0.5595550633624414 -0.48282669722977717
0.5594875932184271 -0.24673782792277482
0.559635197824378 -0.010763344195509218
0.713396491321067 -0.0109175104767875
0.7134963813407527 -0.24676933686760572
0.7134022104707145 -0.48281591167548943
0.7132211927948792 -0.7187213148953149
0.7129886032328865 -0.9543395022332055
0.7126944861985075 -1.1895633903157667
0.7122907629129754 -1.4242493388549033
0.7116514781699503 -1.6580859311918987
0.7105239988782627 -1.8904134138953381
0.7086148668405235 -2.1200864853226977
0.7056762854894021 -2.3454563807702367
0.7015381690701897 -2.5644345076836057
0.6960758993542233 -2.774573998501275
0.6891659274203272 -2.973156027386527
0.6806829608038348 -3.1572032318710854
0.6705458462155871 -3.3234895793006656
0.6588022466569431 -3.4685692097920526
0.6457012502931665 -3.5888710715029224
0.6317616085533628 -3.6808708429145875
0.6181168314105743 -3.74150696325423
0.6070990928053249 -3.768823770838283
0.5960813542000754 -3.741506963254099
0.5824365770572888 -3.680870842914325
0.5684969353174917 -3.588871071502546
0.5553959389537249 -3.468569209791588
0.5436523393950913 -3.323489579300137
0.5335152248068539 -3.1572032318705103
0.525032258190371 -2.973156027385923
0.5181222862564853 -2.7745739985006597
0.5126600165405286 -2.5644345076829964
0.5085219001213258 -2.3454563807696536
0.5055833187702122 -2.1200864853221537
0.5036741867324783 -1.890413413894841
0.5025467074407938 -1.6580859311914549
0.5019074226977703 -1.4242493388545177
0.5015036994122392 -1.1895633903154432
0.5012095823778604 -0.9543395022329427
0.500976992815868 -0.7187213148951138
0.5007959751400327 -0.4828159116753486
0.5007018042699946 -0.24676933686752606
0.5008016942896802 -0.010917510476770406
0.7722175376186833 -0.0110325638797938
0.772280102302633 -0.24679751712124418
0.7721621181343803 -0.4828010434968647
0.7719296418265069 -0.7186894843479261
0.7716122622573348 -0.9542980840591428
0.771191694138627 -1.1895117981076992
0.7705890190698151 -1.424173427016918
0.7695725719506813 -1.6579335759004221
0.767765059627731 -1.8900953760908663
0.7647631464337922 -2.119508313900219
0.760229153572593 -2.3445492808081236
0.7539258460517224 -2.5631528426705525
0.7456619284852388 -2.7728788814764576
0.7352452650965021 -2.9710052859181415
0.722471460211034 -3.1545572564462327
0.7071744654973504 -3.320328864069255
0.6893253723052805 -3.4649190773547196
0.6691597516028079 -3.5848255435670375
0.647399047673136 -3.6766553684661996
0.6256125478429936 -3.737584172633179
0.6070990928053106 -3.7662218159814422
0.5885856377676283 -3.737584172633048
0.5667991379374894 -3.6766553684659375
0.5450384340078269 -3.584825543566663
0.5248728133053676 -3.4649190773542577
0.5070237201133124 -3.3203288640687294
0.4917267253996438 -3.1545572564456603
0.4789529205141896 -2.97100528591754
0.4685362571254674 -2.7728788814758447
0.4602723395589978 -2.5631528426699464
0.4539690320381404 -2.3445492808075437
0.4494350391769525 -2.1195083138996766
0.44643312598302154 -1.8900953760903703
0.44462561366007614 -1.657933575899979
0.44360916654094523 -1.4241734270165323
0.44300649147213467 -1.1895117981073762
0.4425859233534273 -0.95429808405888
0.44226854378425534 -0.7186894843477252
0.4420360674763821 -0.48280104349672376
0.44191808330812954 -0.24679751712116452
0.4419806479920791 -0.01103256387977657
0.8310374584768014 -0.011114611396592904
0.8310680768013752 -0.2468208985040481
0.8309276712459153 -0.4827823540113362
0.8306470415240363 -0.7186511789304717
0.8302490591853106 -0.9542459157831644
0.8297070649615672 -1.1894425097868575
0.82888267311227 -1.424055170742324
0.8274346809506401 -1.657678308306472
0.8248785837930177 -1.8895793148633961
0.820714873916676 -2.118615103609841
0.814534295933258 -2.3431948275359757
0.8060277152721895 -2.5612760881404184
0.7949291305690956 -2.770423803576576
0.780972541626121 -2.9679114734345413
0.7638739257945675 -3.150763773427829
0.7433735107158357 -3.3157932074530523
0.7193557750409201 -3.459652004428522
0.6920800025822083 -3.5789459118007074
0.6625056886337841 -3.6704733661195963
0.6327932416815233 -3.7317487555881597
0.6070990928052964 -3.761994707753275
0.5814049439290712 -3.731748755588029
0.5516924969768165 -3.6704733661193365
0.5221181830284043 -3.578945911800336
0.49484241056970873 -3.4596520044280648
0.4708246748948119 -3.315793207452531
0.4503242598160992 -3.1507637734272604
0.4332256439845641 -2.967911473433944
0.4192690550416082 -2.770423803575967
0.40817047033853254 -2.561276088139816
0.3996638896774806 -2.343194827535399
0.39348331169407696 -2.1186151036093013
0.3893196018177458 -1.8895793148629019
0.38676350466013043 -1.6576783083060296
0.3853155124985046 -1.4240551707419387
0.3844911206492094 -1.1894425097865347
0.38394912642546664 -0.9542459157829016
0.38355114408674107 -0.7186511789302706
0.38327051436486237 -0.4827823540111953
0.3831301088094026 -0.2468208985039684
0.38316072713397625 -0.011114611396575576
0.8898636047781532 -0.011169242685404694
0.889866416280932 -0.24683834983172812
0.8897041075806238 -0.48275992564933407
0.8893783653174658 -0.7186069507605302
0.8889050947831516 -0.9541843187393699
0.8882389869646026 -1.1893530862225434
0.8871613089002104 -1.4238804013775073
0.8852312788088974 -1.657297106788791
0.8818675410872387 -1.888841098780573
0.8764975183181948 -2.1173887823803796
0.8686458163319669 -2.341380376673832
0.857914638063973 -2.5587927130120476
0.8439578571803187 -2.767197232827911
0.82643731123137 -2.9638632407085033
0.804994503575914 -3.145811572186264
0.7792751591171682 -3.3098697982046303
0.7490899242074782 -3.452756984261958
0.7147276291999436 -3.5712278671465416
0.6774202651938845 -3.6623465810266387
0.6399185987209989 -3.724046592409412
0.6070990928052825 -3.7561603915188626
0.5742795868895684 -3.724046592409283
0.5367779204166916 -3.662346581026382
0.499470556410647 -3.5712278671461744
0.4651082614031317 -3.4527569842615056
0.4349230264934643 -3.3098697982041143
0.4092036820347415 -3.1458115721857003
0.38776087437930856 -2.9638632407079113
0.37024032843038235 -2.767197232827307
0.35628354754675073 -2.5587927130114503
0.3455523692787768 -2.3413803766732597
0.33770066729256637 -2.1173887823798436
0.33233064452353517 -1.888841098780081
0.32896690680188573 -1.6572971067883504
0.32703687671057846 -1.4238804013771225
0.3259591986461889 -1.1893530862222206
0.32529309082764063 -0.9541843187391071
0.32481982029332684 -0.7186069507603292
0.32449407803016905 -0.48275992564919323
0.3243317693298609 -0.24683834983164846
0.3243345808326398 -0.011169242685387312
0.948701086069348 -0.011201833731005462
0.9486803729241715 -0.2468492289345448
0.9484968667137029 -0.48273370840809726
0.9481285338103326 -0.7185574826804024
0.9475832319049139 -0.9541137022727196
0.9467820359436696 -1.189237875086198
0.9454182725199732 -1.4236347693343439
0.942957541045381 -1.656769902841937
0.9387438978668132 -1.8878654646368629
0.9321518963534656 -2.115820679842418
0.9226159282356075 -2.339099038076439
0.9096503028970708 -2.5556961646799796
0.8928247912046215 -2.763191863033307
0.8717254623476448 -2.9588531004132688
0.8459268560848201 -3.1396956952982507
0.815013493941544 -3.3025606328585924
0.7787262892272165 -3.444242575022627
0.7373734741651661 -3.5616869768222963
0.6924344186542819 -3.652295944263269
0.6471660713969783 -3.7144816172461104
0.6070990928052687 -3.748689285059952
0.5670321142135624 -3.7144816172459825
0.5217637669562698 -3.6522959442630154
0.4768247114454029 -3.5616869768219335
0.4354718963833749 -3.4442425750221797
0.3991846916690737 -3.302560632858082
0.36827132952582464 -3.1396956952976933
0.34247272326302713 -2.9588531004126826
0.32137339440607704 -2.7631918630327097
0.3045478827136543 -2.5556961646793876
0.2915822573751415 -2.3390990380758714
0.28204628925730346 -2.115820679841886
0.27545428774397107 -1.8878654646363737
0.27124064456541475 -1.6567699028414984
0.2687799130908295 -1.42363476933396
0.26741614966713656 -1.1892378750858756
0.26661495370589355 -0.9541137022724568
0.2660696518004751 -0.7185574826802015
0.2657013188971051 -0.4827337084079564
0.2655178126866367 -0.24684922893446518
0.26549709954146017 -0.01120183373098804
1.0075532083947851 -0.011217730677070437
1.0075142758969757 -0.2468534020236421
1.007311445522 -0.4827036983242345
1.0069027721152266 -0.7185033891393429
1.0062859212111155 -0.9540337003159829
1.005331937218505 -1.1890897714895192
1.0036448628301513 -1.423302367193666
1.000610218492134 -1.656081676497896
0.9955357116120612 -1.886645980729919
0.9877149162561292 -2.113906555212261
0.9764945969684035 -2.3363476773686944
0.9612976467905966 -2.551983702018961
0.9416037216328825 -2.7584038707387184
0.9169206858157726 -2.952876321790618
0.8867697985238236 -3.132416633216349
0.8507049473795241 -3.293879799660263
0.8084470140158978 -3.434138086829306
0.760285664972991 -3.550355351867939
0.7078228558315053 -3.6403310554125636
0.6546987275240268 -3.7030197338010287
0.6070990928052549 -3.739512794555795
0.5594994580864874 -3.703019733800903
0.5063753297790216 -3.6403310554123136
0.4539125206375564 -3.5503553518675814
0.40575117159467555 -3.4341380868288653
0.3634932382310792 -3.2938797996597597
0.32742838708681044 -3.132416633215799
0.2972774997948929 -2.952876321790039
0.2725944639778137 -2.758403870738128
0.2529005388201301 -2.5519837020183758
0.23770358864235047 -2.3363476773681326
0.22648326935464783 -2.1139065552117344
0.2186624739987334 -1.8866459807294333
0.21358796711867395 -1.65608167649746
0.2105533227806651 -1.4233023671932834
0.2088662483923159 -1.1890897714891973
0.20791226439970706 -0.9540337003157202
0.20729541349559638 -0.718503389139142
0.20688674008882338 -0.4827036983240937
0.20668390971384776 -0.24685340202356243
0.2066449772160384 -0.011217730677053025
1.0664213573527044 -0.011222346301496166
1.0663714475405854 -0.24685132079727737
1.0661537426991043 -0.4826700534012937
1.0657064580741293 -0.7184452555995715
1.065013542091281 -0.9539419309962708
1.0638827999985898 -1.1888991256636638
1.0618320007905837 -1.422868944190337
1.058208604240244 -1.6552262812427534
1.052266910261321 -1.8851796606914606
1.0432227462768977 -2.111645517688195
1.0303306132929124 -2.333126884487287
1.0129166590689391 -2.54765586759356
0.9903686278043176 -2.7528329953640815
0.9621127113897315 -2.9459317640393796
0.9276175690480626 -3.123976663476986
0.8864524066564223 -3.2838484635901253
0.8383940940390612 -3.4224946755714063
0.7837108952040163 -3.5372847102295077
0.7238755790064669 -3.626453562927557
0.6627260777894018 -3.689589278025483
0.6070990928052409 -3.728514522426189
0.5514721078210854 -3.6895892780253594
0.490322606604035 -3.6264535629273125
0.43048729040650946 -3.537284710229156
0.37580409157149414 -3.422494675570973
0.3277457789541673 -3.2838484635896297
0.2865806165625614 -3.1239766634764443
0.2520854742209277 -2.945931764038808
0.2238295578063769 -2.7528329953634993
0.20128152654178946 -2.547655867592982
0.1838675723178467 -2.333126884486732
0.17097543933388684 -2.1116455176876734
0.1619312753494841 -1.8851796606909792
0.1559895813705757 -1.65522628124232
0.15236618482024625 -1.422868944189956
0.15031538561224564 -1.1888991256633425
0.1491846435195567 -0.9539419309960082
0.14849172753670895 -0.7184452555993707
0.14804444291173433 -0.4826700534011528
0.14782673807025323 -0.2468513207971977
0.14777682825813437 -0.01122234630147876
1.1253043602167643 -0.01122116627770646
1.1252541216348435 -0.24684421677405838
1.1250306031557376 -0.48263337253759675
1.124545254318618 -0.7183829292121832
1.1237641422113862 -0.9538346401573452
1.1224255529570548 -1.1886530953450893
1.1199855528632143 -1.4223259202574314
1.115765223337288 -1.6542007101220275
1.1089615839905276 -1.8834663633188433
1.0987114376278864 -2.1090402441755405
1.0841723307417177 -2.3294403246694437
1.0645689427863514 -2.5427166002437716
1.0391916558012417 -2.7464823974447596
1.0073860110885342 -2.938022178734979
0.968581672237805 -3.1143818537324184
0.9223671484177322 -3.2724863660742405
0.8686353065372782 -3.4093685303626695
0.8077731641209928 -3.5225679196126074
0.7410145105162241 -3.610685304701656
0.6715894845016567 -3.674066483700783
0.6070990928052268 -3.715502580637309
0.542608701108803 -3.6740664837006625
0.47318367509425246 -3.6106853047014154
0.4064250214895108 -3.522567919612263
0.3455628790732595 -3.4093685303622445
0.2918310371928436 -3.2724863660737538
0.24561651337280935 -3.114381853731885
0.20681217452211945 -2.938022178734417
0.1750065298094511 -2.7464823974441863
0.14962924282437934 -2.5427166002432022
0.13002585486904655 -2.3294403246688957
0.1154867479829065 -2.1090402441750244
0.10523660162028757 -1.8834663633183666
0.098432962273544 -1.6542007101215972
0.09421263274762869 -1.4223259202570524
0.09177263265379523 -1.188653095344769
0.09043404339946662 -0.9538346401570829
0.08965293129223537 -0.7183829292119824
0.08916758245511608 -0.48263337253745603
0.08894406397601058 -0.24684421677397866
0.08889382539408962 -0.01122116627768907
1.1841971531157032 -0.01121956715091987
1.1841633319404326 -0.24683464075370345
1.1839510551833314 -0.4825949160853086
1.183424484568791 -0.7183147223065482
1.182532324981106 -0.953704293983441
1.180956743659386 -1.18834253848823
1.1781136499300318 -1.4216686930855305
1.1732940447158717 -1.6530040573323703
1.1656436750204655 -1.881509322617521
1.1542167828420915 -2.1060966867419157
1.1380694196804289 -2.32529522101747
1.1163145011493083 -2.537172348657219
1.0881431775917914 -2.739358407831664
1.0528345676865276 -2.9291564221202515
1.0097765018675597 -3.10364340465232
0.9585744703061783 -3.259808421868176
0.8992356235117577 -3.39479583043122
0.8323842906445336 -3.5063092932634414
0.759407781786919 -3.593195384184551
0.6825306148533437 -3.6563072048174035
0.6070990928052122 -3.699999999999995
0.5316675707570876 -3.656307204817286
0.4547904038235309 -3.593195384184317
0.38181389496594736 -3.506309293263105
0.31496256209876244 -3.394795830430805
0.25562371530438377 -3.2598084218677
0.2044216837430451 -3.1036434046517973
0.16136361792412066 -2.929156422119699
0.1260550080189003 -2.739358407831101
0.09788368446142463 -2.537172348656659
0.07612876593034154 -2.32529522101693
0.05998140276870978 -2.1060966867414064
0.048554510590359784 -1.8815093226170494
0.04090414089497237 -1.6530040573319438
0.0360845356808246 -1.4216686930851539
0.033241441951478344 -1.1883425384879105
0.031665860629761955 -0.953704293983179
0.030773701042077852 -0.7183147223063475
0.030247130427537586 -0.4825949160851678
0.03003485367043696 -0.24683464075362377
0.03000103249516638 -0.011219567150902478
SCALARS Stress float 6
LOOKUP_TABLE default
-1225.213515506589 -2025.1348087508886 -1548.89067723593 -25.15938902509045 0.0 0.0
1339.8635962332787 785.5694410306223 996.2913363074468 -21.388524962253975 0.0 0.0
604.3375162887147 154.837243818412 243.2276371527508 -40.741084085574826 0.0 0.0
487.51598493823167 27.213374960881257 159.05271512985473 -1.5990274534497402 0.0 0.0
609.1161268400392 75.24322081741965 243.97598017662924 2.385125689692409 0.0 0.0
724.699343441667 123.61357411289525 364.63854035083233 1.7972189863698191 0.0 0.0
849.2716677193812 173.70127958655615 483.01299171868214 0.6410830100255747 0.0 0.0
976.1716892388038 240.4106210685377 593.0268304727447 -0.7509033519117577 0.0 0.0
1111.6567810079118 321.3447342787982 704.6279840563461 -2.3563563495346997 0.0 0.0
1263.247778807738 422.95009897538205 831.8910476573205 -4.091714208560097 0.0 0.0
1436.2905427834417 550.1592251644795 981.9239389174219 -5.761425147184117 0.0 0.0
1630.9679818160043 703.4856112218006 1155.5715017375214 -7.093445794262948 0.0 0.0
1842.2414937671742 876.4411451957086 1347.245468947036 -7.914572822177014 0.0 0.0
2063.038130836505 1061.7702843813574 1549.8790350381219 -8.54383623824449 0.0 0.0
2284.1350952316006 1250.0849258194878 1754.1548299844958 -8.955417295807699 0.0 0.0
2495.027607414501 1430.9556072057758 1949.6345975244944 -9.085295256076554 0.0 0.0
2684.845890014412 1593.9624213121622 2125.7242061364923 -8.769548010160918 0.0 0.0
2842.6123154879415 1728.7140562865284 2271.76804953553 -7.9315296103114505 0.0 0.0
2965.6095432929824 1833.1333536054628 2385.265073498414 -6.817505925819001 0.0 0.0
3039.9313766383516 1894.195484979573 2452.763756772511 -8.408385442735149 0.0 0.0
3031.152366499426 1884.083860302283 2443.5522427086194 4.147082677263825e-11 0.0 0.0
3039.9313766396617 1894.1954849809138 2452.7637567733714 8.408385442736446 0.0 0.0
2965.6095432946413 1833.1333536072082 2385.2650734995636 6.817505925806033 0.0 0.0
2842.612315487255 1728.7140562859408 2271.7680495347354 7.9315296102460415 0.0 0.0
2684.8458900126716 1593.9624213105267 2125.7242061350557 8.769548010175047 0.0 0.0
2495.0276074128183 1430.9556072042299 1949.6345975229906 9.085295256129747 0.0 0.0
2284.1350952303724 1250.0849258184317 1754.1548299832289 8.955417295824283 0.0 0.0
2063.038130836681 1061.7702843817146 1549.8790350379904 8.543836238400978 0.0 0.0
1842.2414937655587 876.4411451943167 1347.2454689455362 7.914572822162775 0.0 0.0
1630.9679818162451 703.4856112223005 1155.5715017376588 7.093445794252897 0.0 0.0
1436.2905427821042 550.1592251633477 981.923938916308 5.7614251471571745 0.0 0.0
1263.247778807164 422.9500989751017 831.8910476567434 4.091714208469497 0.0 0.0
1111.656781007142 321.34473427830017 704.6279840557054 2.356356349728106 0.0 0.0
976.1716892383142 240.4106210683192 593.026830472282 0.7509033519985202 0.0 0.0
849.2716677188077 173.70127958629956 483.01299171813315 -0.6410830099263496 0.0 0.0
724.6993434409219 123.61357411240886 364.638540350147 -1.7972189862524672 0.0 0.0
609.1161268395728 75.24322081718002 243.97598017624568 -2.385125689731783 0.0 0.0
487.51598493776606 27.213374960515516 159.05271512959808 1.5990274534024467 0.0 0.0
604.3375162881028 154.83724381797046 243.22763715237932 40.74108408545877 0.0 0.0
1339.863596232748 785.5694410301456 996.2913363068872 21.38852496231229 0.0 0.0
-1225.2135155037383 -2025.1348087480885 -1548.8906772331643 25.15938902454918 0.0 0.0
-1560.4084485441558 -2331.4790009269864 -1837.8427915850557 -26.648858809725084 0.0 0.0
913.938657943458 434.0881468198736 624.8399151944651 -29.53716375836887 0.0 0.0
421.604647120573 61.33683981146212 143.5400056189683 -35.002808339421435 0.0 0.0
429.9396415136842 5.496808869656121 132.4119666498159 -15.81428248160438 0.0 0.0
540.9169414903091 33.49819413696904 197.09819211500138 -16.24175821787834 0.0 0.0
640.7780984964054 47.834235191860756 288.5095377283773 -21.610269324466937 0.0 0.0
726.0582304023101 65.4293473981384 375.5008755118633 -23.429864092162163 0.0 0.0
808.0830504532022 85.60310475079473 441.43832977582485 -23.87052037853131 0.0 0.0
883.666041287576 105.98328547913904 493.0079492150122 -24.411320398933295 0.0 0.0
954.8605711566977 127.42459638266666 540.1446967534571 -25.116908581184973 0.0 0.0
1024.222770548396 151.61689329573466 587.1535210899461 -25.49506781607142 0.0 0.0
1093.5986508757167 179.47009688351324 635.8269796313872 -25.461405988891137 0.0 0.0
1162.4717313551757 211.08489301183818 686.0827508758557 -25.044095380080357 0.0 0.0
1228.218211784116 241.79938981102254 734.3121810177474 -24.444290137507835 0.0 0.0
1285.2112295229645 266.4660406883691 775.137606840062 -23.69546290980668 0.0 0.0
1328.895051997531 280.53878449794377 804.0121640357922 -22.588633200140094 0.0 0.0
1356.301127840548 281.366841296574 818.1265112630792 -20.87352714072796 0.0 0.0
1367.6636722349365 269.7430392027833 817.990178391286 -18.537962919402396 0.0 0.0
1358.955820958057 242.4733501169584 800.0991619391596 -16.16655354655689 0.0 0.0
1293.8807853268984 164.54696120465755 729.2927312156191 -16.179593165671392 0.0 0.0
1182.993397328848 53.036114741361956 619.2328380934039 1.3711698443330533e-11 0.0 0.0
1293.8807853265594 164.546961204328 729.2927312153125 16.17959316572642 0.0 0.0
1358.9558209597378 242.47335011871354 800.0991619403587 16.166553546565723 0.0 0.0
1367.6636722354683 269.74303920341447 817.990178391686 18.537962919452973 0.0 0.0
1356.3011278398894 281.36684129601116 818.1265112627195 20.873527140777085 0.0 0.0
1328.895051996968 280.53878449750846 804.0121640353372 22.5886332000729 0.0 0.0
1285.2112295227464 266.46604068830817 775.1376068398677 23.69546290980051 0.0 0.0
1228.2182117840873 241.79938981116544 734.3121810176863 24.44429013750662 0.0 0.0
1162.471731354965 211.08489301181697 686.0827508756935 25.04409538004838 0.0 0.0
1093.598650876174 179.4700968842073 635.8269796317197 25.461405988795697 0.0 0.0
1024.222770547298 151.61689329487274 587.1535210892423 25.495067816092288 0.0 0.0
954.8605711560853 127.42459638228985 540.1446967530219 25.116908581046033 0.0 0.0
883.6660412874364 105.98328547929123 493.00794921488983 24.41132039900124 0.0 0.0
808.0830504524065 85.60310475024193 441.4383297752715 23.870520378549436 0.0 0.0
726.0582304019575 65.42934739808638 375.50087551152274 23.42986409217596 0.0 0.0
640.7780984961752 47.83423519197998 288.5095377280595 21.610269324338482 0.0 0.0
540.9169414897933 33.498194136720294 197.0981921146536 16.24175821786233 0.0 0.0
429.9396415132328 5.4968088693606285 132.41196664960108 15.814282481452675 0.0 0.0
421.60464712030955 61.336839811227925 143.54000561882444 35.002808339404595 0.0 0.0
913.9386579429274 434.0881468194509 624.8399151938468 29.53716375834641 0.0 0.0
-1560.4084485420508 -2331.4790009249027 -1837.842791582913 26.648858809151626 0.0 0.0
-1304.1609036542136 -2040.5292390387328 -1554.4849827459768 -64.94673834800784 0.0 0.0
724.9704084096791 343.35672881184325 480.66215077471503 -97.83827697120309 0.0 0.0
293.6769048891772 69.67144725306197 109.02373959544208 -37.913121415469085 0.0 0.0
368.79580319875276 1.087775693809114 110.88556757915333 -37.292088493529675 0.0 0.0
495.78891841607833 24.02609229507403 168.77741731314092 -38.63697110862777 0.0 0.0
607.5246408527261 42.64904805940418 257.8188911923237 -41.279885714527886 0.0 0.0
696.5093225723563 60.805961684097966 351.02297725218136 -43.59277100357395 0.0 0.0
778.9265006778671 77.37904519081242 420.1172033572339 -44.56680236720664 0.0 0.0
851.8818985200999 94.43244297780461 470.64333201329447 -45.77084461451952 0.0 0.0
919.2684597989289 111.88670620074372 514.2301265408619 -46.857702547282116 0.0 0.0
985.0206297425472 132.88738465879175 557.8797452607267 -47.11278385444145 0.0 0.0
1051.0793845638427 158.61751165201795 603.8332160792163 -46.559151980315775 0.0 0.0
1117.184119852884 187.1388117775502 651.1770897765414 -45.630219546688416 0.0 0.0
1179.3039264488255 215.42440946833455 696.4035224389227 -44.43141681479049 0.0 0.0
1234.1142530880727 238.39761360226015 735.289379663664 -42.94937809861998 0.0 0.0
1277.1956163597429 252.23892822670635 763.7333054560104 -40.91728907964159 0.0 0.0
1306.0441167298045 254.66378335818408 779.3681858863655 -37.97456955738678 0.0 0.0
1317.2444769674648 242.83353688400234 779.1170578335984 -34.2257039803461 0.0 0.0
1299.319519688859 206.32022957979842 752.1644292134489 -30.486042381101512 0.0 0.0
1261.8895965200747 156.2575255240719 708.7761978820341 -27.63212090513193 0.0 0.0
1130.7956932572438 25.15204536266917 579.0397920887933 3.6060043839825084e-13 0.0 0.0
1261.889596519193 156.2575255232421 708.7761978814307 27.632120905186813 0.0 0.0
1299.3195196889094 206.32022957989477 752.1644292134832 30.486042381227705 0.0 0.0
1317.2444769684985 242.83353688516524 779.1170578343687 34.225703980459244 0.0 0.0
1306.0441167290637 254.6637833575562 779.3681858858764 37.97456955755821 0.0 0.0
1277.1956163587593 252.23892822580433 763.7333054553543 40.917289079580264 0.0 0.0
1234.1142530874172 238.3976136017535 735.2893796632121 42.94937809851784 0.0 0.0
1179.3039264483161 215.42440946802077 696.403522438487 44.431416814820096 0.0 0.0
1117.1841198525617 187.13881177740024 651.1770897764263 45.630219546719985 0.0 0.0
1051.0793845640194 158.61751165240875 603.8332160792802 46.5591519802903 0.0 0.0
985.0206297420601 132.88738465856687 557.8797452604094 47.112783854474415 0.0 0.0
919.2684597981722 111.8867062001957 514.2301265402937 46.85770254709343 0.0 0.0
851.8818985202432 94.43244297823651 470.6433320133486 45.77084461454344 0.0 0.0
778.926500677505 77.37904519074698 420.11720335693576 44.566802367240484 0.0 0.0
696.509322571929 60.80596168395162 351.02297725177317 43.59277100355112 0.0 0.0
607.5246408522903 42.64904805914626 257.81889119186206 41.27988571414622 0.0 0.0
495.78891841567787 24.026092295006126 168.77741731291894 38.636971108522545 0.0 0.0
368.79580319847406 1.087775693561973 110.88556757900764 37.29208849346661 0.0 0.0
293.6769048890925 69.67144725277099 109.02373959532979 37.91312141540774 0.0 0.0
724.9704084091406 343.3567288115882 480.6621507741388 97.83827697101309 0.0 0.0
-1304.1609036520558 -2040.5292390365757 -1554.484982743777 64.94673834754701 0.0 0.0
-1065.5009383868965 -1771.227019953652 -1294.1542260959757 -78.53400228141567 0.0 0.0
552.9015098371358 247.4149667385035 352.724006475363 -145.38326133850552 0.0 0.0
213.54371840684806 59.92822646093905 82.04158346033613 -59.72160512151505 0.0 0.0
306.6974445644696 6.694146821061954 93.90208085479998 -59.32472518347171 0.0 0.0
440.47626338886846 13.409043080731772 140.52569921757834 -63.407852644131516 0.0 0.0
561.6222207999617 36.04296528603594 222.74085874656961 -62.33009371188163 0.0 0.0
663.8020779937962 54.167469778423786 320.71581543089064 -65.10068774190353 0.0 0.0
744.8628237253188 69.32624717549172 394.85368761261844 -65.5119688451089 0.0 0.0
816.0215551879065 83.09700533054914 445.8230227896 -66.80956319653076 0.0 0.0
879.9875644390538 96.95352347336905 486.60716454474607 -67.88589860709621 0.0 0.0
941.7988887090614 114.47502933393105 526.6527734731765 -67.81621916130167 0.0 0.0
1004.6359966391215 137.0545911879053 569.4238387453534 -66.84648475414593 0.0 0.0
1067.3265801609152 163.51491190529117 614.0621215334754 -65.40357065564314 0.0 0.0
1126.392093354839 188.31208123632246 656.0370740067636 -63.73467739347193 0.0 0.0
1178.6088594602284 209.4082435175026 692.6864863034986 -61.59450053285745 0.0 0.0
1221.8107272516363 223.93411434644904 721.5309410658292 -58.729256373899986 0.0 0.0
1251.9661099100933 227.54105167232828 738.4252868108698 -54.92819657854612 0.0 0.0
1262.7496854738997 215.07243958653686 737.7125691751546 -50.25206068140174 0.0 0.0
1250.5244972479472 183.95542140369284 716.2752512627958 -44.8219054923944 0.0 0.0
1227.760670038902 147.8930000133354 687.0582157820259 -37.675637860640315 0.0 0.0
1043.8691102136402 -35.662094421548986 505.4457049631506 8.478728830141335e-11 0.0 0.0
1227.7606700387885 147.89300001323576 687.0582157819662 37.67563786056596 0.0 0.0
1250.5244972481062 183.9554214039737 716.2752512629403 44.82190549258015 0.0 0.0
1262.7496854748413 215.07243958754708 737.7125691759358 50.25206068146716 0.0 0.0
1251.9661099097734 227.54105167212114 738.4252868105449 54.92819657856943 0.0 0.0
1221.8107272512082 223.93411434613063 721.530941065633 58.7292563739228 0.0 0.0
1178.6088594599553 209.4082435174136 692.6864863032682 61.59450053278111 0.0 0.0
1126.3920933541187 188.31208123578185 656.0370740062052 63.73467739362038 0.0 0.0
1067.3265801603757 163.514911904971 614.0621215331123 65.40357065565972 0.0 0.0
1004.6359966382942 137.05459118723763 569.4238387448662 66.84648475417812 0.0 0.0
941.7988887086947 114.47502933375429 526.6527734729937 67.81621916117025 0.0 0.0
879.9875644389284 96.95352347348839 486.6071645445954 67.88589860702423 0.0 0.0
816.0215551879786 83.0970053309649 445.82302278963164 66.80956319671319 0.0 0.0
744.8628237252445 69.3262471757337 394.8536876125168 65.51196884517559 0.0 0.0
663.80207799305 54.167469777975754 320.71581543024223 65.10068774185287 0.0 0.0
561.6222207993931 36.04296528566298 222.7408587460656 62.33009371158252 0.0 0.0
440.47626338852774 13.409043080687784 140.5256992174337 63.40785264388644 0.0 0.0
306.6974445643333 6.694146821032127 93.90208085475008 59.32472518345008 0.0 0.0
213.5437184066568 59.92822646069218 82.04158346020468 59.721605121315605 0.0 0.0
552.9015098364239 247.41496673816758 352.7240064747564 145.38326133839053 0.0 0.0
-1065.5009383852573 -1771.2270199519485 -1294.1542260941242 78.53400228113826 0.0 0.0
-858.2224913825415 -1537.4465918790945 -1065.4990010504969 -77.35810309006305 0.0 0.0
425.91802720860056 163.3840055554786 253.02196412037586 -177.28337987588884 0.0 0.0
156.651492903889 47.40347535917002 61.21649047891769 -89.97364488931011 0.0 0.0
250.56125851836703 12.892619290491767 79.04001481423757 -83.20335719192815 0.0 0.0
375.77103721357804 7.7313256128135155 115.46621634284007 -88.97323917555948 0.0 0.0
507.07596618998576 23.69195861137829 184.10301216513778 -87.74913991520815 0.0 0.0
619.3256540000804 46.15224328643254 282.37179869941957 -86.81552780088329 0.0 0.0
704.9720965745487 62.01951292391654 364.9456717845879 -86.87374650180196 0.0 0.0
775.3625092060367 72.32881351027167 417.9040665782625 -87.48278055436698 0.0 0.0
836.086130516464 82.38835273016308 456.53090195942474 -88.15927598006061 0.0 0.0
894.3896415643186 96.19900179965146 493.2185346280792 -87.643174058079 0.0 0.0
953.4727160615178 115.46870423416519 532.4953978689252 -86.22973009815937 0.0 0.0
1012.8296493733349 138.531868906113 573.7945241172278 -84.4518859731474 0.0 0.0
1068.6465548999888 161.6387515775715 613.3422410143555 -82.295237358443 0.0 0.0
1118.6230049405738 180.45362486385216 647.7493009402657 -79.56259402898864 0.0 0.0
1160.8221279837453 193.74067819606236 675.4610481830816 -76.08528101327107 0.0 0.0
1192.527009567734 199.25851270951844 694.09509492613 -71.73200951881395 0.0 0.0
1208.0058522196034 191.2038099758652 697.9410241228031 -66.37896080600069 0.0 0.0
1203.3038622905005 166.80126861527052 683.5971804620837 -59.08070576749032 0.0 0.0
1187.466765652801 136.16275088907162 660.49675706042 -47.98637968363771 0.0 0.0
938.5987706265375 -111.92985895819348 415.16826937195736 7.765699194806075e-11 0.0 0.0
1187.466765652766 136.16275088908648 660.4967570604825 47.98637968372761 0.0 0.0
1203.3038622906777 166.80126861553416 683.5971804622206 59.08070576767777 0.0 0.0
1208.0058522201512 191.2038099765393 697.9410241233189 66.3789608061917 0.0 0.0
1192.527009568034 199.25851270995426 694.0950949262044 71.73200951893413 0.0 0.0
1160.8221279837637 193.74067819618602 675.461048183213 76.08528101332924 0.0 0.0
1118.623004941942 180.45362486542626 647.7493009411376 79.56259402902717 0.0 0.0
1068.646554899474 161.63875157725704 613.3422410140097 82.29523735854693 0.0 0.0
1012.8296493737545 138.5318689067217 573.794524117465 84.45188597314672 0.0 0.0
953.4727160611202 115.46870423396214 532.4953978686136 86.22973009811152 0.0 0.0
894.3896415631986 96.19900179871439 493.2185346273295 87.64317405794424 0.0 0.0
836.0861305157077 82.38835272957732 456.53090195895265 88.15927597998781 0.0 0.0
775.3625092055645 72.32881351009411 417.90406657793477 87.48278055434133 0.0 0.0
704.972096574093 62.019512923752956 364.94567178421295 86.87374650181937 0.0 0.0
619.3256539996072 46.152243286366904 282.37179869896835 86.81552780095438 0.0 0.0
507.07596618944405 23.691958610998228 184.10301216470026 87.74913991504087 0.0 0.0
375.77103721320515 7.731325612828742 115.46621634273751 88.9732391753305 0.0 0.0
250.5612585184601 12.892619290819223 79.040014814359 83.20335719178554 0.0 0.0
156.65149290385014 47.403475359096205 61.21649047888389 89.97364488908994 0.0 0.0
425.918027207947 163.38400555511294 253.0219641198382 177.28337987575702 0.0 0.0
-858.2224913809805 -1537.4465918773817 -1065.4990010487538 77.35810308989663 0.0 0.0
-676.0111524082758 -1330.7777696598343 -862.2012647429374 -73.7460879904203 0.0 0.0
326.0735245003467 98.14086863389035 176.406418554658 -195.87402828800677 0.0 0.0
113.51944706162453 32.93013614153682 43.934874960948406 -118.86457160798172 0.0 0.0
200.0275374619221 17.792533471943557 65.34883626121753 -107.38234233501277 0.0 0.0
307.4652345956021 5.577919730018352 93.33270043870195 -113.92733762091021 0.0 0.0
437.7233434468376 13.018381773942785 146.49231724010875 -114.09457395543612 0.0 0.0
558.1544144700471 37.375508724277 236.95302133274646 -109.90937045096236 0.0 0.0
657.5726930184314 52.07130656740747 326.24642691457257 -109.32258392133222 0.0 0.0
726.9382251322021 62.05520748311322 384.8053005863052 -107.73910578876664 0.0 0.0
786.7717980208918 68.00707009210309 423.16139567444554 -107.68898899394912 0.0 0.0
841.5394732967729 78.0361908692598 456.8022859315463 -106.57359798819823 0.0 0.0
896.9156450520975 93.93351173488772 492.6361632464298 -104.67552051473902 0.0 0.0
952.5568319894427 114.02950548095262 530.6375872633586 -102.5409934696811 0.0 0.0
1005.0162762781865 133.679293087618 566.8182274445307 -100.11245862407623 0.0 0.0
1052.449248363732 150.72956268520417 599.1067741558473 -96.92639327334032 0.0 0.0
1093.411411718264 163.3808262574301 625.9105271717068 -92.81674634774156 0.0 0.0
1126.9474553395362 169.9389851008037 645.9411293032426 -88.16509712842887 0.0 0.0
1149.5848463036893 168.797078090676 656.782052824192 -82.45136682174096 0.0 0.0
1154.0131522412198 152.62044458972838 651.1277262329302 -73.71713586100637 0.0 0.0
1142.3732006505868 123.83164171893296 631.0571933388239 -59.29870708011653 0.0 0.0
816.5183143888268 -200.40380616454388 310.61278794143465 1.240714198047499e-10 0.0 0.0
1142.3732006507878 123.83164171921669 631.0571933391028 59.298707080367436 0.0 0.0
1154.0131522401314 152.6204445887207 651.1277262321483 73.71713586114109 0.0 0.0
1149.5848463043042 168.79707809143395 656.7820528246494 82.45136682200987 0.0 0.0
1126.9474553403263 169.9389851017299 645.9411293036928 88.16509712849914 0.0 0.0
1093.4114117182169 163.38082625755828 625.9105271717643 92.81674634780386 0.0 0.0
1052.4492483640954 150.72956268561558 599.1067741560138 96.92639327327129 0.0 0.0
1005.0162762779016 133.67929308751306 566.8182274443642 100.11245862406375 0.0 0.0
952.556831989094 114.02950548076639 530.6375872631703 102.54099346965616 0.0 0.0
896.9156450525438 93.9335117354972 492.636163246688 104.67552051473206 0.0 0.0
841.5394732971514 78.03619086997918 456.8022859316655 106.57359798824524 0.0 0.0
786.7717980203328 68.00707009171262 423.1613956740781 107.68898899387617 0.0 0.0
726.9382251325233 62.055207483782624 384.8053005864423 107.73910578875038 0.0 0.0
657.5726930181216 52.0713065674301 326.24642691428306 109.32258392131645 0.0 0.0
558.1544144691647 37.37550872367273 236.95302133207454 109.90937045095524 0.0 0.0
437.7233434460217 13.018381773182535 146.49231723954526 114.09457395525179 0.0 0.0
307.4652345954254 5.577919730276595 93.33270043875034 113.9273376208584 0.0 0.0
200.02753746197226 17.792533472204067 65.34883626131084 107.38234233490542 0.0 0.0
113.5194470615713 32.93013614138364 43.93487496088647 118.86457160778238 0.0 0.0
326.0735244998661 98.14086863366755 176.40641855426531 195.8740282878273 0.0 0.0
-676.0111524070079 -1330.7777696583519 -862.2012647414343 73.746087990359 0.0 0.0
-518.5804485293118 -1142.1331777412415 -681.6723880018667 -70.6119698680728 0.0 0.0
247.11935323885513 46.601156993289486 117.76144762543103 -207.3372246912838 0.0 0.0
78.7670196739207 18.852322462589036 29.285648933081468 -142.7382405325806 0.0 0.0
152.7263980207096 21.05157250005381 52.13446031219194 -129.80319988172468 0.0 0.0
239.89104652385282 6.431788101911267 73.63363249903881 -135.79258783943172 0.0 0.0
358.0977670603055 2.8273937413141033 110.87646081040708 -142.7511973102559 0.0 0.0
483.0644369039021 23.532361955691172 185.3879013262262 -136.4944804333062 0.0 0.0
590.8814450156713 43.026045879193845 276.3815758014942 -131.5158906344505 0.0 0.0
671.7050393482682 48.89797124631762 343.1735884988729 -129.48350254247035 0.0 0.0
728.6583501016634 53.84821229079673 384.10431437930737 -126.34136141043932 0.0 0.0
781.8539767729409 60.06884341746539 416.3231979722218 -124.5179991111731 0.0 0.0
833.5271000288828 72.37221540049605 448.82676592042066 -122.14949533598522 0.0 0.0
885.0108202732088 88.98678201555327 483.12310445805514 -119.67355554546106 0.0 0.0
933.842053577012 105.96250934634591 516.2045713504508 -117.01135377739223 0.0 0.0
978.2414813994156 120.5922448907761 545.8345132154783 -113.60863967087741 0.0 0.0
1017.268697788592 130.69683828007305 570.4334058759476 -109.20742214863012 0.0 0.0
1052.2820612066348 139.90998741092682 592.4945783798983 -103.91655229612067 0.0 0.0
1084.135662835144 146.95437054962767 611.9451317900687 -98.20325831561622 0.0 0.0
1100.1234926031152 140.41400641390226 616.8870274909061 -89.11357964083737 0.0 0.0
1092.881269088589 113.1891331670165 599.8991210196696 -72.40244080427945 0.0 0.0
675.7894111029052 -300.39487397271836 191.274611224259 6.264855301196803e-11 0.0 0.0
1092.8812690884863 113.18913316697228 599.8991210196467 72.40244080446136 0.0 0.0
1100.1234926019997 140.41400641288922 616.8870274901656 89.11357964099153 0.0 0.0
1084.1356628344101 146.95437054902428 611.9451317895521 98.20325831597988 0.0 0.0
1052.2820612064247 139.90998741077772 592.4945783796989 103.9165522961091 0.0 0.0
1017.2686977893725 130.69683828105974 570.4334058765919 109.20742214877828 0.0 0.0
978.2414813979401 120.59224488926354 545.8345132143974 113.6086396706026 0.0 0.0
933.8420535764194 105.9625093459466 516.204571350037 117.01135377743319 0.0 0.0
885.0108202729155 88.9867820155558 483.12310445784175 119.67355554559924 0.0 0.0
833.5271000282625 72.37221540008211 448.82676592001934 122.14949533608353 0.0 0.0
781.8539767727955 60.068843417674046 416.3231979721487 124.51799911140354 0.0 0.0
728.6583501015037 53.84821229091492 384.1043143792594 126.34136141049567 0.0 0.0
671.7050393482668 48.89797124663356 343.1735884987824 129.48350254249982 0.0 0.0
590.8814450153455 43.02604587917464 276.38157580114887 131.51589063433792 0.0 0.0
483.0644369029809 23.532361954894483 185.38790132553459 136.49448043322172 0.0 0.0
358.097767059865 2.827393741164233 110.87646081019686 142.75119731008562 0.0 0.0
239.8910465237756 6.431788102028369 73.63363249905039 135.79258783931243 0.0 0.0
152.72639802072814 21.051572500333002 52.13446031228087 129.80319988157248 0.0 0.0
78.76701967387861 18.852322462669676 29.28564893309321 142.73824053235535 0.0 0.0
247.1193532384843 46.601156993156145 117.7614476251532 207.3372246911454 0.0 0.0
-518.5804485281978 -1142.1331777399441 -681.6723880005695 70.61196986796034 0.0 0.0
-379.8692071624405 -977.9847835850409 -522.3099263159451 -75.81764655228848 0.0 0.0
180.08586638425865 7.626596085367234 72.1319191704175 -210.52151347713968 0.0 0.0
49.06007284465792 7.27785926338354 16.90123477026209 -160.81316779562195 0.0 0.0
107.01902716926867 22.419762843978734 38.83303427431846 -149.0713260940859 0.0 0.0
175.72055733433717 8.553381264462667 55.138915867712555 -154.78338820861424 0.0 0.0
268.5285664940579 -1.1578307205879927 79.9236211153428 -167.7615559181021 0.0 0.0
387.6278048205031 8.887783228450532 132.31556488517154 -165.26573690649832 0.0 0.0
503.5951168818087 28.532740065642795 213.05344570690414 -155.40196578017085 0.0 0.0
595.4066311225204 37.50088884516444 287.42967816498077 -149.80039297987264 0.0 0.0
659.8815747250816 37.105249576217126 334.6057556433353 -145.63400094849737 0.0 0.0
710.7740895045056 41.360242548176195 367.79418162960786 -141.37406758528238 0.0 0.0
759.4731729862174 50.9350783493844 398.46364923834597 -138.3987002953955 0.0 0.0
807.0035056743048 63.99918747060353 429.33976079833445 -135.5839074961821 0.0 0.0
851.2217546384269 77.44296904764084 458.4704776989141 -132.78768320564197 0.0 0.0
892.5539783477531 89.61272916413819 485.3990064227507 -129.5051115802127 0.0 0.0
929.3212175666887 98.68207587897444 508.47522673305457 -125.00493753324827 0.0 0.0
963.9111584823482 106.11058118722131 529.5016440835506 -119.23876222633903 0.0 0.0
1003.9241105300235 121.06696972189425 556.780948216687 -113.23580982053997 0.0 0.0
1037.2039650230224 131.01725234546723 578.5679447354579 -105.09667893108464 0.0 0.0
1039.11931739877 108.87230370971747 568.9840736556275 -88.27669783963202 0.0 0.0
510.7351654901997 -411.52526886325256 54.67142394601783 1.0274447959091049e-11 0.0 0.0
1039.1193173988224 108.87230370992265 568.9840736557192 88.27669783981628 0.0 0.0
1037.2039650226552 131.0172523452012 578.5679447351849 105.09667893125327 0.0 0.0
1003.9241105292674 121.06696972134682 556.7809482161816 113.23580982085544 0.0 0.0
963.9111584819387 106.11058118690664 529.5016440831804 119.23876222636981 0.0 0.0
929.3212175663808 98.68207587881602 508.4752267329209 125.00493753336305 0.0 0.0
892.5539783468512 89.6127291632761 485.39900642207556 129.50511158010178 0.0 0.0
851.221754638522 77.4429690479907 458.47047769894823 132.7876832057369 0.0 0.0
807.0035056739363 63.999187470321644 429.3397607980765 135.58390749622356 0.0 0.0
759.4731729850591 50.93507834812734 398.4636492375249 138.39870029513463 0.0 0.0
710.7740895037595 41.36024254763552 367.7941816290785 141.37406758524688 0.0 0.0
659.8815747244946 37.10524957574243 334.60575564296414 145.6340009483008 0.0 0.0
595.4066311219616 37.500888844883434 287.42967816452153 149.8003929798419 0.0 0.0
503.59511688176974 28.532740066162688 213.053445706817 155.40196578026087 0.0 0.0
387.62780481999687 8.887783228072271 132.31556488479103 165.26573690641328 0.0 0.0
268.5285664935377 -1.1578307207585543 79.92362111515384 167.7615559178926 0.0 0.0
175.7205573342567 8.553381264660562 55.13891586774597 154.78338820852133 0.0 0.0
107.01902716921722 22.419762844002413 38.833034274310755 149.07132609391968 0.0 0.0
49.06007284475271 7.277859263695696 16.901234770384082 160.81316779533057 0.0 0.0
180.0858663837983 7.626596085022101 72.13191917009236 210.5215134769828 0.0 0.0
-379.86920716158596 -977.9847835838766 -522.3099263148764 75.81764655227026 0.0 0.0
-272.8968758854161 -820.1306025101476 -392.1130027656687 -82.0301082475975 0.0 0.0
122.60401555262818 -24.004623764016635 37.27221774833124 -207.35745479726046 0.0 0.0
21.398441197474952 -0.6016004625841405 6.240945479249212 -173.60355111594208 0.0 0.0
62.375835831668795 22.243776263426508 25.38227966410467 -164.4187378968177 0.0 0.0
112.19218624734003 11.582173674854046 37.04913861130673 -169.66359639237484 0.0 0.0
176.20823305400017 0.19870497292234524 52.61436277964451 -185.83033742054897 0.0 0.0
270.0947895593327 -2.3971036896518143 82.52475079660553 -195.6532069083558 0.0 0.0
385.9733506244993 8.110227693709854 138.43850310671132 -184.90285019580546 0.0 0.0
489.16040145570025 19.247889316244912 208.05944689133798 -170.47254297450763 0.0 0.0
563.7097576699696 20.297539196448543 263.1933230125795 -162.4258311730435 0.0 0.0
618.001498023589 22.132806083453126 301.9218560490074 -156.47921883287404 0.0 0.0
665.0178383873938 28.32872443998423 332.74988189748734 -152.92363865932657 0.0 0.0
708.7233191601912 38.66034587592845 361.70762269604387 -149.83979812662207 0.0 0.0
748.0201019856853 48.5797376963642 387.173731082533 -147.00293246814033 0.0 0.0
785.0144615407106 58.10747072665885 410.8853058285271 -144.14008187964248 0.0 0.0
820.2379021253662 66.36970630690938 433.006780915659 -140.27040277518282 0.0 0.0
854.2833236884134 73.23449074036436 453.90609623638807 -134.40361821489014 0.0 0.0
894.9179933731567 87.22414650547756 481.1539558201335 -127.29463263920036 0.0 0.0
949.1336876417782 115.3990633345388 522.0913749957576 -120.87344211128942 0.0 0.0
978.2231588774156 115.59037801350436 537.8573286151565 -108.54107862026927 0.0 0.0
312.3336010539357 -529.6421822682466 -101.22377130817013 3.97157862153108e-11 0.0 0.0
978.2231588779885 115.59037801423943 537.8573286156991 108.54107862053432 0.0 0.0
949.1336876416922 115.39906333467066 522.0913749956914 120.8734421116282 0.0 0.0
894.9179933729594 87.22414650538067 481.1539558201491 127.29463263944072 0.0 0.0
854.2833236881913 73.23449073997874 453.9060962361519 134.40361821486007 0.0 0.0
820.2379021240914 66.36970630555322 433.0067809149207 140.27040277495723 0.0 0.0
785.0144615408441 58.10747072695842 410.88530582859295 144.1400818796658 0.0 0.0
748.020101986543 48.57973769750498 387.1737310830316 147.00293246824174 0.0 0.0
708.7233191584613 38.66034587394718 361.7076226948375 149.8397981263424 0.0 0.0
665.017838387415 28.328724440222995 332.74988189748507 152.92363865932774 0.0 0.0
618.0014980231374 22.132806083027326 301.9218560486583 156.4792188327841 0.0 0.0
563.7097576701682 20.29753919693648 263.1933230126435 162.42583117286955 0.0 0.0
489.1604014550331 19.247889315757963 208.05944689086695 170.47254297444678 0.0 0.0
385.97335062460803 8.110227694526099 138.43850310682356 184.90285019588188 0.0 0.0
270.0947895589761 -2.397103689510227 82.52475079651178 195.65320690827704 0.0 0.0
176.20823305367338 0.19870497293980605 52.614362779578734 185.83033742019498 0.0 0.0
112.19218624730298 11.582173675109365 37.04913861137925 169.66359639216483 0.0 0.0
62.375835831621295 22.2437762634083 25.382279664082823 164.4187378966304 0.0 0.0
21.39844119745354 -0.601600462472208 6.240945479275661 173.60355111575817 0.0 0.0
122.60401555224978 -24.004623764232004 37.272217748106584 207.3574547970426 0.0 0.0
-272.8968758847178 -820.1306025090562 -392.1130027648231 82.03010824768906 0.0 0.0
-187.307703175929 -680.902960681041 -286.9193634268519 -96.21879575542252 0.0 0.0
70.82382655452584 -48.60306070224399 9.79446828566892 -198.1728851911733 0.0 0.0
-5.387520615990006 -4.20567754768561 -2.8834091922534864 -181.28158738529373 0.0 0.0
18.457842136135973 21.011355869536498 11.839255145835763 -175.20742057442274 0.0 0.0
48.55494912817594 14.49420253913972 18.887287240165023 -180.1698581959151 0.0 0.0
84.98466777956806 3.652753389570853 26.46740128615797 -197.86940466731784 0.0 0.0
135.72522205976713 -2.090052069874138 40.13026995152836 -214.24186399827778 0.0 0.0
215.78409330093427 -5.817726343829177 64.56041994731463 -216.5471657311785 0.0 0.0
318.4412963564836 -12.48729135559893 99.7859589053132 -201.9100641820762 0.0 0.0
407.2133066791811 -16.191051269483626 139.73462411834763 -180.49477495355913 0.0 0.0
467.2230712705948 -8.235079382348768 178.6582552435012 -167.94898185548982 0.0 0.0
512.4944031754122 2.1506048415069685 212.00039224884011 -163.3082542781127 0.0 0.0
550.8643438203762 11.022692607596028 240.72622726458388 -161.92578460628943 0.0 0.0
584.6627783471663 19.094492524933074 265.54884282978765 -161.0294338046629 0.0 0.0
616.4726117021487 27.083757180422587 288.8042490469284 -160.11273285431574 0.0 0.0
649.2677965091827 34.96501869043386 312.4318943389927 -158.44081526724148 0.0 0.0
684.9737376379395 42.04318253900332 337.38953080305305 -153.81188941696942 0.0 0.0
723.796262809028 47.90865989375772 363.16517116584225 -145.62097838277646 0.0 0.0
783.3956471010458 72.10945898336436 405.32865933792414 -137.84731520359432 0.0 0.0
873.4882643617236 123.34324306983441 478.45962413705655 -135.46580702562156 0.0 0.0
47.394986337963374 -648.8693970686927 -287.8935624892234 3.701927653310122e-12 0.0 0.0
873.4882643614375 123.34324306944305 478.4596241370233 135.46580702578828 0.0 0.0
783.395647101727 72.10945898445121 405.32865933840606 137.84731520395547 0.0 0.0
723.796262808614 47.908659893572896 363.1651711656369 145.62097838287076 0.0 0.0
684.9737376370861 42.04318253761862 337.38953080215543 153.81188941691605 0.0 0.0
649.2677965087619 34.96501869020004 312.43189433879047 158.4408152670274 0.0 0.0
616.4726117030472 27.08375718183811 288.80424904762697 160.1127328545031 0.0 0.0
584.6627783478372 19.09449252583905 265.54884283028593 161.02943380490063 0.0 0.0
550.8643438196478 11.022692606667562 240.7262272639727 161.92578460606575 0.0 0.0
512.4944031761103 2.1506048426570743 212.00039224937134 163.30825427826386 0.0 0.0
467.22307126887404 -8.235079384744736 178.65825524229598 167.94898185534504 0.0 0.0
407.21330667933495 -16.191051268920027 139.73462411854004 180.49477495348566 0.0 0.0
318.44129635574325 -12.487291356377284 99.78595890483055 201.91006418199632 0.0 0.0
215.78409330051176 -5.817726344326387 64.56041994702397 216.54716573113805 0.0 0.0
135.72522205937315 -2.090052070383403 40.13026995126598 214.24186399805922 0.0 0.0
84.98466777945774 3.6527533895356097 26.467401286113475 197.8694046670639 0.0 0.0
48.554949128070824 14.494202539124442 18.887287240131368 180.16985819568177 0.0 0.0
18.457842136207496 21.011355869678496 11.83925514590016 175.2074205742176 0.0 0.0
-5.387520615888857 -4.205677547506536 -2.883409192172342 181.28158738500144 0.0 0.0
70.82382655422182 -48.60306070238999 9.794468285511286 198.1728851910234 0.0 0.0
-187.30770317552165 -680.9029606802075 -286.9193634262984 96.2187957555034 0.0 0.0
-132.68937806246242 -552.5490855632783 -211.71130196334025 -108.7957552890482 0.0 0.0
24.03584292183661 -65.42949007411974 -11.58261051412902 -182.7764613161131 0.0 0.0
-31.127315753532095 -4.9192878777439395 -10.805476405485063 -185.14621194548795 0.0 0.0
-24.663418217407454 19.376720370704312 -1.590972872992031 -181.50905701122485 0.0 0.0
-14.315857694824581 16.998268176774644 0.8043004161815146 -185.79473060543634 0.0 0.0
-6.667390831748994 7.5525473421568465 0.27220560855270737 -202.27304086075088 0.0 0.0
-2.86016830640218 1.2503107288224231 -0.48268380824913226 -219.94583340732154 0.0 0.0
-0.9583071339984457 0.0853862423912366 -0.2704518937128615 -223.33088281133539 0.0 0.0
-0.2388300718337817 -0.022692065780349324 -0.08221869650195401 -215.17475323272646 0.0 0.0
0.03417357960086065 -0.0020649639556644672 0.01572330931302801 -209.26090083090062 0.0 0.0
-0.3669148633093471 0.008873861006389205 -0.14424456553285125 -207.73217874822578 0.0 0.0
-0.8532702182331917 0.15775289172299978 0.19310600514673837 -197.03248424502263 0.0 0.0
-1.9748322570209496 0.7311752378632264 0.3571664979045579 -187.31130862097223 0.0 0.0
-0.9195953857488917 2.121996667704387 0.8595580906693954 -180.0082948148942 0.0 0.0
6.598098898061437 5.671101577335278 2.0643400605969617 -174.84686979397202 0.0 0.0
28.031959104847544 12.476500745183259 5.520212839628201 -170.4411795061165 0.0 0.0
73.6985499085765 24.560363105005706 13.681323975759128 -165.19009576058673 0.0 0.0
159.3737123801507 33.51626778983638 18.652186529206887 -156.10643257459088 0.0 0.0
375.60126510366223 -11.82434812289182 32.999808608905624 -150.16228952831568 0.0 0.0
591.7213037849339 23.003050908360628 231.78722573665 -194.8212785649012 0.0 0.0
-607.0548123469922 -884.4532343421013 -667.5044186025015 2.3447910280083306e-12 0.0 0.0
591.7213037843208 23.003050907858466 231.7872257364845 194.82127856483532 0.0 0.0
375.6012651042165 -11.824348122493802 32.99980860903845 150.1622895291257 0.0 0.0
159.3737123799109 33.51626778961679 18.65218652889513 156.10643257525095 0.0 0.0
73.69854990785348 24.560363103686427 13.681323975019438 165.19009576072685 0.0 0.0
28.031959105861162 12.47650074635547 5.520212840381191 170.44117950605383 0.0 0.0
6.598098898621728 5.671101577874197 2.064340061007343 174.84686979409912 0.0 0.0
-0.9195953857707053 2.121996667515347 0.8595580905427767 180.00829481502134 0.0 0.0
-1.9748322563802674 0.731175238444898 0.3571664982762286 187.3113086211166 0.0 0.0
-0.8532702177799365 0.1577528918599782 0.19310600529954058 197.03248424503903 0.0 0.0
-0.36691486339309876 0.008873859656684857 -0.1442445660090037 207.7321787479775 0.0 0.0
0.03417357999941828 -0.002064964160251037 0.01572330936477684 209.2609008308047 0.0 0.0
-0.23883007162331182 -0.022692065888929136 -0.08221869647100633 215.1747532327195 0.0 0.0
-0.9583071343338965 0.08538624150545493 -0.2704518940747125 223.33088281132214 0.0 0.0
-2.8601683063829153 1.250310728696979 -0.4826838082812386 219.94583340715764 0.0 0.0
-6.667390831678741 7.552547342193588 0.27220560858620946 202.27304086057435 0.0 0.0
-14.315857694811427 16.998268176798945 0.8043004161921343 185.7947306051729 0.0 0.0
-24.663418217417238 19.376720370665097 -1.5909728730080752 181.509057011097 0.0 0.0
-31.127315753422643 -4.919287877471664 -10.805476405369841 185.14621194530113 0.0 0.0
24.03584292153981 -65.42949007440028 -11.582610514314545 182.77646131595418 0.0 0.0
-132.68937806223158 -552.5490855625602 -211.71130196301974 108.79575528906865 0.0 0.0
-105.68137675117961 -436.3629394846125 -162.57127150030385 -111.94730580245474 0.0 0.0
-10.401923969058162 -75.5530682587696 -25.789750717399915 -168.15803447035435 0.0 0.0
-55.28066804682009 -4.914076323482757 -18.065849932081235 -184.49332981284465 0.0 0.0
-66.5014381889565 17.918893168423555 -14.58085929392175 -183.12633651802892 0.0 0.0
-76.02318870304731 18.756910202195698 -17.182379599918267 -186.0025313165893 0.0 0.0
-97.18428840799396 11.232632179450874 -25.737373804116313 -199.62007009774598 0.0 0.0
-141.1105972764093 4.7268719080343775 -40.979134406888434 -215.50499874132194 0.0 0.0
-217.14996928827327 5.897301245865486 -65.04191572392011 -216.8455157407859 0.0 0.0
-318.6199337578311 12.306000501629125 -99.94777756786485 -201.93864297258193 0.0 0.0
-407.16088957783444 16.194437115358372 -139.70280365019025 -180.46176861949542 0.0 0.0
-467.69453456246424 8.17657733100856 -178.8120389593328 -167.9675605318743 0.0 0.0
-513.1246035465258 -2.157876536493532 -212.79768492141937 -163.1973557248739 0.0 0.0
-552.0572134057886 -10.061912732168977 -241.72238527260873 -161.33487043359702 0.0 0.0
-584.0905558690479 -15.011924935866332 -264.01380368623876 -160.19927716577587 0.0 0.0
-607.1356145778847 -16.37139301874528 -277.94662083709966 -160.26360362377667 0.0 0.0
-619.0156175881795 -12.727400187482985 -280.96354584419305 -162.34428209053766 0.0 0.0
-617.9452662891272 -4.137366029048351 -270.98267273743585 -166.91086414925195 0.0 0.0
-611.2052083967101 2.9277068468032894 -249.46870377021787 -176.5270549139585 0.0 0.0
-591.4139320752206 50.85477437639106 -190.10741366369282 -190.44819634764232 0.0 0.0
-322.55153855324033 154.69920319734268 19.98810766670394 -149.81797962792473 0.0 0.0
-1164.7096756795363 -1139.655168245215 -1175.1606534519617 -6.943423613847699e-11 0.0 0.0
-322.5515385540185 154.69920319607513 19.988107665882467 149.8179796287018 0.0 0.0
-591.4139320753386 50.854774376143325 -190.1074136636889 190.44819634779637 0.0 0.0
-611.2052083973363 2.927706845721602 -249.4687037705812 176.52705491433605 0.0 0.0
-617.9452662893572 -4.137366029739155 -270.98267273760763 166.910864149468 0.0 0.0
-619.0156175883654 -12.727400187604331 -280.9635458443505 162.34428209064004 0.0 0.0
-607.1356145779584 -16.37139301922882 -277.94662083712456 160.26360362374473 0.0 0.0
-584.0905558689428 -15.011924935921087 -264.01380368612087 160.19927716582447 0.0 0.0
-552.0572134058248 -10.061912732512077 -241.7223852726446 161.3348704337218 0.0 0.0
-513.1246035451196 -2.1578765349912317 -212.79768492034077 163.19735572460013 0.0 0.0
-467.6945345619241 8.17657733144172 -178.81203895893125 167.9675605318901 0.0 0.0
-407.1608895775032 16.194437115070926 -139.70280365006437 180.4617686195454 0.0 0.0
-318.6199337572985 12.306000501444789 -99.94777756770576 201.9386429727858 0.0 0.0
-217.14996928739913 5.897301246525921 -65.04191572343758 216.8455157407414 0.0 0.0
-141.1105972759729 4.726871908165279 -40.97913440672675 215.50499874115522 0.0 0.0
-97.18428840732716 11.232632180474017 -25.737373803616993 199.62007009747677 0.0 0.0
-76.0231887029907 18.756910201948987 -17.182379599978084 186.0025313163361 0.0 0.0
-66.50143818888282 17.91889316831356 -14.580859293936227 183.126336517884 0.0 0.0
-55.28066804671917 -4.914076323297166 -18.06584993199774 184.493329812658 0.0 0.0
-10.401923969219999 -75.5530682590283 -25.789750717522978 168.1580344701966 0.0 0.0
-105.68137675113101 -436.36293948393245 -162.5712715001313 111.94730580234543 0.0 0.0
-88.09043560129687 -333.5892016634837 -126.50704879740252 -104.36412063731142 0.0 0.0
-32.511879142875 -79.52867181511216 -33.607976486400624 -155.8251140195122 0.0 0.0
-77.85709519530194 -5.11931034617336 -24.882102996502184 -180.54592132378173 0.0 0.0
-106.43761528432202 16.560267970408173 -26.98337461901687 -179.83012981066108 0.0 0.0
-136.5736846173408 19.967075492843428 -34.906058608565424 -181.89776539534233 0.0 0.0
-186.32631239446926 14.535513237995868 -51.343109441257916 -191.44865915060035 0.0 0.0
-272.1675170401272 3.9654553980071325 -83.29615939314945 -195.1052774939394 0.0 0.0
-386.2198234657069 -8.322537555189076 -138.77076075618686 -185.40693184328381 0.0 0.0
-489.18005927317535 -19.462570215870638 -208.16058553604307 -170.57262175272095 0.0 0.0
-563.6561761427737 -20.34165674282255 -263.19744496312336 -162.40559581866123 0.0 0.0
-618.0094731260064 -22.096218403458067 -301.9507482063499 -156.41904429994912 0.0 0.0
-665.4139457974172 -28.24205999664956 -332.99639069902764 -152.5104020257608 0.0 0.0
-709.3328228735842 -37.95341140984753 -361.83983553975725 -148.7709181337263 0.0 0.0
-746.681196920109 -45.339429084175435 -385.200575326385 -145.7001650368945 0.0 0.0
-775.4697745031721 -48.089815050087054 -401.49067064194844 -144.47529778456996 0.0 0.0
-792.1078850560979 -43.542846428749385 -407.7242203546541 -145.67492588847736 0.0 0.0
-796.5606965004738 -33.12646448296391 -404.44770504735607 -149.5899828027277 0.0 0.0
-789.014408400158 -19.332482792865477 -393.195179323701 -156.19395786402234 0.0 0.0
-741.4413504612013 25.880152333608578 -347.1659409957774 -163.94531121629166 0.0 0.0
-634.516672706988 116.89479172934907 -251.05595748748374 -171.49445762633556 0.0 0.0
-1946.7005137861734 -1435.9783049049718 -1656.1640892985693 1.6115819789774832e-10 0.0 0.0
-634.5166727067453 116.89479172922131 -251.05595748729144 171.49445762670453 0.0 0.0
-741.4413504604963 25.880152334487917 -347.1659409952712 163.94531121635382 0.0 0.0
-789.0144084002302 -19.332482793202914 -393.1951793236723 156.1939578642648 0.0 0.0
-796.5606964997448 -33.126464482319264 -404.447705046961 149.58998280266277 0.0 0.0
-792.1078850567384 -43.54284642973697 -407.7242203550303 145.67492588862797 0.0 0.0
-775.4697745028645 -48.089815049992104 -401.49067064169617 144.47529778470064 0.0 0.0
-746.6811969191805 -45.3394290833034 -385.200575325754 145.7001650368183 0.0 0.0
-709.3328228739128 -37.95341141066024 -361.83983554003726 148.77091813392187 0.0 0.0
-665.413945797079 -28.24205999651895 -332.9963906988179 152.51040202588607 0.0 0.0
-618.0094731262607 -22.09621840398412 -301.9507482065361 156.41904429984328 0.0 0.0
-563.6561761430308 -20.341656743578273 -263.1974449632573 162.40559581863783 0.0 0.0
-489.1800592729599 -19.46257021625869 -208.16058553585705 170.57262175283523 0.0 0.0
-386.21982346460516 -8.32253755412847 -138.77076075539827 185.40693184322905 0.0 0.0
-272.16751703961154 3.9654553979381095 -83.29615939297378 195.10527749382814 0.0 0.0
-186.3263123941032 14.53551323796244 -51.343109441175415 191.44865915033768 0.0 0.0
-136.57368461724084 19.96707549262713 -34.90605860860708 181.89776539509614 0.0 0.0
-106.43761528446838 16.560267969814177 -26.983374619243296 179.83012981051496 0.0 0.0
-77.85709519521868 -5.119310345945541 -24.882102996411263 180.54592132359295 0.0 0.0
-32.51187914292851 -79.52867181516709 -33.60797648643246 155.82511401933897 0.0 0.0
-88.09043560111823 -333.58920166300595 -126.50704879720361 104.36412063727653 0.0 0.0
-71.60122415236064 -247.280656291013 -95.66456413301208 -92.88825576566849 0.0 0.0
-48.39789932383309 -77.40370984232207 -37.739659629164926 -142.47284586956357 0.0 0.0
-98.6204787532894 -5.344313099279412 -31.178845343499646 -172.2339152482319 0.0 0.0
-144.76219535040514 15.25662123791976 -38.81443693272138 -172.71486189409825 0.0 0.0
-194.7026926296952 19.819110527434308 -52.367597720446035 -171.362830469086 0.0 0.0
-271.7996658140352 13.010224387383357 -78.53622849923872 -171.98097527187954 0.0 0.0
-387.9065312609319 -6.514768872619868 -132.10978588491156 -167.95243974933882 0.0 0.0
-503.7328632970252 -28.950084020514634 -213.23449041862483 -156.02912663696435 0.0 0.0
-595.3865891276401 -37.735051670772336 -287.5217274011212 -149.85000589921944 0.0 0.0
-659.81002636883 -37.08192427244922 -334.59505167697966 -145.6471535397483 0.0 0.0
-710.6110566599455 -41.167247898362106 -367.65134858411295 -141.3067744778787 0.0 0.0
-759.4928855046779 -50.61479304593274 -398.3591430769065 -137.9303788802268 0.0 0.0
-807.2811364263301 -63.35750342554185 -429.2371454125374 -134.30724027033344 0.0 0.0
-850.3675597700715 -75.1937979522558 -457.0964336920115 -131.0581605135722 0.0 0.0
-885.3599042396972 -81.96877169256882 -478.2749653958007 -129.52354102295743 0.0 0.0
-907.0035629649547 -80.05718834662747 -488.31457075108085 -130.96697354669192 0.0 0.0
-913.213560636791 -67.66833835869883 -485.3008762663011 -135.63246593031246 0.0 0.0
-893.96118897959 -36.790396843432774 -460.30205373055236 -141.72774559503873 0.0 0.0
-839.3430088375922 20.881292545521944 -404.84864611344693 -146.6291519764834 0.0 0.0
-688.647153338192 160.21960752985046 -263.5250814082847 -149.0015899149522 0.0 0.0
-2391.5503410495767 -1672.002783267057 -2005.607960266862 2.1966428676023497e-11 0.0 0.0
-688.647153336496 160.21960753147903 -263.5250814071391 149.001589915092 0.0 0.0
-839.3430088368614 20.881292546127668 -404.84864611292744 146.62915197675588 0.0 0.0
-893.9611889794205 -36.79039684340063 -460.30205373041633 141.72774559526934 0.0 0.0
-913.2135606369714 -67.66833835893334 -485.30087626650294 135.63246593028646 0.0 0.0
-907.0035629648728 -80.0571883467475 -488.31457075105595 130.9669735467711 0.0 0.0
-885.3599042393595 -81.96877169236814 -478.27496539550833 129.52354102301325 0.0 0.0
-850.3675597691989 -75.19379795146837 -457.0964336913614 131.058160513461 0.0 0.0
-807.2811364261471 -63.35750342555603 -429.2371454124434 134.3072402702897 0.0 0.0
-759.4928855052376 -50.614793046913505 -398.359143077242 137.93037888038623 0.0 0.0
-710.611056659931 -41.16724789862899 -367.65134858416417 141.30677447774056 0.0 0.0
-659.8100263689098 -37.08192427289786 -334.59505167700854 145.647153539773 0.0 0.0
-595.3865891275926 -37.735051671219296 -287.52172740100093 149.85000589926275 0.0 0.0
-503.7328632960126 -28.950084019770486 -213.23449041786552 156.02912663694207 0.0 0.0
-387.90653125988564 -6.514768871633916 -132.10978588418772 167.95243974922715 0.0 0.0
-271.7996658142266 13.010224385969689 -78.53622849970083 171.9809752718034 0.0 0.0
-194.7026926292893 19.819110527730523 -52.36759772024993 171.36283046881928 0.0 0.0
-144.76219535032698 15.256621237733581 -38.8144369327588 172.71486189395074 0.0 0.0
-98.62047875302667 -5.344313098971025 -31.178845343327236 172.23391524812573 0.0 0.0
-48.39789932382395 -77.40370984232541 -37.73965962916408 142.4728458695345 0.0 0.0
-71.60122415236309 -247.2806562907758 -95.66456413294163 92.88825576551578 0.0 0.0
-58.24466938936503 -175.15849084916948 -70.02094807156035 -79.64476702224341 0.0 0.0
-60.50452626047805 -70.80210401361028 -39.392165239581836 -127.16034597660669 0.0 0.0
-117.99329335087452 -5.358950435332817 -37.000185724021996 -159.88468301769092 0.0 0.0
-180.8439505725209 13.291694873501497 -50.24631368902665 -160.51855682153587 0.0 0.0
-251.76150281260658 18.445800475077537 -69.75634977372364 -156.7798730358925 0.0 0.0
-356.32327543617595 7.724673445837583 -108.6129807705692 -149.5905347562584 0.0 0.0
-480.66516519983253 -22.313672017285022 -184.69707108547163 -137.44766050567654 0.0 0.0
-591.0622042705496 -43.72045446246528 -276.60038672212704 -131.84207888058043 0.0 0.0
-671.7517446896022 -49.106369188581965 -343.3280066157828 -129.51941989019272 0.0 0.0
-728.5508247769415 -53.75474064981529 -384.04554732554584 -126.36104868335936 0.0 0.0
-781.530311454994 -59.67959418185808 -416.0039114386317 -124.45512356616445 0.0 0.0
-833.0191622605398 -71.63941208226537 -448.24563199640335 -121.67640552926417 0.0 0.0
-884.7005848403401 -88.10059714733359 -482.5607254384503 -118.37847608615506 0.0 0.0
-933.7407229026035 -104.93571994145157 -515.7135171402538 -115.13130711673213 0.0 0.0
-975.2202571406056 -117.17782817696767 -542.7855836882011 -113.29293277834726 0.0 0.0
-1001.9262100253984 -117.66863834483536 -556.5847110987781 -114.61394008801417 0.0 0.0
-1004.2011148274858 -99.94363250269816 -549.0651042829563 -118.85281772147631 0.0 0.0
-972.8443571207406 -53.735634727357535 -510.53296137204063 -124.23438774776074 0.0 0.0
-890.6441025870125 34.578687351066876 -426.191548791963 -127.30541860482934 0.0 0.0
-719.7159288168884 196.52922066855015 -261.9851252390499 -127.10989976936558 0.0 0.0
-2742.2345548516564 -1913.9568963586116 -2307.9334876237435 1.879385536085465e-12 0.0 0.0
-719.7159288163267 196.52922066904057 -261.98512523863803 127.10989976953586 0.0 0.0
-890.6441025867707 34.57868735106389 -426.191548791851 127.3054186052447 0.0 0.0
-972.8443571209627 -53.73563472759959 -510.53296137213385 124.23438774784806 0.0 0.0
-1004.2011148277713 -99.94363250312311 -549.0651042832666 118.8528177214079 0.0 0.0
-1001.9262100251133 -117.66863834477363 -556.584711098648 114.61394008812456 0.0 0.0
-975.2202571402712 -117.17782817679775 -542.7855836879017 113.29293277840583 0.0 0.0
-933.740722902381 -104.9357199414688 -515.7135171400746 115.13130711685645 0.0 0.0
-884.700584840081 -88.1005971472783 -482.56072543838286 118.37847608615668 0.0 0.0
-833.0191622603729 -71.6394120824034 -448.24563199634224 121.6764055293599 0.0 0.0
-781.5303114548874 -59.67959418202937 -416.00391143861475 124.45512356618431 0.0 0.0
-728.5508247763551 -53.754740649485086 -384.0455473251506 126.3610486833074 0.0 0.0
-671.7517446894856 -49.10636918878317 -343.3280066156088 129.51941989011573 0.0 0.0
-591.0622042701655 -43.72045446253152 -276.60038672176756 131.8420788806289 0.0 0.0
-480.66516519908043 -22.31367201683828 -184.697071084888 137.44766050558542 0.0 0.0
-356.32327543569755 7.72467344585564 -108.61298077035377 149.59053475615832 0.0 0.0
-251.7615028122642 18.445800475049108 -69.756349773654 156.77987303567068 0.0 0.0
-180.84395057231137 13.291694873605 -50.24631368894835 160.51855682140535 0.0 0.0
-117.99329335080499 -5.358950435393919 -37.00018572401797 159.8846830176279 0.0 0.0
-60.50452626045199 -70.80210401364366 -39.39216523958403 127.16034597650103 0.0 0.0
-58.24466938935005 -175.15849084901282 -70.02094807150888 79.64476702202386 0.0 0.0
-48.428219906116816 -116.60367052299624 -49.50956712873391 -65.74076177520703 0.0 0.0
-70.02142060891558 -61.14152146611566 -39.34888262250937 -109.75946853300411 0.0 0.0
-136.1832592422923 -4.907459187427099 -42.32712563926533 -143.44445073078555 0.0 0.0
-215.11075319738572 11.103353680637946 -61.13497373010878 -144.36863174811953 0.0 0.0
-306.759112443168 13.459473778625519 -88.27805576273074 -135.4960686901495 0.0 0.0
-432.3229160152004 -3.2139554186204418 -142.7425537563342 -122.33677211772024 0.0 0.0
-556.788325284831 -36.177401067346395 -235.84835101258062 -111.2177677816335 0.0 0.0
-658.032411254166 -52.87189526891834 -326.68691524655117 -109.45530086603674 0.0 0.0
-726.9487924777366 -62.12818216592804 -384.89776571316145 -107.77239474593263 0.0 0.0
-786.6237199854286 -67.84801989103089 -423.04681361168286 -107.713337269721 0.0 0.0
-841.0392199774174 -77.47572430260772 -456.31156576629957 -106.48915167626261 0.0 0.0
-895.8611602014006 -92.74853956171957 -491.5561189196575 -104.21241848272697 0.0 0.0
-951.4281763714862 -112.65216742653016 -529.3975684052846 -101.39586660366514 0.0 0.0
-1005.4315261985444 -133.70153332380997 -567.030390050018 -98.44892831110968 0.0 0.0
-1053.8228744617854 -151.87645910265786 -600.4504138661384 -96.35228977236449 0.0 0.0
-1084.828122676524 -155.88596113127278 -618.2115353157317 -96.74232269170783 0.0 0.0
-1082.9421630903598 -130.71801405508924 -604.9725063815433 -100.33763889460526 0.0 0.0
-1033.4218607152734 -65.02301514104389 -547.7545616121573 -104.92753719227987 0.0 0.0
-925.1870165260752 49.9826205383778 -436.8850125365095 -107.407347398983 0.0 0.0
-744.0470662215234 222.43755539361368 -261.2773769241204 -109.11122780224089 0.0 0.0
-3041.999178062703 -2142.588103327229 -2576.238379947356 -7.620570841027074e-12 0.0 0.0
-744.0470662211344 222.43755539383534 -261.27737692383295 109.11122780244212 0.0 0.0
-925.1870165259074 49.982620538397796 -436.8850125364112 107.40734739928095 0.0 0.0
-1033.4218607155756 -65.02301514143805 -547.7545616123507 104.92753719239249 0.0 0.0
-1082.9421630899192 -130.71801405470234 -604.9725063813706 100.33763889452321 0.0 0.0
-1084.828122675305 -155.8859611301751 -618.2115353148378 96.7423226916725 0.0 0.0
-1053.8228744613054 -151.87645910232294 -600.4504138657621 96.35228977233271 0.0 0.0
-1005.4315261976972 -133.70153332316966 -567.030390049376 98.44892831116769 0.0 0.0
-951.4281763720015 -112.65216742718464 -529.3975684057482 101.39586660358985 0.0 0.0
-895.8611602011916 -92.74853956178441 -491.5561189195581 104.21241848273371 0.0 0.0
-841.0392199774432 -77.47572430295659 -456.3115657663729 106.48915167631279 0.0 0.0
-786.6237199849091 -67.84801989079709 -423.046813611366 107.71333726972796 0.0 0.0
-726.9487924773616 -62.12818216578992 -384.8977657128557 107.77239474582815 0.0 0.0
-658.0324112541005 -52.87189526940428 -326.6869152463928 109.45530086616944 0.0 0.0
-556.7883252842828 -36.17740106721708 -235.84835101206332 111.21776778161156 0.0 0.0
-432.3229160145129 -3.2139554180985344 -142.74255375586338 122.33677211755244 0.0 0.0
-306.7591124428729 13.459473778384918 -88.2780557627271 135.49606869000144 0.0 0.0
-215.1107531972269 11.103353680627485 -61.13497373006623 144.3686317479421 0.0 0.0
-136.18325924223853 -4.907459187332883 -42.32712563921967 143.44445073076136 0.0 0.0
-70.02142060895099 -61.14152146623417 -39.34888262255556 109.75946853293028 0.0 0.0
-48.42821990600889 -116.6036705228534 -49.509567128658695 65.74076177497767 0.0 0.0
-41.915381368284656 -71.24724219710264 -33.94878706961619 -51.57460966851052 0.0 0.0
-77.41162463865587 -49.7172807945863 -38.13867162997265 -90.42655893432608 0.0 0.0
-153.2743314146866 -3.903073125337549 -47.15372886048078 -122.96887626464489 0.0 0.0
-247.96579228361307 7.828917886405666 -71.98082812793383 -123.51389927111177 0.0 0.0
-364.12648177947364 7.288602411873878 -108.17722882887232 -111.44969040499251 0.0 0.0
-495.10889741440906 -19.2829642047884 -180.42092140848737 -92.25201994305736 0.0 0.0
-618.459900091045 -45.40473433375228 -281.35921740277973 -87.55602539960907 0.0 0.0
-705.2485451633501 -62.437720558339606 -365.22216526561283 -86.86440443776628 0.0 0.0
-775.3935856478047 -72.3607370267363 -417.978483138283 -87.51011054300788 0.0 0.0
-835.8895456430276 -82.16541924581082 -456.35813431669527 -88.186623640673 0.0 0.0
-893.715337144592 -95.47430540831937 -492.5580048496482 -87.53240364273279 0.0 0.0
-951.9812977176223 -113.93290234495647 -531.0189615875098 -85.7940186616685 0.0 0.0
-1010.9717694303388 -136.69629599539283 -571.9520549831622 -83.57364044567859 0.0 0.0
-1068.709493702207 -161.78959774351293 -613.4130637186292 -81.12027398065324 0.0 0.0
-1122.1912159461783 -184.07397184664327 -651.3676412318936 -78.87357472109497 0.0 0.0
-1159.004259413344 -192.25753686984555 -674.0961288000178 -78.10110188471172 0.0 0.0
-1155.0960186344564 -164.17451456076049 -658.4982454098908 -80.20852215979603 0.0 0.0
-1088.294704461468 -79.5855063622264 -583.2507007549107 -84.35464931105729 0.0 0.0
-955.154023877001 61.165193275786834 -446.8238643272589 -88.38019807947971 0.0 0.0
-759.1757785767587 247.80071250569873 -256.0570686040613 -93.99217707031404 0.0 0.0
-3301.804230281151 -2350.022447911495 -2812.9041537746025 4.871125725003367e-11 0.0 0.0
-759.1757785763093 247.80071250606443 -256.0570686037062 93.99217707054598 0.0 0.0
-955.1540238771463 61.16519327557677 -446.8238643273214 88.38019807951441 0.0 0.0
-1088.2947044611856 -79.58550636210376 -583.250700754718 84.35464931125675 0.0 0.0
-1155.0960186343245 -164.17451456073746 -658.4982454099027 80.20852215988855 0.0 0.0
-1159.004259412722 -192.25753686929582 -674.0961287995412 78.1011018846182 0.0 0.0
-1122.1912159459516 -184.07397184658703 -651.3676412317743 78.87357472107507 0.0 0.0
-1068.7094937012616 -161.78959774272 -613.4130637179446 81.12027398064497 0.0 0.0
-1010.9717694304701 -136.69629599575572 -571.9520549833561 83.57364044565789 0.0 0.0
-951.9812977175372 -113.9329023451566 -531.0189615874956 85.79401866180194 0.0 0.0
-893.7153371443904 -95.47430540840465 -492.55800484957643 87.5324036427715 0.0 0.0
-835.8895456435716 -82.16541924669876 -456.3581343170518 88.18662364079815 0.0 0.0
-775.3935856474386 -72.36073702666233 -417.97848313801353 87.5101105429674 0.0 0.0
-705.248545162975 -62.43772055830799 -365.22216526523573 86.8644044377291 0.0 0.0
-618.4599000905293 -45.404734333604445 -281.35921740226553 87.55602539956669 0.0 0.0
-495.108897413791 -19.282964204555654 -180.42092140804704 92.252019942988 0.0 0.0
-364.1264817792089 7.288602411564973 -108.1772288288752 111.44969040492911 0.0 0.0
-247.96579228340048 7.828917886489762 -71.98082812784651 123.51389927100874 0.0 0.0
-153.27433141448194 -3.9030731252726953 -47.15372886039985 122.96887626469689 0.0 0.0
-77.41162463858385 -49.717280794534815 -38.138671629935594 90.42655893431387 0.0 0.0
-41.91538136829611 -71.24724219707034 -33.948787069609935 51.57460966837125 0.0 0.0
-38.03874111631811 -38.84360387481688 -23.064703497340492 -37.5247653575404 0.0 0.0
-82.56934914836519 -37.68561417627953 -36.07648899739341 -69.39126745284243 0.0 0.0
-169.069680745845 -2.5088777976757397 -51.473788040760454 -98.31486789886448 0.0 0.0
-280.7768946415667 3.4844835941075942 -83.09258117808326 -98.1756161386782 0.0 0.0
-418.6873399365209 -2.8256549401637256 -130.83062445179067 -82.3839126792945 0.0 0.0
-554.4425738535135 -31.128394973053027 -218.21696294098763 -66.93831302690089 0.0 0.0
-662.8242230550096 -53.73479069341875 -319.9523302165942 -65.29510790576234 0.0 0.0
-744.9278634840797 -69.35448984631753 -394.88316001716504 -65.43482599547849 0.0 0.0
-816.0674835777932 -83.10301568812882 -445.88353473150477 -66.83257682996948 0.0 0.0
-879.7405950549271 -96.67311229423225 -486.3775593781657 -67.91084863725473 0.0 0.0
-940.9613138249498 -113.61147125586274 -525.8366579974253 -67.68652730290854 0.0 0.0
-1002.9191472997611 -135.37807625586723 -567.7571450963035 -66.47152047699642 0.0 0.0
-1065.0625934598256 -161.4601734674561 -611.9086692739857 -64.82742727931269 0.0 0.0
-1125.239042600173 -187.55826863671797 -655.0636972019761 -63.09269495848821 0.0 0.0
-1180.5917772340722 -211.7901463503809 -694.8750459090113 -61.040557194285796 0.0 0.0
-1222.976182250384 -225.3375434407213 -723.0034205936504 -59.07191515837708 0.0 0.0
-1226.0602640967807 -202.63649569928455 -713.6061162362022 -59.098868827798164 0.0 0.0
-1149.5223009831216 -106.91951534159742 -627.9905669505499 -62.86547053040281 0.0 0.0
-987.3988321810456 63.58217994718126 -462.06591408749273 -69.69425482085062 0.0 0.0
-761.398217266953 280.58527784290567 -240.69090041512487 -80.30102700477671 0.0 0.0
-3521.931932197223 -2526.9008306826818 -3013.804051176514 -1.1455725257292215e-11 0.0 0.0
-761.398217266625 280.5852778431365 -240.69090041480484 80.30102700496649 0.0 0.0
-987.3988321824545 63.58217994571047 -462.0659140885344 69.6942548208939 0.0 0.0
-1149.5223009820404 -106.91951534060117 -627.9905669497962 62.86547053047376 0.0 0.0
-1226.0602640964926 -202.63649569907483 -713.6061162360525 59.09886882776202 0.0 0.0
-1222.9761822504006 -225.3375434408905 -723.003420593669 59.07191515836534 0.0 0.0
-1180.5917772337598 -211.7901463502145 -694.8750459087901 61.04055719426425 0.0 0.0
-1125.2390425995516 -187.55826863625256 -655.0636972015479 63.09269495839042 0.0 0.0
-1065.0625934593727 -161.46017346721456 -611.9086692737089 64.82742727927106 0.0 0.0
-1002.919147299539 -135.37807625587234 -567.757145096169 66.47152047697816 0.0 0.0
-940.9613138246694 -113.61147125582406 -525.8366579972806 67.68652730282957 0.0 0.0
-879.7405950554448 -96.67311229507517 -486.3775593784759 67.9108486372204 0.0 0.0
-816.0674835776333 -83.10301568826661 -445.8835347313818 66.83257683004186 0.0 0.0
-744.9278634832443 -69.35448984576695 -394.88316001654664 65.43482599536179 0.0 0.0
-662.8242230545254 -53.7347906933007 -319.9523302161096 65.29510790575625 0.0 0.0
-554.4425738527301 -31.12839497263243 -218.216962940397 66.93831302692197 0.0 0.0
-418.6873399362282 -2.8256549403570133 -130.83062445170273 82.3839126793081 0.0 0.0
-280.7768946412503 3.484483594016818 -83.09258117804376 98.17561613867399 0.0 0.0
-169.0696807456842 -2.508877797632638 -51.473788040699034 98.31486789899014 0.0 0.0
-82.56934914833576 -37.68561417625167 -36.07648899737623 69.39126745266906 0.0 0.0
-38.03874111631991 -38.8436038748039 -23.06470349733714 37.524765357479176 0.0 0.0
-35.57522006234867 -19.021908198176728 -16.379138478157618 -24.359779196728645 0.0 0.0
-84.7634413554899 -26.23350829112105 -33.29908489398328 -46.954245031510055 0.0 0.0
-183.22196276628972 -1.2426141110892743 -55.339373063213706 -68.97156416770609 0.0 0.0
-315.0944107068593 -1.5879849668640675 -94.79316631634937 -67.86730865883254 0.0 0.0
-469.0695452017328 -16.202248160940382 -156.86410725528617 -51.786425923843524 0.0 0.0
-601.9366812018667 -40.426201423769726 -254.41006923550893 -43.81228869539729 0.0 0.0
-695.3193670864101 -59.88005918256988 -350.05558211006985 -43.55508282329224 0.0 0.0
-778.7985405561683 -77.07872652436208 -419.88837403724904 -44.4748270010219 0.0 0.0
-851.9553251925745 -94.44474935099348 -470.71762485908323 -45.79525452026577 0.0 0.0
-918.9503309969565 -111.53369721823188 -513.9239852391997 -46.87216480003068 0.0 0.0
-984.0515532988147 -131.92821846170142 -556.9429850863285 -46.98853952072536 0.0 0.0
-1049.332418100049 -156.98728471146836 -602.1667895870205 -46.283360109358604 0.0 0.0
-1114.7864733678166 -185.05047358758978 -648.9471176526652 -45.31820603958139 0.0 0.0
-1176.6713183145607 -213.3294730564468 -694.0532921898543 -44.183655375314785 0.0 0.0
-1231.40494134352 -236.37253243989483 -732.9642747095538 -42.65594815886423 0.0 0.0
-1272.7807581331372 -248.5155865882202 -759.7915708472397 -40.3972380534795 0.0 0.0
-1288.573583883971 -238.20923434905728 -762.7706729299975 -38.3545757682678 0.0 0.0
-1237.3082294574695 -166.41112812655146 -701.7718994600273 -40.2270674748483 0.0 0.0
-1040.798879797408 40.32537967688663 -500.6606067441103 -49.78662225760743 0.0 0.0
-737.4063023911303 336.1705487964088 -200.94287155815755 -66.88193556457828 0.0 0.0
-3688.7480074900864 -2655.805906986912 -3163.642519507408 6.110134620485042e-11 0.0 0.0
-737.4063023908795 336.1705487966158 -200.94287155793256 66.88193556464304 0.0 0.0
-1040.798879797341 40.32537967685949 -500.66060674412375 49.78662225766686 0.0 0.0
-1237.30822945658 -166.41112812573135 -701.7718994594013 40.22706747489148 0.0 0.0
-1288.573583884075 -238.20923434929603 -762.7706729300922 38.354575768401546 0.0 0.0
-1272.7807581328398 -248.51558658806368 -759.7915708469612 40.39723805358304 0.0 0.0
-1231.4049413424743 -236.3725324390131 -732.9642747087996 42.655948158876534 0.0 0.0
-1176.6713183146326 -213.32947305670652 -694.0532921898358 44.18365537543076 0.0 0.0
-1114.7864733677043 -185.0504735877045 -648.9471176526499 45.31820603958885 0.0 0.0
-1049.3324180998377 -156.98728471149792 -602.1667895868777 46.28336010940817 0.0 0.0
-984.0515532984638 -131.92821846156608 -556.9429850861018 46.98853952059716 0.0 0.0
-918.9503309962435 -111.5336972177852 -513.9239852387462 46.87216479991011 0.0 0.0
-851.955325192042 -94.4447493507404 -470.7176248586839 45.795254520232994 0.0 0.0
-778.798540555543 -77.0787265240599 -419.8883740368046 44.47482700112536 0.0 0.0
-695.3193670860968 -59.8800591825156 -350.05558210967314 43.55508282303862 0.0 0.0
-601.9366812012973 -40.426201423593895 -254.41006923499947 43.81228869540531 0.0 0.0
-469.06954520120524 -16.202248160874642 -156.86410725500937 51.78642592393546 0.0 0.0
-315.09441070661256 -1.5879849671302337 -94.79316631637391 67.86730865884351 0.0 0.0
-183.22196276620258 -1.2426141110566538 -55.339373063177746 68.97156416754743 0.0 0.0
-84.76344135554652 -26.23350829115737 -33.299084894011145 46.95424503134753 0.0 0.0
-35.57522006234123 -19.021908198185663 -16.37913847815807 24.35977919661149 0.0 0.0
-32.211074037391796 -10.750734393714046 -12.888542529331751 -13.742109683444161 0.0 0.0
-82.5066780913888 -17.03028668324209 -29.861089432389264 -23.525832740527033 0.0 0.0
-195.21266450748206 -1.0940913986592267 -58.89202677184236 -33.60216357846062 0.0 0.0
-351.3146223560476 -6.482852680411264 -107.40738262486435 -32.070665270897365 0.0 0.0
-518.7088113431444 -27.298111868579298 -184.7138956912976 -23.26191743219607 0.0 0.0
-636.4701672148104 -47.26141120353471 -286.4188256037065 -22.523713635923414 0.0 0.0
-724.317635154241 -63.799053381538734 -373.96156180194174 -23.364676744958977 0.0 0.0
-807.8820762588002 -85.33052870847743 -441.2081645035712 -23.830183217690035 0.0 0.0
-883.7602133814999 -105.95123391915172 -493.0594362267332 -24.430816814851408 0.0 0.0
-954.4592236166629 -126.99297072192577 -539.7537204702321 -25.116496792908592 0.0 0.0
-1023.1616290796609 -150.60284635070747 -586.1361259866032 -25.410261809101083 0.0 0.0
-1091.9165757033684 -177.96033081476497 -634.2475904274784 -25.30951981703132 0.0 0.0
-1160.0291166418972 -208.99508720908668 -683.8392762413473 -24.92153975774286 0.0 0.0
-1224.1006950489814 -238.25633565505137 -730.5278986238537 -24.390941390553266 0.0 0.0
-1277.026855035709 -259.1409571773613 -767.4742953729548 -23.548984755643147 0.0 0.0
-1312.500872979475 -265.4469468078681 -788.4264381689871 -21.9226422386299 0.0 0.0
-1327.9447358414122 -255.14278452829106 -791.0398146245743 -19.39896502093942 0.0 0.0
-1321.8718864806024 -228.0044038176673 -774.5788076970236 -18.28753594133523 0.0 0.0
-1209.8292022411786 -102.85671474074039 -656.6669875856436 -26.01892269380265 0.0 0.0
-715.5705319181902 388.02609143784673 -164.40860869424884 -50.17109692980063 0.0 0.0
-3645.5381885743354 -2576.6362659076412 -3104.5091005662034 2.922462272181292e-11 0.0 0.0
-715.5705319188542 388.02609143711925 -164.40860869467346 50.17109692989614 0.0 0.0
-1209.829202241749 -102.85671474133869 -656.6669875861731 26.018922693808214 0.0 0.0
-1321.8718864795887 -228.00440381674468 -774.5788076963223 18.287535941237508 0.0 0.0
-1327.9447358426228 -255.1427845296281 -791.0398146255545 19.398965021121594 0.0 0.0
-1312.5008729794492 -265.44694680796965 -788.4264381688663 21.922642238535502 0.0 0.0
-1277.0268550354617 -259.1409571772684 -767.4742953727745 23.548984755526046 0.0 0.0
-1224.10069504822 -238.25633565452534 -730.5278986231979 24.390941390670534 0.0 0.0
-1160.0291166421164 -208.99508720948498 -683.8392762416012 24.921539757745688 0.0 0.0
-1091.9165757031387 -177.9603308147755 -634.2475904272567 25.30951981684091 0.0 0.0
-1023.1616290791881 -150.60284635049828 -586.1361259862528 25.41026180901838 0.0 0.0
-954.4592236156574 -126.9929707211937 -539.7537204695336 25.11649679303023 0.0 0.0
-883.7602133812227 -105.95123391914703 -493.0594362265191 24.43081681469903 0.0 0.0
-807.8820762588604 -85.33052870887909 -441.20816450355744 23.830183217821695 0.0 0.0
-724.3176351539925 -63.799053381617334 -373.96156180165303 23.36467674483815 0.0 0.0
-636.470167214312 -47.26141120342011 -286.4188256032065 22.52371363597057 0.0 0.0
-518.7088113426529 -27.29811186847774 -184.71389569097863 23.26191743229805 0.0 0.0
-351.3146223558369 -6.482852680671663 -107.40738262489205 32.070665270993885 0.0 0.0
-195.21266450730099 -1.094091398590824 -58.892026771767505 33.60216357832641 0.0 0.0
-82.50667809126548 -17.030286683174495 -29.861089432331998 23.52583274056104 0.0 0.0
-32.21107403740637 -10.750734393733246 -12.888542529341878 13.742109683476757 0.0 0.0
-20.91910629366216 -5.450766902583288 -7.910961958873634 -8.44269365903926 0.0 0.0
-71.7721652924518 -9.71330082882386 -24.445639836382696 -9.775624007166957 0.0 0.0
-204.27772820070197 -3.0279224417054067 -62.1916951927222 -11.198589624187438 0.0 0.0
-395.27074855904436 -23.22233889390242 -127.17876076313789 -8.072465892410769 0.0 0.0
-587.3949345639448 -71.41457227481136 -231.79769201886936 -0.15202431941913375 0.0 0.0
-726.833076431837 -119.78700709976584 -362.26753909233094 1.3329969325911541 0.0 0.0
-848.2103991839276 -172.75324988094246 -482.08733112651953 0.702647640159789 0.0 0.0
-976.5777992986232 -240.5879302815909 -593.3046406116101 -0.74849333121292 0.0 0.0
-1111.850142853915 -321.4366363100447 -704.7983853367596 -2.3795562570605835 0.0 0.0
-1262.5904608248502 -422.2680972589224 -831.2638613160627 -4.1070963831989555 0.0 0.0
-1434.590037446893 -548.5278273446099 -980.2899333306455 -5.737552200498865 0.0 0.0
-1628.4012907966953 -701.1176268836884 -1153.1244549558419 -7.046474328879771 0.0 0.0
-1838.4093645021037 -872.970379861877 -1343.6306043970144 -7.920826546626083 0.0 0.0
-2054.607741251638 -1053.9208006209565 -1541.8607121361833 -8.63333308919966 0.0 0.0
-2260.8644158860275 -1227.7756396456475 -1731.67540669323 -8.9954822320387 0.0 0.0
-2434.866766031437 -1372.5100707286922 -1890.9511052950202 -8.722110446859453 0.0 0.0
-2549.885287111947 -1462.1539066685662 -1993.3234374967333 -7.388743449536385 0.0 0.0
-2591.5837001737755 -1483.2311000718566 -2024.4545319512752 -5.728764795483723 0.0 0.0
-2635.8824214129 -1512.9503890391259 -2060.1119735125285 -11.842051126955255 0.0 0.0
-2700.0091546110375 -1575.6112687436907 -2120.915773312988 -39.76634446898397 0.0 0.0
-6148.651983935809 -5051.86551128489 -5575.9818783671835 3.268496584496461e-13 0.0 0.0
-2700.009154611983 -1575.6112687446998 -2120.9157733134607 39.766344469055056 0.0 0.0
-2635.8824214154474 -1512.9503890417727 -2060.111973514359 11.842051126966446 0.0 0.0
-2591.5837001714954 -1483.2311000696473 -2024.454531949481 5.728764795406434 0.0 0.0
-2549.8852871125664 -1462.1539066693092 -1993.323437497086 7.388743449614122 0.0 0.0
-2434.8667660308283 -1372.5100707282456 -1890.9511052943064 8.722110446726152 0.0 0.0
-2260.864415886157 -1227.7756396459654 -1731.6754066930991 8.99548223201192 0.0 0.0
-2054.607741247787 -1053.9208006172578 -1541.860712133223 8.633333089216627 0.0 0.0
-1838.409364501638 -872.970379861616 -1343.6306043964628 7.920826546604324 0.0 0.0
-1628.401290794965 -701.1176268822051 -1153.1244549544283 7.046474328574206 0.0 0.0
-1434.5900374459513 -548.5278273439468 -980.28993332983 5.737552200556642 0.0 0.0
-1262.5904608237547 -422.26809725809005 -831.2638613151283 4.107096383339702 0.0 0.0
-1111.8501428538232 -321.4366363102738 -704.7983853365558 2.3795562569052926 0.0 0.0
-976.5777992986237 -240.58793028192443 -593.3046406114448 0.7484933312987962 0.0 0.0
-848.2103991837554 -172.75324988111743 -482.08733112622883 -0.7026476400577515 0.0 0.0
-726.8330764311439 -119.78700709943408 -362.2675390916488 -1.332996932576819 0.0 0.0
-587.3949345633189 -71.41457227453265 -231.79769201837718 0.15202431945446904 0.0 0.0
-395.2707485588759 -23.222338893997346 -127.17876076310026 8.07246589270687 0.0 0.0
-204.27772820037274 -3.027922441320854 -62.19169519250805 11.19858962430117 0.0 0.0
-71.77216529236176 -9.713300828839069 -24.445639836360254 9.775624007242449 0.0 0.0
-20.91910629373428 -5.450766902586647 -7.910961958896277 8.442693659286311 0.0 0.0
SCALARS Strain float 6
LOOKUP_TABLE default
0.014403743691000791 -0.02400222169398762 0.0 -0.0013813699999891235 0.0 0.0
0.00884721096918904 -0.0026037622220463443 0.0 -0.007299701905425347 0.0 0.0
0.0026241825432271534 -0.0006193777487073983 0.0 -0.0008576450008142411 0.0 0.0
0.0022398258293405086 -0.0008922616792825736 0.0 5.779300371872405e-06 0.0 0.0
0.0032918257200310608 -0.001435155064362884 0.0 0.00018178807960369836 0.0 0.0
0.005590824062743405 -0.003164921146932621 0.0 0.0003373270641845369 0.0 0.0
0.009573096465547243 -0.006561124587497996 0.0 0.00044845169724753694 0.0 0.0
0.015566267751760364 -0.0119470494702002 0.0 0.00048796265542303246 0.0 0.0
0.02383136858666189 -0.019556109587975774 0.0 0.00045592167013720444 0.0 0.0
0.03446624358967626 -0.029430065738795412 0.0 0.0003251425840881279 0.0 0.0
0.047406503708063735 -0.04146975629433301 0.0 0.00012921925055555685 0.0 0.0
0.062494245421241795 -0.05551419523169107 0.0 -0.0001265440198353555 0.0 0.0
0.07953112557895489 -0.07139926936313501 0.0 -0.0004672434805674916 0.0 0.0
0.09830523446857745 -0.08895585956806525 0.0 -0.0008461827150745096 0.0 0.0
0.11851809693551932 -0.10794134723344803 0.0 -0.0012939677736642735 0.0 0.0
0.1396345201643262 -0.12788328454003678 0.0 -0.0017950062686665324 0.0 0.0
0.16078106985618912 -0.1479720048212629 0.0 -0.002250923560030324 0.0 0.0
0.18073919908031816 -0.16705301023769828 0.0 -0.0024879576551311835 0.0 0.0
0.1980626164087379 -0.18369460046794403 0.0 -0.0023398389840284884 0.0 0.0
0.2109902946696932 -0.1962165134329124 0.0 -0.002664243174807215 0.0 0.0
0.21610421671686153 -0.20138663977784083 0.0 3.4893962719273475e-15 0.0 0.0
0.21099029466966468 -0.19621651343287677 0.0 0.002664243174814925 0.0 0.0
0.1980626164086784 -0.1836946004678754 0.0 0.002339838984035553 0.0 0.0
0.180739199080234 -0.16705301023761807 0.0 0.0024879576551337396 0.0 0.0
0.16078106985609053 -0.1479720048211742 0.0 0.0022509235600292107 0.0 0.0
0.139634520164223 -0.12788328453994294 0.0 0.0017950062686639054 0.0 0.0
0.11851809693541593 -0.10794134723335175 0.0 0.001293967773663804 0.0 0.0
0.09830523446847483 -0.08895585956796218 0.0 0.0008461827150760869 0.0 0.0
0.0795311255788539 -0.07139926936304297 0.0 0.00046724348056446626 0.0 0.0
0.062494245421147496 -0.055514195231594995 0.0 0.00012654401983084847 0.0 0.0
0.04740650370798405 -0.04146975629426053 0.0 -0.00012921925055887212 0.0 0.0
0.03446624358961328 -0.029430065738735314 0.0 -0.00032514258409130836 0.0 0.0
0.023831368586612747 -0.019556109587930404 0.0 -0.0004559216701347661 0.0 0.0
0.015566267751725062 -0.011947049470167233 0.0 -0.00048796265542216217 0.0 0.0
0.0095730964655246 -0.0065611245874781145 0.0 -0.00044845169724595617 0.0 0.0
0.0055908240627307385 -0.0031649211469237815 0.0 -0.0003373270641820315 0.0 0.0
0.003291825720026472 -0.0014351550643604738 0.0 -0.00018178807960352882 0.0 0.0
0.002239825829339084 -0.0008922616792833237 0.0 -5.779300372359621e-06 0.0 0.0
0.002624182543224549 -0.0006193777487076423 0.0 0.0008576450008114309 0.0 0.0
0.008847210969182874 -0.0026037622220433073 0.0 0.0072997019054170924 0.0 0.0
0.014403743690992421 -0.024002221693962416 0.0 0.0013813699999413198 0.0 0.0
0.010066258480487669 -0.02152571896260008 0.0 -0.0009104365963653993 0.0 0.0
0.005892744472688041 -0.0019470110327724412 0.0 -0.005953261553308741 0.0 0.0
0.0017277461363504284 -0.00047478315124842123 0.0 -0.0005444605614503776 0.0 0.0
0.001974841141706536 -0.000839144307640224 0.0 -0.0001933636100337283 0.0 0.0
0.002833893553248287 -0.0012908668977637274 0.0 -0.00015110081898041074 0.0 0.0
0.0047887602415483165 -0.002834516498715031 0.0 -0.00022871331365511828 0.0 0.0
0.00833023950056772 -0.0059962625939430905 0.0 -0.0005275962847991877 0.0 0.0
0.01376548617177268 -0.011095237201813045 0.0 -0.0010007268975386222 0.0 0.0
0.021304217280099052 -0.018338902728135594 0.0 -0.0016661350917581096 0.0 0.0
0.03098255654921593 -0.02773769682063027 0.0 -0.002495381994200306 0.0 0.0
0.04269889311364846 -0.039172906743780336 0.0 -0.003406005632310696 0.0 0.0
0.05630025769147382 -0.0524824662366926 0.0 -0.0043354986976022565 0.0 0.0
0.07164470528254605 -0.06752542653206024 0.0 -0.005296260528999746 0.0 0.0
0.08857268777917372 -0.08416402821394793 0.0 -0.006294586853380838 0.0 0.0
0.1068273661632722 -0.10217373640916926 0.0 -0.007301488988209001 0.0 0.0
0.1259455766627606 -0.1211186846616982 0.0 -0.008228083746054052 0.0 0.0
0.14516152927606207 -0.1402499403152616 0.0 -0.008841533708440362 0.0 0.0
0.16339231087857747 -0.15848151709891958 0.0 -0.008807143364148387 0.0 0.0
0.1792180493004242 -0.1744149926343959 0.0 -0.007931711190673622 0.0 0.0
0.19058350238830973 -0.18620806143281546 0.0 -0.006873184979432918 0.0 0.0
0.19483791026152308 -0.1911273855611959 0.0 8.218252467440124e-15 0.0 0.0
0.19058350238828273 -0.18620806143279026 0.0 0.006873184979454252 0.0 0.0
0.17921804930037094 -0.17441499263433313 0.0 0.007931711190694201 0.0 0.0
0.1633923108785039 -0.15848151709884284 0.0 0.008807143364160972 0.0 0.0
0.14516152927597528 -0.1402499403151781 0.0 0.008841533708442092 0.0 0.0
0.1259455766626681 -0.12111868466160819 0.0 0.008228083746047589 0.0 0.0
0.10682736616317871 -0.102173736409077 0.0 0.007301488988206623 0.0 0.0
0.08857268777908153 -0.08416402821385557 0.0 0.006294586853377382 0.0 0.0
0.07164470528245542 -0.06752542653197044 0.0 0.005296260528992831 0.0 0.0
0.05630025769138899 -0.05248246623660479 0.0 0.004335498697593386 0.0 0.0
0.04269889311357625 -0.03917290674371345 0.0 0.0034060056323027875 0.0 0.0
0.030982556549158283 -0.027737696820575457 0.0 0.0024953819941925144 0.0 0.0
0.021304217280054997 -0.018338902728091758 0.0 0.001666135091755215 0.0 0.0
0.013765486171740596 -0.011095237201784777 0.0 0.0010007268975352635 0.0 0.0
0.008330239500547062 -0.005996262593923924 0.0 0.0005275962847972231 0.0 0.0
0.004788760241537623 -0.002834516498705191 0.0 0.00022871331365312294 0.0 0.0
0.002833893553244375 -0.0012908668977620408 0.0 0.00015110081898059673 0.0 0.0
0.001974841141705297 -0.0008391443076409076 0.0 0.00019336361003186042 0.0 0.0
0.0017277461363499635 -0.00047478315124923926 0.0 0.0005444605614498924 0.0 0.0
0.00589274447268134 -0.001947011032768888 0.0 0.0059532615532969695 0.0 0.0
0.010066258480473997 -0.021525718962573746 0.0 0.000910436596327276 0.0 0.0
0.007379906431633738 -0.017178256682511585 0.0 -0.003922140006489589 0.0 0.0
0.004182760060157095 -0.0010847814841646235 0.0 -0.005998356627059723 0.0 0.0
0.0012011208282474233 -0.00025637664477206045 0.0 -0.0004923814884973259 0.0 0.0
0.0016728431199110059 -0.0007113048269675757 0.0 -0.00048006809250791707 0.0 0.0
0.002418930526090763 -0.0010417456700421769 0.0 -0.0004886684020549909 0.0 0.0
0.004029327551225849 -0.0022133423910169385 0.0 -0.0006317728487403439 0.0 0.0
0.007102626975474565 -0.004885950452457295 0.0 -0.0012023992101546426 0.0 0.0
0.01195010514511403 -0.009397259646662196 0.0 -0.002120670387376438 0.0 0.0
0.018722815395513404 -0.01588890004849099 0.0 -0.003396532517844652 0.0 0.0
0.02741436226677252 -0.02432359168169148 0.0 -0.004949176283735329 0.0 0.0
0.03789467081819044 -0.03454309529886625 0.0 -0.006631455867544592 0.0 0.0
0.05001274488417325 -0.04638568465958308 0.0 -0.008313236778782587 0.0 0.0
0.06365506527104915 -0.05974406522823522 0.0 -0.009980715776596759 0.0 0.0
0.07871694506810406 -0.07453468135139185 0.0 -0.011698415040281868 0.0 0.0
0.09499948517242682 -0.09058388267971898 0.0 -0.013438274008092561 0.0 0.0
0.1121184328254065 -0.10753209712532141 0.0 -0.015013249182662647 0.0 0.0
0.12943583470236683 -0.12475568253041824 0.0 -0.016044066001770607 0.0 0.0
0.14598241270907675 -0.14130402256570668 0.0 -0.016032670643465655 0.0 0.0
0.16033758828268474 -0.15582197992572036 0.0 -0.014665229640803901 0.0 0.0
0.170663318683738 -0.16640947204388534 0.0 -0.011957557591917942 0.0 0.0
0.17457032225163022 -0.1711003471902128 0.0 1.5028776834125068e-14 0.0 0.0
0.1706633186837131 -0.16640947204386536 0.0 0.011957557591955426 0.0 0.0
0.16033758828263683 -0.15582197992567237 0.0 0.014665229640842933 0.0 0.0
0.14598241270901263 -0.14130402256563646 0.0 0.0160326706434876 0.0 0.0
0.1294358347022909 -0.12475568253034586 0.0 0.016044066001776096 0.0 0.0
0.11211843282532417 -0.10753209712524431 0.0 0.015013249182654193 0.0 0.0
0.09499948517234327 -0.09058388267963847 0.0 0.013438274008086115 0.0 0.0
0.07871694506802152 -0.07453468135131189 0.0 0.011698415040277101 0.0 0.0
0.06365506527096919 -0.05974406522815642 0.0 0.0099807157765872 0.0 0.0
0.0500127448840986 -0.046385684659507105 0.0 0.008313236778769535 0.0 0.0
0.037894670818126336 -0.03454309529880427 0.0 0.006631455867532398 0.0 0.0
0.027414362266720338 -0.024323591681642984 0.0 0.004949176283722088 0.0 0.0
0.018722815395473047 -0.015888900048449398 0.0 0.0033965325178367846 0.0 0.0
0.011950105145085713 -0.00939725964663532 0.0 0.0021206703873707703 0.0 0.0
0.00710262697545698 -0.0048859504524416736 0.0 0.001202399210150698 0.0 0.0
0.004029327551217486 -0.0022133423910108865 0.0 0.0006317728487344558 0.0 0.0
0.0024189305260878045 -0.0010417456700405983 0.0 0.0004886684020536901 0.0 0.0
0.001672843119910447 -0.0007113048269683598 0.0 0.0004800680925071927 0.0 0.0
0.0012011208282476094 -0.00025637664477322244 0.0 0.0004923814884965281 0.0 0.0
0.004182760060150486 -0.0010847814841607444 0.0 0.005998356627044008 0.0 0.0
0.007379906431620662 -0.017178256682485488 0.0 0.003922140006463546 0.0 0.0
0.005575655707932628 -0.01383742007680569 0.0 -0.004356423870781941 0.0 0.0
0.0030884166802982406 -0.0007823357141962307 0.0 -0.005471460861109541 0.0 0.0
0.0008547638771523275 -0.00014373682049608093 0.0 -0.0007763808665796954 0.0 0.0
0.0013798942002074968 -0.0005653068557268335 0.0 -0.0007693015736083348 0.0 0.0
0.0020402980865253466 -0.0008514760751509885 0.0 -0.0008153862056389083 0.0 0.0
0.0033311182747240036 -0.001690306185058867 0.0 -0.000980848283355242 0.0 0.0
0.005911970065515924 -0.003834599339109704 0.0 -0.0016559382026116798 0.0 0.0
0.01013738087388471 -0.007719295356857845 0.0 -0.0029329535223167743 0.0 0.0
0.01611420345330829 -0.013424320286692175 0.0 -0.004670470723641693 0.0 0.0
0.023794521598093213 -0.020867425093178862 0.0 -0.006770897035125896 0.0 0.0
0.033025485687826886 -0.029859632304794506 0.0 -0.009029176040305276 0.0 0.0
0.04365763247253052 -0.04023540361938578 0.0 -0.011280503456773294 0.0 0.0
0.055598966678714765 -0.051909159451515426 0.0 -0.013504033151798918 0.0 0.0
0.06877945432017246 -0.06483797182297661 0.0 -0.015760189291220972 0.0 0.0
0.0830686453483928 -0.07890723816983025 0.0 -0.01802940546198688 0.0 0.0
0.09818099160714298 -0.09384644004181514 0.0 -0.020104956743501674 0.0 0.0
0.1135963836230377 -0.10916051872625102 0.0 -0.021533617545839816 0.0 0.0
0.12846320441488027 -0.124032135026409 0.0 -0.021713645412788134 0.0 0.0
0.1415009735145828 -0.137199463174754 0.0 -0.020022672652649814 0.0 0.0
0.15111835646886976 -0.14699293269720162 0.0 -0.015591371832323817 0.0 0.0
0.15486290544355552 -0.1518356000020448 0.0 2.253666003815269e-14 0.0 0.0
0.15111835646884733 -0.14699293269717953 0.0 0.015591371832371612 0.0 0.0
0.14150097351454027 -0.1371994631747103 0.0 0.020022672652699795 0.0 0.0
0.12846320441482387 -0.12403213502634716 0.0 0.021713645412815476 0.0 0.0
0.11359638362297161 -0.10916051872618672 0.0 0.02153361754584409 0.0 0.0
0.09818099160707075 -0.09384644004174471 0.0 0.02010495674349279 0.0 0.0
0.0830686453483196 -0.0789072381697584 0.0 0.01802940546197852 0.0 0.0
0.06877945432010034 -0.06483797182290817 0.0 0.015760189291216024 0.0 0.0
0.05559896667864471 -0.0519091594514477 0.0 0.013504033151787605 0.0 0.0
0.043657632472465596 -0.04023540361932485 0.0 0.011280503456756423 0.0 0.0
0.03302548568777063 -0.029859632304739717 0.0 0.00902917604028697 0.0 0.0
0.023794521598047378 -0.020867425093133354 0.0 0.00677089703510971 0.0 0.0
0.016114203453273343 -0.013424320286656185 0.0 0.0046704707236336065 0.0 0.0
0.010137380873859913 -0.007719295356832913 0.0 0.0029329535223088237 0.0 0.0
0.005911970065500699 -0.0038345993390981638 0.0 0.0016559382026068129 0.0 0.0
0.0033311182747173904 -0.0016903061850551465 0.0 0.000980848283350102 0.0 0.0
0.002040298086523491 -0.0008514760751501924 0.0 0.0008153862056359421 0.0 0.0
0.0013798942002069335 -0.0005653068557267023 0.0 0.0007693015736080413 0.0 0.0
0.0008547638771519386 -0.00014373682049683125 0.0 0.0007763808665771028 0.0 0.0
0.0030884166802916434 -0.0007823357141929476 0.0 0.005471460861096394 0.0 0.0
0.005575655707919716 -0.013837420076782386 0.0 0.004356423870763619 0.0 0.0
0.004228096950443955 -0.011150433119068218 0.0 -0.003874533126148695 0.0 0.0
0.0023101680021655868 -0.000625520008396676 0.0 -0.004881670724002281 0.0 0.0
0.0006203275157623132 -8.978459827835986e-05 0.0 -0.001169657383561031 0.0 0.0
0.0011149887789271018 -0.0004300009936809086 0.0 -0.0010816654143906885 0.0 0.0
0.001693163315440619 -0.0006952261571021557 0.0 -0.0011392989227415864 0.0 0.0
0.0027069343876444394 -0.001277192513711436 0.0 -0.0012945633865587155 0.0 0.0
0.004784556122483594 -0.0028888567305117244 0.0 -0.001963404339513348 0.0 0.0
0.008348845033661649 -0.006084970471095549 0.0 -0.003399381073080939 0.0 0.0
0.013506642953724429 -0.01097545217513529 0.0 -0.005479322651097984 0.0 0.0
0.020153757308769515 -0.017403746538357405 0.0 -0.007954353175739606 0.0 0.0
0.0281246389161926 -0.025157024560208505 0.0 -0.010603764334119494 0.0 0.0
0.03726552527552342 -0.03406265163919417 0.0 -0.01323964379472543 0.0 0.0
0.047501283513608585 -0.04405097142881523 0.0 -0.015843540200714566 0.0 0.0
0.05880164589751906 -0.055114390802535225 0.0 -0.018475308515702987 0.0 0.0
0.07108630466938362 -0.06719265280789422 0.0 -0.02109596038805794 0.0 0.0
0.08415971049973424 -0.08009966279100846 0.0 -0.023491641454160543 0.0 0.0
0.09763909838228402 -0.09346733714787722 0.0 -0.025251859647144475 0.0 0.0
0.11083425218405406 -0.10663995081141757 0.0 -0.025727663781999855 0.0 0.0
0.12267289332239299 -0.11856548869965716 0.0 -0.023891598311507944 0.0 0.0
0.1317899924708918 -0.1278217399236871 0.0 -0.01834300763162955 0.0 0.0
0.13548572530478695 -0.1330020509427063 0.0 2.5359055133566955e-14 0.0 0.0
0.13178999247087167 -0.12782173992366688 0.0 0.018343007631685934 0.0 0.0
0.12267289332235531 -0.11856548869961833 0.0 0.023891598311563886 0.0 0.0
0.11083425218400507 -0.10663995081136508 0.0 0.025727663782034234 0.0 0.0
0.09763909838222709 -0.09346733714781866 0.0 0.02525185964715097 0.0 0.0
0.08415971049967165 -0.08009966279094527 0.0 0.02349164145415137 0.0 0.0
0.0710863046693208 -0.06719265280782374 0.0 0.021095960388047022 0.0 0.0
0.05880164589745736 -0.05511439080247584 0.0 0.01847530851569537 0.0 0.0
0.04750128351354879 -0.04405097142875285 0.0 0.015843540200700508 0.0 0.0
0.03726552527546814 -0.034062651639140754 0.0 0.013239643794705422 0.0 0.0
0.02812463891614441 -0.025157024560165935 0.0 0.010603764334097859 0.0 0.0
0.020153757308729814 -0.01740374653832132 0.0 0.007954353175721098 0.0 0.0
0.013506642953693861 -0.010975452175106674 0.0 0.005479322651085408 0.0 0.0
0.008348845033640962 -0.006084970471076844 0.0 0.0033993810730720345 0.0 0.0
0.004784556122471873 -0.0028888567305019866 0.0 0.001963404339509936 0.0 0.0
0.0027069343876394043 -0.0012771925137091183 0.0 0.0012945633865550975 0.0 0.0
0.0016931633154391242 -0.0006952261571015816 0.0 0.0011392989227391626 0.0 0.0
0.0011149887789267908 -0.0004300009936795139 0.0 0.0010816654143887068 0.0 0.0
0.0006203275157622808 -8.978459827862001e-05 0.0 0.001169657383558169 0.0 0.0
0.002310168002160264 -0.0006255200083944653 0.0 0.004881670723991174 0.0 0.0
0.004228096950433419 -0.011150433119047664 0.0 0.0038745331261361587 0.0 0.0
0.0031716531303495766 -0.008909633503971675 0.0 -0.0032108168098292844 0.0 0.0
0.0017211894357291293 -0.0005199478123513391 0.0 -0.0043100756501428155 0.0 0.0
0.00045229971865439486 -7.15308023261752e-05 0.0 -0.0015452394309037624 0.0 0.0
0.0008754853640404066 -0.00030914754965023994 0.0 -0.0013960769260689372 0.0 0.0
0.0013736158164002782 -0.0005608641068716329 0.0 -0.001457956348425373 0.0 0.0
0.0021523820208858018 -0.0009579139359640232 0.0 -0.0015828624080845687 0.0 0.0
0.0037526329487188835 -0.002087667059664743 0.0 -0.002198435273975434 0.0 0.0
0.006623775610305827 -0.004551994757304997 0.0 -0.0035846033005151236 0.0 0.0
0.01092042251685008 -0.008572825050446839 0.0 -0.005795735151576063 0.0 0.0
0.016522847613008058 -0.013966967085433175 0.0 -0.008490132642794801 0.0 0.0
0.023222659176559367 -0.02046990327636421 0.0 -0.01134746628777186 0.0 0.0
0.030869540119038155 -0.0279025694789713 0.0 -0.014188667276838991 0.0 0.0
0.039399890933238875 -0.03620544308377138 0.0 -0.016988642067342036 0.0 0.0
0.04881287412316237 -0.045401846529541726 0.0 -0.01980991805680445 0.0 0.0
0.05908799994937573 -0.05548342877896619 0.0 -0.02261777785836464 0.0 0.0
0.0701024564080327 -0.06633705087773788 0.0 -0.025186929816410394 0.0 0.0
0.08158869174650918 -0.07770303660702199 0.0 -0.027154154842248028 0.0 0.0
0.09307789811273862 -0.08912757015830151 0.0 -0.027923580478529712 0.0 0.0
0.1037736080271218 -0.09985808538099414 0.0 -0.0262713561241303 0.0 0.0
0.11252475286268235 -0.10873022879126551 0.0 -0.0203398321077054 0.0 0.0
0.11625110854203466 -0.11439765394970317 0.0 2.6734690850016563e-14 0.0 0.0
0.11252475286266396 -0.10873022879124583 0.0 0.020339832107764952 0.0 0.0
0.10377360802708947 -0.09985808538096752 0.0 0.02627135612418801 0.0 0.0
0.09307789811269707 -0.08912757015825619 0.0 0.02792358047856614 0.0 0.0
0.08158869174646084 -0.07770303660696937 0.0 0.027154154842252677 0.0 0.0
0.0701024564079795 -0.06633705087768448 0.0 0.025186929816401346 0.0 0.0
0.059087999949322845 -0.055483428778911395 0.0 0.022617777858350816 0.0 0.0
0.04881287412311095 -0.04540184652949141 0.0 0.01980991805679355 0.0 0.0
0.03939989093318883 -0.03620544308372276 0.0 0.01698864206732759 0.0 0.0
0.030869540118991914 -0.027902569478922445 0.0 0.01418866727681839 0.0 0.0
0.02322265917651942 -0.020469903276321835 0.0 0.011347466287749103 0.0 0.0
0.016522847612975202 -0.013966967085402938 0.0 0.008490132642774931 0.0 0.0
0.010920422516825045 -0.008572825050419557 0.0 0.005795735151561516 0.0 0.0
0.006623775610289397 -0.004551994757289724 0.0 0.0035846033005058463 0.0 0.0
0.0037526329487097172 -0.0020876670596598934 0.0 0.0021984352739712145 0.0 0.0
0.0021523820208821536 -0.0009579139359646546 0.0 0.0015828624080816004 0.0 0.0
0.0013736158163993996 -0.0005608641068704953 0.0 0.0014579563484251985 0.0 0.0
0.0008754853640401282 -0.00030914754964915406 0.0 0.0013960769260675386 0.0 0.0
0.0004522997186544513 -7.153080232676843e-05 0.0 0.0015452394309011708 0.0 0.0
0.0017211894357249441 -0.0005199478123493458 0.0 0.004310075650132652 0.0 0.0
0.0031716531303409776 -0.008909633503954567 0.0 0.0032108168098213237 0.0 0.0
0.002332823756830532 -0.007017595785375376 0.0 -0.0025985787906500865 0.0 0.0
0.0012623537382690944 -0.0004393898225539424 0.0 -0.0037925385340862455 0.0 0.0
0.0003216246923962294 -6.781471025704689e-05 0.0 -0.00185553848102214 0.0 0.0
0.0006538759517493027 -0.00020205109008339186 0.0 -0.0016875127459421567 0.0 0.0
0.0010728482251350093 -0.00043293529088540313 0.0 -0.0017513906311939303 0.0 0.0
0.0016570961442533944 -0.000713492901029341 0.0 -0.0018690566442066694 0.0 0.0
0.0028223866605762444 -0.001438417260204606 0.0 -0.002358917914364487 0.0 0.0
0.005008830464934122 -0.003188252331541403 0.0 -0.0035993541782987793 0.0 0.0
0.008404510113345795 -0.006276956915158876 0.0 -0.00566498506135929 0.0 0.0
0.012928653960481642 -0.01059543220693811 0.0 -0.008350208393872906 0.0 0.0
0.018351898366316316 -0.01583540632999107 0.0 -0.011241807100895996 0.0 0.0
0.02450127812876084 -0.02179182596606126 0.0 -0.014113584870360752 0.0 0.0
0.03132759392669314 -0.028413352513199458 0.0 -0.016927576841166487 0.0 0.0
0.03885625165829628 -0.03574423338974869 0.0 -0.01975088157584359 0.0 0.0
0.047110875774565866 -0.0438215392955545 0.0 -0.022559646909016552 0.0 0.0
0.056040135451050424 -0.05260333756716125 0.0 -0.025158653842461853 0.0 0.0
0.06548683826472966 -0.06191746501073479 0.0 -0.027194645662270242 0.0 0.0
0.07519414893350478 -0.07150807860315497 0.0 -0.028208829567969128 0.0 0.0
0.08470721772789602 -0.08099236867488029 0.0 -0.02706267090647262 0.0 0.0
0.09315497530639856 -0.08954303625984802 0.0 -0.02156198728221163 0.0 0.0
0.09697078821525357 -0.09583744991854469 0.0 2.4169034829046865e-14 0.0 0.0
0.0931549753063835 -0.08954303625983338 0.0 0.02156198728226983 0.0 0.0
0.0847072177278696 -0.08099236867485951 0.0 0.02706267090653163 0.0 0.0
0.07519414893347073 -0.07150807860312475 0.0 0.028208829568007826 0.0 0.0
0.06548683826468979 -0.06191746501069599 0.0 0.02719464566227335 0.0 0.0
0.05604013545100671 -0.0526033375671127 0.0 0.025158653842450102 0.0 0.0
0.04711087577452343 -0.0438215392955202 0.0 0.022559646909001873 0.0 0.0
0.03885625165825602 -0.035744233389711215 0.0 0.01975088157583331 0.0 0.0
0.031327593926654115 -0.02841335251316151 0.0 0.016927576841155628 0.0 0.0
0.024501278128724324 -0.021791825966027613 0.0 0.014113584870343698 0.0 0.0
0.018351898366284283 -0.015835406329959053 0.0 0.011241807100876038 0.0 0.0
0.012928653960455344 -0.010595432206911991 0.0 0.008350208393853755 0.0 0.0
0.008404510113325745 -0.006276956915138374 0.0 0.005664985061345684 0.0 0.0
0.00500883046492159 -0.0031882523315302494 0.0 0.003599354178289455 0.0 0.0
0.0028223866605700007 -0.0014384172602031795 0.0 0.002358917914360278 0.0 0.0
0.0016570961442511566 -0.0007134929010287044 0.0 0.001869056644204128 0.0 0.0
0.0010728482251344403 -0.0004329352908847314 0.0 0.0017513906311924796 0.0 0.0
0.0006538759517488344 -0.00020205109008215028 0.0 0.0016875127459401507 0.0 0.0
0.0003216246923958846 -6.781471025660156e-05 0.0 0.0018555384810192833 0.0 0.0
0.0012623537382659247 -0.00043938982255233727 0.0 0.0037925385340784098 0.0 0.0
0.0023328237568243093 -0.007017595785361733 0.0 0.002598578790643484 0.0 0.0
0.001666898065174467 -0.005427225899301322 0.0 -0.0021207888674042675 0.0 0.0
0.000899039027953645 -0.0003793502646735579 0.0 -0.0033258359240772688 0.0 0.0
0.000209055430176531 -6.257709641992385e-05 0.0 -0.0020910429829017357 0.0 0.0
0.0004432467906891871 -0.00010670314211405537 0.0 -0.0019381211943829968 0.0 0.0
0.0007796139177665858 -0.000300788208833561 0.0 -0.0020004838271149854 0.0 0.0
0.00121187245263671 -0.0005172837388590842 0.0 -0.0021507444894614145 0.0 0.0
0.001996823059903621 -0.0009391607540353702 0.0 -0.002490106437131254 0.0 0.0
0.0035264388570487998 -0.0020360762517400884 0.0 -0.003462131867838722 0.0 0.0
0.006015916066858563 -0.0041752416705932325 0.0 -0.005197313015789111 0.0 0.0
0.009420617917881869 -0.007357432757992589 0.0 -0.0075710046305117774 0.0 0.0
0.013540215049759448 -0.01130035802239486 0.0 -0.010264445631669644 0.0 0.0
0.01819267896319105 -0.015774935162043167 0.0 -0.012976963298919198 0.0 0.0
0.02332181005962325 -0.02072112515173674 0.0 -0.0156312061693404 0.0 0.0
0.028966126912127396 -0.02619185650935742 0.0 -0.018271328152756342 0.0 0.0
0.03519334610162252 -0.032258214673753234 0.0 -0.02090372712362101 0.0 0.0
0.04202010351865408 -0.03894714647829661 0.0 -0.023371457283596065 0.0 0.0
0.04937342657968367 -0.04617437981217741 0.0 -0.025343897967802276 0.0 0.0
0.057186278875161894 -0.05382273481822466 0.0 -0.026458576328314498 0.0 0.0
0.06538582156067826 -0.06189224323647036 0.0 -0.02603902804487842 0.0 0.0
0.07349875124067354 -0.0700647998511453 0.0 -0.021869703700828684 0.0 0.0
0.07743135539471474 -0.07712359275356888 0.0 2.065708715193182e-14 0.0 0.0
0.07349875124066235 -0.07006479985113331 0.0 0.021869703700883224 0.0 0.0
0.06538582156065754 -0.06189224323645148 0.0 0.02603902804493495 0.0 0.0
0.05718627887513515 -0.05382273481820157 0.0 0.026458576328349755 0.0 0.0
0.049373426579652234 -0.046174379812148135 0.0 0.025343897967804948 0.0 0.0
0.04202010351862058 -0.03894714647826441 0.0 0.023371457283583693 0.0 0.0
0.03519334610159052 -0.03225821467372609 0.0 0.02090372712360832 0.0 0.0
0.028966126912098274 -0.02619185650932736 0.0 0.018271328152747224 0.0 0.0
0.023321810059595143 -0.02072112515171046 0.0 0.01563120616932874 0.0 0.0
0.018192678963164226 -0.015774935162022805 0.0 0.012976963298899802 0.0 0.0
0.013540215049735554 -0.011300358022374588 0.0 0.01026444563164901 0.0 0.0
0.009420617917862481 -0.0073574327579760766 0.0 0.0075710046304918 0.0 0.0
0.006015916066844551 -0.00417524167058182 0.0 0.005197313015778337 0.0 0.0
0.0035264388570401778 -0.002036076251730678 0.0 0.003462131867832733 0.0 0.0
0.0019968230598996616 -0.0009391607540339408 0.0 0.0024901064371270153 0.0 0.0
0.0012118724526350721 -0.000517283738859206 0.0 0.002150744489459794 0.0 0.0
0.0007796139177657908 -0.0003007882088324642 0.0 0.0020004838271135625 0.0 0.0
0.00044324679068891593 -0.0001067031421138551 0.0 0.0019381211943809646 0.0 0.0
0.00020905543017638102 -6.257709641871602e-05 0.0 0.002091042982898538 0.0 0.0
0.0008990390279512059 -0.0003793502646733804 0.0 0.0033258359240708867 0.0 0.0
0.0016668980651696696 -0.005427225899290349 0.0 0.0021207888674001528 0.0 0.0
0.0011604853113525912 -0.004130766273675057 0.0 -0.0018096220627731524 0.0 0.0
0.0006130236753399877 -0.00034128045626610206 0.0 -0.0029125410301201046 0.0 0.0
9.85322239192111e-05 -4.445665149093102e-05 0.0 -0.0022563124902259418 0.0 0.0
0.00024038092686189436 -2.037714334349433e-05 0.0 -0.0021366165661152355 0.0 0.0
0.00048609626835683707 -0.00016444927128983543 0.0 -0.0021951319005573786 0.0 0.0
0.0007926793309685368 -0.00033463672935540243 0.0 -0.002392852854238525 0.0 0.0
0.0012723716825344337 -0.0005719268092018608 0.0 -0.0026615879620053864 0.0 0.0
0.0021996154987479113 -0.00113457133589807 0.0 -0.003252351512791285 0.0 0.0
0.0037965357778612114 -0.0023636003025346445 0.0 -0.004474201700404433 0.0 0.0
0.0060615261100054885 -0.004367124870247493 0.0 -0.0062653438894153205 0.0 0.0
0.008841020355872994 -0.006956908035560892 0.0 -0.008455870003461428 0.0 0.0
0.011977885646508216 -0.009925692757058477 0.0 -0.01076313084819139 0.0 0.0
0.015412515858756418 -0.013194333283292092 0.0 -0.013083086964750473 0.0 0.0
0.019181679675366808 -0.016814132533837647 0.0 -0.015386123481543102 0.0 0.0
0.023372651220241226 -0.02086463674404944 0.0 -0.017668264878965383 0.0 0.0
0.028072464240954085 -0.025433235462258213 0.0 -0.019869243634014953 0.0 0.0
0.03330814717333592 -0.030545299352005555 0.0 -0.021725875438637753 0.0 0.0
0.0391052020229505 -0.03617860983155303 0.0 -0.022822889352316335 0.0 0.0
0.04572845929628478 -0.042555211044340575 0.0 -0.022906289652540733 0.0 0.0
0.05333469126854722 -0.050071349537535066 0.0 -0.020868600723134487 0.0 0.0
0.0573651517668213 -0.05800221647186629 0.0 1.8263168755083825e-14 0.0 0.0
0.053334691268539826 -0.05007134953752395 0.0 0.02086860072318279 0.0 0.0
0.045728459296270146 -0.04255521104432601 0.0 0.02290628965259296 0.0 0.0
0.0391052020229311 -0.03617860983153409 0.0 0.022822889352343764 0.0 0.0
0.033308147173313686 -0.030545299351985057 0.0 0.021725875438633913 0.0 0.0
0.028072464240931606 -0.02543323546224245 0.0 0.01986924363399947 0.0 0.0
0.023372651220220815 -0.02086463674402802 0.0 0.017668264878953573 0.0 0.0
0.019181679675348607 -0.016814132533814464 0.0 0.0153861234815359 0.0 0.0
0.015412515858738856 -0.013194333283284357 0.0 0.01308308696473995 0.0 0.0
0.011977885646490839 -0.009925692757040581 0.0 0.010763130848175382 0.0 0.0
0.008841020355857161 -0.0069569080355475115 0.0 0.008455870003443269 0.0 0.0
0.006061526109993558 -0.004367124870234061 0.0 0.006265343889399065 0.0 0.0
0.003796535777852862 -0.002363600302529546 0.0 0.004474201700395642 0.0 0.0
0.0021996154987424933 -0.0011345713358905773 0.0 0.003252351512785501 0.0 0.0
0.0012723716825320023 -0.0005719268092000469 0.0 0.0026615879620027756 0.0 0.0
0.0007926793309675562 -0.00033463672935517237 0.0 0.0023928528542361874 0.0 0.0
0.00048609626835629215 -0.0001644492712887089 0.0 0.0021951319005558407 0.0 0.0
0.00024038092686167465 -2.0377143343449708e-05 0.0 0.0021366165661123736 0.0 0.0
9.853222391891421e-05 -4.445665149040021e-05 0.0 0.0022563124902241637 0.0 0.0
0.0006130236753382911 -0.0003412804562660422 0.0 0.002912541030115071 0.0 0.0
0.0011604853113496673 -0.004130766273666863 0.0 0.0018096220627715506 0.0 0.0
0.0007990511963410143 -0.0031093112509086585 0.0 -0.0016197347049902435 0.0 0.0
0.0003933999450765534 -0.00032936947680065184 0.0 -0.0025849235189149547 0.0 0.0
-1.628544463022452e-05 -8.667770081633705e-06 0.0 -0.002357993380156289 0.0 0.0
4.296813475449844e-05 5.9648771548518063e-05 0.0 -0.002278258135549793 0.0 0.0
0.0001919490112175332 -2.8076133402571833e-05 0.0 -0.0023342502735869005 0.0 0.0
0.000375893934576991 -0.00014568428966639724 0.0 -0.0025540133205140935 0.0 0.0
0.0006210696631828672 -0.0002735387833000244 0.0 -0.0028421478588561634 0.0 0.0
0.0010401257055264882 -0.0004910721317176487 0.0 -0.0031687464098801863 0.0 0.0
0.0017889397913078374 -0.000977459863495441 0.0 -0.0037414282055291213 0.0 0.0
0.00291068577548856 -0.00184917201643247 0.0 -0.00473745261323305 0.0 0.0
0.004317646475983651 -0.0030423539817201533 0.0 -0.006166863931746204 0.0 0.0
0.005905419686042796 -0.004452128885511281 0.0 -0.007878958092580223 0.0 0.0
0.007629575353582973 -0.006024348826197853 0.0 -0.009726256907399585 0.0 0.0
0.009527250778353117 -0.0077886385509493405 0.0 -0.01164475704786998 0.0 0.0
0.011678547508430672 -0.009813826272571675 0.0 -0.013621877539073535 0.0 0.0
0.014214616325857316 -0.012221286906780092 0.0 -0.015633553702638404 0.0 0.0
0.01729490005752621 -0.015166087155566221 0.0 -0.017499630612907147 0.0 0.0
0.021051967188471934 -0.018782227000734675 0.0 -0.018725114725981245 0.0 0.0
0.025794489560891327 -0.02327282203004668 0.0 -0.01881612963574225 0.0 0.0
0.032418525240622886 -0.02946794297748561 0.0 -0.018221507609408844 0.0 0.0
0.03636099027821534 -0.03813972622465522 0.0 1.468616894761965e-14 0.0 0.0
0.03241852524061956 -0.029467942977483806 0.0 0.01822150760945033 0.0 0.0
0.025794489560883056 -0.023272822030033908 0.0 0.018816129635780145 0.0 0.0
0.021051967188460186 -0.01878222700072453 0.0 0.018725114725997683 0.0 0.0
0.017294900057514096 -0.0151660871555604 0.0 0.017499630612898682 0.0 0.0
0.014214616325846913 -0.012221286906771408 0.0 0.015633553702624974 0.0 0.0
0.011678547508422074 -0.009813826272557053 0.0 0.013621877539066102 0.0 0.0
0.009527250778345809 -0.007788638550937891 0.0 0.011644757047864916 0.0 0.0
0.0076295753535755755 -0.006024348826195001 0.0 0.009726256907388839 0.0 0.0
0.005905419686035189 -0.004452128885498911 0.0 0.00787895809256937 0.0 0.0
0.004317646475976597 -0.003042353981723746 0.0 0.006166863931733068 0.0 0.0
0.002910685775483219 -0.0018491720164253097 0.0 0.004737452613223673 0.0 0.0
0.0017889397913045777 -0.0009774598634961832 0.0 0.003741428205523663 0.0 0.0
0.0010401257055247851 -0.0004910721317183664 0.0 0.0031687464098762714 0.0 0.0
0.000621069663182223 -0.00027353878330171156 0.0 0.002842147858853672 0.0 0.0
0.00037589393457655934 -0.00014568428966634572 0.0 0.0025540133205109927 0.0 0.0
0.00019194901121711414 -2.807613340246081e-05 0.0 0.0023342502735848084 0.0 0.0
4.296813475452889e-05 5.964877154904343e-05 0.0 0.002278258135548069 0.0 0.0
-1.6285444630102977e-05 -8.667770081032513e-06 0.0 0.0023579933801533524 0.0 0.0
0.00039339994507550397 -0.0003293694768008175 0.0 0.0025849235189122897 0.0 0.0
0.0007990511963389851 -0.003109311250903041 0.0 0.0016197347049891329 0.0 0.0
0.0005446587388282167 -0.002338558270006379 0.0 -0.001513972776562089 0.0 0.0
0.00022532174261236503 -0.00033127425794518935 0.0 -0.0023560873860148644 0.0 0.0
-0.00013192869101616496 3.8224530942642715e-05 0.0 -0.0024037506680963153 0.0 0.0
-0.00015012042914641971 0.0001363650877070294 0.0 -0.0023610612177396434 0.0 0.0
-9.847085351037202e-05 0.00010544427530663518 0.0 -0.0024123756318021653 0.0 0.0
-4.595153734636011e-05 4.8266261584281296e-05 0.0 -0.002621932023039643 0.0 0.0
-1.696747604083822e-05 1.2782393269180388e-05 0.0 -0.002930688669282217 0.0 0.0
-5.579226454073452e-06 3.2924808834333493e-06 0.0 -0.0031942203568088657 0.0 0.0
-1.2947778124861498e-06 6.072961442540198e-07 0.0 -0.003415855314393673 0.0 0.0
1.9837897398915358e-07 -1.0271512407300249e-07 0.0 -0.003958849220852904 0.0 0.0
-9.870126366405768e-07 -1.755849903128004e-08 0.0 -0.004949334284396052 0.0 0.0
-1.0547952116834558e-05 9.543129474108016e-06 0.0 -0.006349198626120324 0.0 0.0
-3.0865846229102996e-05 2.9092865186596667e-05 0.0 -0.007949009140608075 0.0 0.0
-4.0500779933638244e-05 4.4624698678888126e-05 0.0 -0.009688970887206074 0.0 0.0
3.7907231634160855e-05 -9.240150562173392e-06 0.0 -0.011573138210877656 0.0 0.0
0.0003782894384990697 -0.000286232093119753 0.0 -0.013585183071495706 0.0 0.0
0.0012739236550597065 -0.0010500431810810198 0.0 -0.01564086386757624 0.0 0.0
0.0030576232094994245 -0.0026345388761010416 0.0 -0.01751324774089987 0.0 0.0
0.005943202845394046 -0.0051496493942146905 0.0 -0.018883272121172072 0.0 0.0
0.010840386396785449 -0.009147363235925556 0.0 -0.019840186524781193 0.0 0.0
0.01400454159423408 -0.01832256652481728 0.0 1.2667818183320634e-14 0.0 0.0
0.01084038639678534 -0.009147363235928005 0.0 0.019840186524807228 0.0 0.0
0.005943202845391681 -0.005149649394210163 0.0 0.01888327212119014 0.0 0.0
0.0030576232094971234 -0.00263453887610028 0.0 0.01751324774090411 0.0 0.0
0.0012739236550600294 -0.0010500431810869086 0.0 0.015640863867566353 0.0 0.0
0.00037828943850136334 -0.00028623209311616737 0.0 0.013585183071485561 0.0 0.0
3.790723163667035e-05 -9.240150561663817e-06 0.0 0.011573138210869287 0.0 0.0
-4.050077992986663e-05 4.462469867444127e-05 0.0 0.009688970887198417 0.0 0.0
-3.086584622521125e-05 2.9092865185892695e-05 0.0 0.00794900914059618 0.0 0.0
-1.0547952113675843e-05 9.54312947243455e-06 0.0 0.006349198626108429 0.0 0.0
-9.870126341336304e-07 -1.7558505357274457e-08 0.0 0.0049493342843868905 0.0 0.0
1.9837897593236913e-07 -1.0271512552411223e-07 0.0 0.003958849220849025 0.0 0.0
-1.2947778113353234e-06 6.072961433685993e-07 0.0 0.0034158553143915143 0.0 0.0
-5.579226453854497e-06 3.2924808800481923e-06 0.0 0.00319422035680695 0.0 0.0
-1.6967476040540743e-05 1.2782393268606357e-05 0.0 0.0029306886692796446 0.0 0.0
-4.5951537346090056e-05 4.826626158429215e-05 0.0 0.0026219320230377336 0.0 0.0
-9.847085351039235e-05 0.00010544427530675168 0.0 0.0024123756317995793 0.0 0.0
-0.00015012042914644275 0.00013636508770692235 0.0 0.0023610612177387747 0.0 0.0
-0.0001319286910161853 3.8224530943657e-05 0.0 0.0024037506680935684 0.0 0.0
0.00022532174261194547 -0.00033127425794629545 0.0 0.002356087386014122 0.0 0.0
0.0005446587388273366 -0.00233855827000296 0.0 0.0015139727765615067 0.0 0.0
0.00036901151487792126 -0.0017782426903501132 0.0 -0.0014527397742682704 0.0 0.0
0.00010016807742110512 -0.0003236575633115605 0.0 -0.002185589128165147 0.0 0.0
-0.000241847653110208 8.532646450543972e-05 0.0 -0.0023996141103532482 0.0 0.0
-0.00033761495267670144 0.00021128814404779202 0.0 -0.0023826988145087586 0.0 0.0
-0.0003827461317149671 0.00023384881551342723 0.0 -0.002420354595249025 0.0 0.0
-0.0004642954036885615 0.0002409173436232427 0.0 -0.0025998054864204813 0.0 0.0
-0.0006542275004480132 0.0002995017808974864 0.0 -0.002868342896072413 0.0 0.0
-0.0010510311700073927 0.0004984420024747368 0.0 -0.003184230483878965 0.0 0.0
-0.0017908847912214195 0.000978361369573286 0.0 -0.003747952963509853 0.0 0.0
-0.0029093954721189008 0.001848056959893569 0.0 -0.004736604439801824 0.0 0.0
-0.00432074391402473 0.0030440839216431485 0.0 -0.006164177965649354 0.0 0.0
-0.005929107015063384 0.004472946685054505 0.0 -0.007882187426650466 0.0 0.0
-0.0076913865967721436 0.006083703573951009 0.0 -0.00972321648307774 0.0 0.0
-0.009602854476285668 0.007876621907303366 0.0 -0.011629065286252427 0.0 0.0
-0.011591850127926224 0.009788942871058763 0.0 -0.013624289516009788 0.0 0.0
-0.01346038140756281 0.011634968280323097 0.0 -0.015781538440524406 0.0 0.0
-0.014855076577939313 0.013068945967828104 0.0 -0.018146434366272824 0.0 0.0
-0.01534004451546643 0.013624552104826194 0.0 -0.020819580418755416 0.0 0.0
-0.014444638709653311 0.012983305566928265 0.0 -0.02374743088541292 0.0 0.0
-0.010335312390819005 0.01003958393544062 0.0 -0.02513818102252754 0.0 0.0
-0.007081944961793589 0.00012289396704015564 0.0 1.533755761284894e-14 0.0 0.0
-0.01033531239081966 0.010039583935435534 0.0 0.02513818102255183 0.0 0.0
-0.014444638709648606 0.012983305566922839 0.0 0.02374743088543193 0.0 0.0
-0.01534004451545564 0.013624552104811245 0.0 0.020819580418759757 0.0 0.0
-0.014855076577925508 0.013068945967812114 0.0 0.018146434366265948 0.0 0.0
-0.013460381407548745 0.0116349682803081 0.0 0.015781538440509973 0.0 0.0
-0.011591850127912797 0.009788942871044167 0.0 0.013624289515998051 0.0 0.0
-0.009602854476271813 0.007876621907289843 0.0 0.011629065286242073 0.0 0.0
-0.007691386596757542 0.00608370357393558 0.0 0.009723216483065567 0.0 0.0
-0.005929107015048878 0.004472946685047973 0.0 0.007882187426632053 0.0 0.0
-0.004320743914012546 0.0030440839216337194 0.0 0.006164177965634924 0.0 0.0
-0.0029093954721102324 0.0018480569598852393 0.0 0.004736604439793127 0.0 0.0
-0.001790884791216145 0.0009783613695690265 0.0 0.003747952963507697 0.0 0.0
-0.001051031170004331 0.0004984420024757091 0.0 0.0031842304838763996 0.0 0.0
-0.0006542275004463494 0.00029950178089728036 0.0 0.0028683428960698805 0.0 0.0
-0.000464295403687682 0.0002409173436267417 0.0 0.0025998054864184855 0.0 0.0
-0.00038274613171431307 0.00023384881551227342 0.0 0.0024203545952464728 0.0 0.0
-0.0003376149526762518 0.0002112881440472409 0.0 0.002382698814507809 0.0 0.0
-0.00024184765311012333 8.532646450609514e-05 0.0 0.0023996141103514715 0.0 0.0
0.0001001680774207656 -0.0003236575633123082 0.0 0.0021855891281629698 0.0 0.0
0.00036901151487735595 -0.001778242690347746 0.0 0.0014527397742678493 0.0 0.0
0.00024972504921423746 -0.0013460984213386042 0.0 -0.0013568168153982878 0.0 0.0
7.148937059505762e-06 -0.0002984459919482814 0.0 -0.0020254519467373 0.0 0.0
-0.00034398568234179206 0.0001282686652658369 0.0 -0.0023449931041881855 0.0 0.0
-0.000517009047285024 0.00028328760341916247 0.0 -0.00234185041369472 0.0 0.0
-0.0006583832454646058 0.0003553579099984802 0.0 -0.0023564344196380857 0.0 0.0
-0.0008723003998888667 0.00042603258269340396 0.0 -0.0024834119062123986 0.0 0.0
-0.0013037600356965193 0.0006007635936259799 0.0 -0.0027160505620827022 0.0 0.0
-0.002208455043390947 0.0011418287998367811 0.0 -0.00327991086756993 0.0 0.0
-0.0037957641617833524 0.002362157731733172 0.0 -0.0044792396608073 0.0 0.0
-0.006059641736075751 0.0043652511803783075 0.0 -0.006262114080211146 0.0 0.0
-0.008845872212917265 0.006961759333445637 0.0 -0.008455523335658932 0.0 0.0
-0.012000482668973333 0.00994717787598715 0.0 -0.010758953904633797 0.0 0.0
-0.015465302062328008 0.013247049922681617 0.0 -0.013042092389692376 0.0 0.0
-0.019241173187985457 0.016886730785324114 0.0 -0.015285831842112591 0.0 0.0
-0.02327510150592519 0.02082500098553478 0.0 -0.017598056119595373 0.0 0.0
-0.027350892683614778 0.024864142779935757 0.0 -0.020193360015111586 0.0 0.0
-0.031055744903025727 0.028587475170964154 0.0 -0.02329689537825904 0.0 0.0
-0.03380079762947527 0.031397713488441815 0.0 -0.027016192178026515 0.0 0.0
-0.03448052360324024 0.0323550693249935 0.0 -0.03063633991342927 0.0 0.0
-0.030828144685047444 0.029290789008117192 0.0 -0.03153777463993505 0.0 0.0
-0.0275443465131237 0.017466660697144257 0.0 1.9204256240801243e-14 0.0 0.0
-0.03082814468504523 0.02929078900811563 0.0 0.03153777463997911 0.0 0.0
-0.03448052360322968 0.032355069324987114 0.0 0.030636339913467765 0.0 0.0
-0.03380079762945487 0.03139771348842068 0.0 0.027016192178040674 0.0 0.0
-0.031055744903000393 0.02858747517094233 0.0 0.02329689537825144 0.0 0.0
-0.02735089268358866 0.024864142779905656 0.0 0.02019336001509627 0.0 0.0
-0.02327510150590027 0.020825000985511186 0.0 0.01759805611958252 0.0 0.0
-0.019241173187960668 0.016886730785304175 0.0 0.015285831842098495 0.0 0.0
-0.015465302062302955 0.013247049922653732 0.0 0.013042092389679766 0.0 0.0
-0.012000482668949316 0.009947177875964488 0.0 0.010758953904613908 0.0 0.0
-0.008845872212895537 0.006961759333421977 0.0 0.008455523335634846 0.0 0.0
-0.006059641736059346 0.004365251180359613 0.0 0.006262114080194695 0.0 0.0
-0.0037957641617730187 0.002362157731722865 0.0 0.00447923966080022 0.0 0.0
-0.0022084550433849838 0.001141828799836719 0.0 0.003279910867564426 0.0 0.0
-0.0013037600356932439 0.0006007635936239489 0.0 0.0027160505620792788 0.0 0.0
-0.0008723003998874325 0.0004260325826928002 0.0 0.002483411906209758 0.0 0.0
-0.0006583832454639336 0.00035535790999749196 0.0 0.0023564344196358817 0.0 0.0
-0.0005170090472846475 0.00028328760341685236 0.0 0.0023418504136936387 0.0 0.0
-0.00034398568234186145 0.00012826866526671039 0.0 0.002344993104186077 0.0 0.0
7.148937059379544e-06 -0.00029844599194843576 0.0 0.002025451946734896 0.0 0.0
0.00024972504921409527 -0.0013460984213367515 0.0 0.0013568168153977813 0.0 0.0
0.0001564117098742343 -0.000985504599027006 0.0 -0.0012075473249536905 0.0 0.0
-6.927435537884647e-05 -0.00025780818221179377 0.0 -0.0018521222182248344 0.0 0.0
-0.00043807559515781974 0.00016778832076568275 0.0 -0.0022376551573485195 0.0 0.0
-0.0006873198463070088 0.0003506798242165952 0.0 -0.002242057057061196 0.0 0.0
-0.0009224346098500331 0.00046793225020461907 0.0 -0.0022256124375965103 0.0 0.0
-0.0012790539843997289 0.0006044026445479478 0.0 -0.0022812848819190896 0.0 0.0
-0.0020239027349320316 0.0009708405628951037 0.0 -0.002567671244430256 0.0 0.0
-0.0035299493026051286 0.002038114427132797 0.0 -0.0034864224389856502 0.0 0.0
-0.006011781896111405 0.0041704951597123325 0.0 -0.005195497925970501 0.0 0.0
-0.009419882568922384 0.0073569085642858755 0.0 -0.0075673455158095995 0.0 0.0
-0.013546625477587143 0.01130776617130228 0.0 -0.010265608743637045 0.0 0.0
-0.018209031359192794 0.015792097715937762 0.0 -0.012964269825417896 0.0 0.0
-0.02335072619402548 0.020750974623496673 0.0 -0.015549397985124166 0.0 0.0
-0.028988085342756 0.0262227697599273 0.0 -0.018064897683250866 0.0 0.0
-0.035088499498939704 0.03219729221628359 0.0 -0.020699647735229147 0.0 0.0
-0.04143260988219209 0.03848185923806672 0.0 -0.02381395363436515 0.0 0.0
-0.04751839236817803 0.04458602681765442 0.0 -0.027853207452342366 0.0 0.0
-0.05240790579018049 0.04962579851107333 0.0 -0.03277660244414019 0.0 0.0
-0.05443400469976803 0.051987383974956954 0.0 -0.03722788593056995 0.0 0.0
-0.05037494358478198 0.0487910383303487 0.0 -0.038576008039308114 0.0 0.0
-0.04628363759420688 0.034145315425039915 0.0 2.0033454062318157e-14 0.0 0.0
-0.05037494358477665 0.04879103833035235 0.0 0.03857600803935991 0.0 0.0
-0.05443400469975179 0.051987383974944394 0.0 0.03722788593061999 0.0 0.0
-0.052407905790152316 0.049625798511045816 0.0 0.032776602444164055 0.0 0.0
-0.04751839236814329 0.04458602681761851 0.0 0.02785320745233668 0.0 0.0
-0.04143260988215484 0.038481859238029464 0.0 0.023813953634350186 0.0 0.0
-0.03508849949890348 0.032197292216249014 0.0 0.020699647735212004 0.0 0.0
-0.02898808534272046 0.02622276975989638 0.0 0.01806489768323473 0.0 0.0
-0.0233507261939898 0.02075097462346151 0.0 0.015549397985106125 0.0 0.0
-0.018209031359158915 0.015792097715900125 0.0 0.01296426982539585 0.0 0.0
-0.013546625477556659 0.011307766171271197 0.0 0.01026560874361088 0.0 0.0
-0.009419882568898546 0.007356908564260915 0.0 0.007567345515790424 0.0 0.0
-0.006011781896095499 0.004170495159695869 0.0 0.0051954979259589374 0.0 0.0
-0.0035299493025953664 0.0020381144271280696 0.0 0.0034864224389792343 0.0 0.0
-0.0020239027349267897 0.0009708405628953752 0.0 0.002567671244425528 0.0 0.0
-0.001279053984397394 0.0006044026445414779 0.0 0.002281284881917277 0.0 0.0
-0.0009224346098491302 0.0004679322502055128 0.0 0.0022256124375941676 0.0 0.0
-0.0006873198463064286 0.0003506798242157244 0.0 0.0022420570570601322 0.0 0.0
-0.0004380755951571925 0.0001677883207665426 0.0 0.0022376551573469656 0.0 0.0
-6.927435537879974e-05 -0.0002578081822118272 0.0 0.0018521222182245134 0.0 0.0
0.00015641170987376068 -0.0009855045990259219 0.0 0.001207547324951705 0.0 0.0
7.654581143426961e-05 -0.0006833940280544596 0.0 -0.0010353819712891643 0.0 0.0
-0.0001372340386078228 -0.00020416355241951754 0.0 -0.0016531083769327005 0.0 0.0
-0.0005262940966735622 0.00020558923765310347 0.0 -0.0020779033018111103 0.0 0.0
-0.0008482650757557796 0.0004126679369796873 0.0 -0.002085834759989764 0.0 0.0
-0.0011749707030864456 0.0005688265988639401 0.0 -0.0020250009413976576 0.0 0.0
-0.0017079825913008106 0.0007935594257789952 0.0 -0.002025104569070655 0.0 0.0
-0.0028404800136591305 0.0014651281970539524 0.0 -0.0024332989975409947 0.0 0.0
-0.005005111649065457 0.003182345558155172 0.0 -0.003611645860258178 0.0 0.0
-0.008399758792454994 0.00627138655146706 0.0 -0.0056585868316718895 0.0 0.0
-0.012930359824699514 0.01059765759919492 0.0 -0.008347531418711215 0.0 0.0
-0.018358948305607827 0.01584452067145687 0.0 -0.011242916866351193 0.0 0.0
-0.024506456705202802 0.021800648292524358 0.0 -0.014092259989496937 0.0 0.0
-0.031318967057585696 0.02840824324273345 0.0 -0.016814588142252982 0.0 0.0
-0.03881900596816024 0.035710226048191615 0.0 -0.019464731639726163 0.0 0.0
-0.04699878863785672 0.04372842129984515 0.0 -0.022236950698739072 0.0 0.0
-0.05564768844205936 0.05229532932312135 0.0 -0.025606820651777544 0.0 0.0
-0.06411688516703423 0.06081046546380789 0.0 -0.030118120923579864 0.0 0.0
-0.07106260800891989 0.06798838210247965 0.0 -0.035687314128163845 0.0 0.0
-0.07410845112585625 0.07154393719780038 0.0 -0.04089746713057232 0.0 0.0
-0.06925824478560975 0.06768790111883503 0.0 -0.04287142265207208 0.0 0.0
-0.06423537219056517 0.050307122312896996 0.0 2.2070886784852917e-14 0.0 0.0
-0.06925824478559967 0.06768790111882783 0.0 0.0428714226521241 0.0 0.0
-0.0741084511258336 0.0715439371977784 0.0 0.040897467130627405 0.0 0.0
-0.07106260800888489 0.06798838210244339 0.0 0.03568731412819012 0.0 0.0
-0.06411688516699061 0.060810465463762314 0.0 0.030118120923575915 0.0 0.0
-0.05564768844201197 0.05229532932307485 0.0 0.025606820651765158 0.0 0.0
-0.04699878863780968 0.043728421299799744 0.0 0.022236950698721884 0.0 0.0
-0.038819005968113746 0.035710226048145895 0.0 0.019464731639711273 0.0 0.0
-0.03131896705753948 0.028408243242687987 0.0 0.016814588142234233 0.0 0.0
-0.024506456705159496 0.02180064829248124 0.0 0.014092259989475157 0.0 0.0
-0.01835894830556954 0.01584452067141849 0.0 0.011242916866325343 0.0 0.0
-0.012930359824668522 0.010597657599166551 0.0 0.008347531418689855 0.0 0.0
-0.008399758792433142 0.006271386551445386 0.0 0.005658586831656836 0.0 0.0
-0.005005111649051487 0.003182345558142556 0.0 0.0036116458602497865 0.0 0.0
-0.002840480013651331 0.0014651281970497177 0.0 0.002433298997535083 0.0 0.0
-0.0017079825912975398 0.0007935594257771482 0.0 0.0020251045690681782 0.0 0.0
-0.001174970703085386 0.0005688265988636477 0.0 0.002025000941395949 0.0 0.0
-0.000848265075755361 0.00041266793698005157 0.0 0.002085834759989243 0.0 0.0
-0.0005262940966730851 0.00020558923765265117 0.0 0.0020779033018101145 0.0 0.0
-0.00013723403860763894 -0.00020416355241972042 0.0 0.001653108376931326 0.0 0.0
7.65458114340323e-05 -0.000683394028053776 0.0 0.0010353819712863098 0.0 0.0
7.0287569470111e-06 -0.00043611167206270517 0.0 -0.0008546299030776916 0.0 0.0
-0.00019937149691164042 -0.0001416521524834409 0.0 -0.0014268730909290533 0.0 0.0
-0.0006100637043324489 0.0002432280161944792 0.0 -0.001864773822063117 0.0 0.0
-0.0009987659968401026 0.00046848125034638943 0.0 -0.001873029931064024 0.0 0.0
-0.0014242229410789907 0.0006610675522244443 0.0 -0.0017618057295001265 0.0 0.0
-0.0021797323536764668 0.0010231735032961563 0.0 -0.001745248387159741 0.0 0.0
-0.003759635194631532 0.002102007039902015 0.0 -0.0022520286692938145 0.0 0.0
-0.00661720976621453 0.0045420273226752595 0.0 -0.0035865712801269206 0.0 0.0
-0.010917200613378118 0.008569251132664466 0.0 -0.005788024120508453 0.0 0.0
-0.016527155944089735 0.01397211883711345 0.0 -0.00848898518262571 0.0 0.0
-0.02322860031777736 0.020478947297684697 0.0 -0.01134675177783787 0.0 0.0
-0.030859948939560372 0.02789961730219484 0.0 -0.014158132068192084 0.0 0.0
-0.039346658540753726 0.03615970271634709 0.0 -0.016859856442940472 0.0 0.0
-0.04870419200550595 0.04529186510636126 0.0 -0.0195033205903218 0.0 0.0
-0.05895269014275244 0.055340390647891244 0.0 -0.022243545418896195 0.0 0.0
-0.06988072421054468 0.06616287297229766 0.0 -0.025481848966076893 0.0 0.0
-0.08068441239653057 0.07704714702947654 0.0 -0.02984501524590711 0.0 0.0
-0.08958707376699206 0.08629467489205495 0.0 -0.035519638041061195 0.0 0.0
-0.09351128809868095 0.09088710928163253 0.0 -0.04137975647609896 0.0 0.0
-0.08790146548575271 0.08633569171024866 0.0 -0.04540311453800389 0.0 0.0
-0.0820487647892882 0.06652711346661361 0.0 2.2266910537638296e-14 0.0 0.0
-0.08790146548573854 0.08633569171023633 0.0 0.04540311453805654 0.0 0.0
-0.09351128809865174 0.09088710928160396 0.0 0.04137975647615277 0.0 0.0
-0.08958707376694997 0.08629467489201123 0.0 0.03551963804108886 0.0 0.0
-0.0806844123964785 0.07704714702942639 0.0 0.02984501524590602 0.0 0.0
-0.06988072421048784 0.06616287297224722 0.0 0.025481848966065705 0.0 0.0
-0.058952690142694664 0.05534039064783591 0.0 0.022243545418881357 0.0 0.0
-0.04870419200544898 0.045291865106308456 0.0 0.019503320590307273 0.0 0.0
-0.0393466585406974 0.036159702716287524 0.0 0.01685985644292097 0.0 0.0
-0.030859948939507054 0.027899617302141973 0.0 0.014158132068168985 0.0 0.0
-0.02322860031773051 0.02047894729763695 0.0 0.01134675177781238 0.0 0.0
-0.01652715594405204 0.013972118837077895 0.0 0.00848898518260537 0.0 0.0
-0.01091720061335077 0.008569251132638756 0.0 0.005788024120492847 0.0 0.0
-0.0066172097661957915 0.004542027322655997 0.0 0.0035865712801184365 0.0 0.0
-0.0037596351946209616 0.0021020070398938325 0.0 0.002252028669288158 0.0 0.0
-0.0021797323536722245 0.0010231735032952738 0.0 0.0017452483871561344 0.0 0.0
-0.0014242229410775208 0.0006610675522230902 0.0 0.0017618057294988688 0.0 0.0
-0.0009987659968394083 0.00046848125034607664 0.0 0.0018730299310619736 0.0 0.0
-0.0006100637043323582 0.00024322801619477578 0.0 0.001864773822062701 0.0 0.0
-0.00019937149691157046 -0.00014165215248391106 0.0 0.0014268730909280933 0.0 0.0
7.028756947223708e-06 -0.00043611167206226585 0.0 0.0008546299030747098 0.0 0.0
-5.178286294134509e-05 -0.00024243995832866192 0.0 -0.0006704699256906367 0.0 0.0
-0.000255274194556441 -7.526095956998876e-05 0.0 -0.001175545266146239 0.0 0.0
-0.0006897988922988251 0.00028113662549781525 0.0 -0.001598627475440224 0.0 0.0
-0.0011420435109864436 0.0005178081059361607 0.0 -0.0016029583419751331 0.0 0.0
-0.0016831223333287366 0.0007530921169357923 0.0 -0.0014463583674262396 0.0 0.0
-0.002706199231175895 0.0013165736651205243 0.0 -0.001436582557518631 0.0 0.0
-0.004780618622860868 0.0028901709192057133 0.0 -0.0019972650449696545 0.0 0.0
-0.008342968316450074 0.006077151454475469 0.0 -0.0033936707119681135 0.0 0.0
-0.013507055864894275 0.010975590253268625 0.0 -0.0054726186264896365 0.0 0.0
-0.020159962039007186 0.017411135840596132 0.0 -0.007954977109798715 0.0 0.0
-0.02812699182049329 0.025163496525688167 0.0 -0.010600452864769976 0.0 0.0
-0.037238921288732255 0.03404505496543206 0.0 -0.013200987562966103 0.0 0.0
-0.04740605068678252 0.043966810445964684 0.0 -0.015716847403793335 0.0 0.0
-0.05862241889975181 0.05493459458942308 0.0 -0.018212917409166855 0.0 0.0
-0.07088996050762604 0.06697469484957676 0.0 -0.02075794081710708 0.0 0.0
-0.08400070857200455 0.07994999272183798 0.0 -0.023534658343692613 0.0 0.0
-0.09705002472047243 0.09309448716326213 0.0 -0.02712248091253143 0.0 0.0
-0.10786483821616831 0.10436257639301122 0.0 -0.0322765326855652 0.0 0.0
-0.11275925346023463 0.11007762807037745 0.0 -0.038980347341664334 0.0 0.0
-0.10666915731126646 0.10513429304191618 0.0 -0.04659103198071358 0.0 0.0
-0.10016744647927006 0.08323798481533558 0.0 2.172220736618158e-14 0.0 0.0
-0.10666915731124862 0.10513429304190068 0.0 0.046591031980766 0.0 0.0
-0.11275925346019935 0.1100776280703414 0.0 0.038980347341711054 0.0 0.0
-0.1078648382161186 0.10436257639296259 0.0 0.03227653268559248 0.0 0.0
-0.0970500247204115 0.0930944871632016 0.0 0.02712248091253508 0.0 0.0
-0.08400070857193791 0.07994999272177471 0.0 0.023534658343682943 0.0 0.0
-0.0708899605075582 0.06697469484950959 0.0 0.020757940817094485 0.0 0.0
-0.0586224188996846 0.05493459458936071 0.0 0.018212917409151947 0.0 0.0
-0.04740605068671611 0.04396681044589696 0.0 0.01571684740377635 0.0 0.0
-0.037238921288669485 0.03404505496536909 0.0 0.01320098756294673 0.0 0.0
-0.02812699182043854 0.025163496525633825 0.0 0.010600452864746562 0.0 0.0
-0.02015996203896297 0.017411135840548302 0.0 0.007954977109779965 0.0 0.0
-0.013507055864860867 0.010975590253236642 0.0 0.005472618626475702 0.0 0.0
-0.008342968316426926 0.006077151454453889 0.0 0.003393670711958051 0.0 0.0
-0.004780618622847736 0.0028901709191949364 0.0 0.0019972650449638567 0.0 0.0
-0.002706199231169895 0.0013165736651171074 0.0 0.001436582557516017 0.0 0.0
-0.0016831223333268512 0.0007530921169338125 0.0 0.0014463583674256843 0.0 0.0
-0.0011420435109856662 0.0005178081059361513 0.0 0.0016029583419738544 0.0 0.0
-0.0006897988922980187 0.0002811366254977096 0.0 0.0015986274754408957 0.0 0.0
-0.00025527419455621364 -7.526095956989495e-05 0.0 0.0011755452661460803 0.0 0.0
-5.1782862941460185e-05 -0.00024243995832849268 0.0 0.0006704699256888261 0.0 0.0
-9.733124452335451e-05 -0.00010256285245359649 0.0 -0.0004878219496480252 0.0 0.0
-0.0003022035909813166 -1.0459313662759766e-05 0.0 -0.0009020864768869519 0.0 0.0
-0.0007643797271864201 0.00031827503401785773 0.0 -0.0012781039676180107 0.0 0.0
-0.0012819053886056497 0.0005611354041545648 0.0 -0.0012728811707020539 0.0 0.0
-0.0019635436209020102 0.0008588563822450592 0.0 -0.0010814270058855141 0.0 0.0
-0.003301322976205278 0.0016937471126701681 0.0 -0.0010820133225024945 0.0 0.0
-0.005902148407963914 0.003829125720033864 0.0 -0.0016712399074193182 0.0 0.0
-0.010136439022612529 0.007718107995917404 0.0 -0.0029242009460013815 0.0 0.0
-0.016119127795005926 0.013429019727011063 0.0 -0.004666036420418864 0.0 0.0
-0.023801393304572285 0.020875810771117616 0.0 -0.006772871181309571 0.0 0.0
-0.033021586831915764 0.029860767945759266 0.0 -0.009023008221850709 0.0 0.0
-0.04361359416940113 0.04020148543209727 0.0 -0.011238460853189277 0.0 0.0
-0.05547120121852994 0.05179433834612749 0.0 -0.013396591716092927 0.0 0.0
-0.06854240388632356 0.06460668186944574 0.0 -0.015579707886605017 0.0 0.0
-0.0827696730453107 0.07859515910632374 0.0 -0.01780078252084435 0.0 0.0
-0.09790348063490732 0.0935608463423379 0.0 -0.019957253441805118 0.0 0.0
-0.1130241030081662 0.10873949725610169 0.0 -0.02225541620037224 0.0 0.0
-0.12578019773049073 0.12201133296394012 0.0 -0.0260541055348215 0.0 0.0
-0.13198367181120524 0.12921190667856255 0.0 -0.03362467565543805 0.0 0.0
-0.12590470378281315 0.12446169610313498 0.0 -0.04617714196692205 0.0 0.0
-0.1189990867969245 0.10087381316881157 0.0 1.7421827869235074e-14 0.0 0.0
-0.12590470378279164 0.124461696103115 0.0 0.046177141966966526 0.0 0.0
-0.13198367181116377 0.1292119066785131 0.0 0.033624675655478796 0.0 0.0
-0.12578019773043253 0.12201133296388761 0.0 0.026054105534843656 0.0 0.0
-0.1130241030080965 0.10873949725603323 0.0 0.02225541620037315 0.0 0.0
-0.09790348063483138 0.09356084634226147 0.0 0.01995725344180041 0.0 0.0
-0.0827696730452328 0.07859515910624723 0.0 0.017800782520834335 0.0 0.0
-0.068542403886246 0.06460668186937125 0.0 0.01557970788659192 0.0 0.0
-0.055471201218453586 0.051794338346053063 0.0 0.013396591716079237 0.0 0.0
-0.04361359416932907 0.04020148543202595 0.0 0.011238460853171801 0.0 0.0
-0.033021586831852905 0.02986076794569733 0.0 0.009023008221829044 0.0 0.0
-0.02380139330452134 0.020875810771063336 0.0 0.00677287118129152 0.0 0.0
-0.016119127794967353 0.013429019726972788 0.0 0.004666036420407875 0.0 0.0
-0.010136439022585375 0.007718107995894265 0.0 0.0029242009459915846 0.0 0.0
-0.0059021484079475675 0.003829125720019695 0.0 0.0016712399074141522 0.0 0.0
-0.0033013229761975683 0.0016937471126660477 0.0 0.0010820133225014799 0.0 0.0
-0.001963543620899374 0.0008588563822427979 0.0 0.0010814270058856067 0.0 0.0
-0.0012819053886045588 0.0005611354041540044 0.0 0.0012728811707025107 0.0 0.0
-0.0007643797271857664 0.00031827503401773446 0.0 0.0012781039676196305 0.0 0.0
-0.00030220359098123695 -1.0459313662690433e-05 0.0 0.0009020864768846978 0.0 0.0
-9.7331244523388e-05 -0.00010256285245353393 0.0 0.00048782194964722906 0.0 0.0
-0.00012477453029724185 -1.717800318012421e-05 0.0 -0.0003166771295574725 0.0 0.0
-0.0003345183169997931 4.59262479186045e-05 0.0 -0.0006104051854096309 0.0 0.0
-0.0008312368330699942 0.0003516289331888087 0.0 -0.0008966303341801792 0.0 0.0
-0.0014252507597792802 0.0006022996357991342 0.0 -0.0008774359767636602 0.0 0.0
-0.002279572594424681 0.000995300793188762 0.0 -0.0006762325787616808 0.0 0.0
-0.003976926625871705 0.002183380722149414 0.0 -0.0006906877998340274 0.0 0.0
-0.0070927446979316775 0.004882234681173579 0.0 -0.001205494308548847 0.0 0.0
-0.011956363161578379 0.009404831879342828 0.0 -0.0021133714006333184 0.0 0.0
-0.01873232245418315 0.015898087055377843 0.0 -0.003394683664471744 0.0 0.0
-0.027420371210510726 0.024331555183601975 0.0 -0.004951422885998208 0.0 0.0
-0.03788260900994826 0.034536763496254556 0.0 -0.0066242685151344065 0.0 0.0
-0.049952481860743476 0.04633550887594635 0.0 -0.008276158617218098 0.0 0.0
-0.06350493459900948 0.059607366469793324 0.0 -0.009905199715478982 0.0 0.0
-0.07843882344531883 0.0742707152781971 0.0 -0.011602958777322606 0.0 0.0
-0.09457538091663657 0.09017389741965068 0.0 -0.013336505868526149 0.0 0.0
-0.11152934376125168 0.10696716793011449 0.0 -0.014836509926984091 0.0 0.0
-0.1284268893155075 0.12384778233318153 0.0 -0.015853845692326722 0.0 0.0
-0.14314814379074275 0.13893716127665467 0.0 -0.017511113455179254 0.0 0.0
-0.15123102176826803 0.14822875355453854 0.0 -0.024422436321374526 0.0 0.0
-0.14597060775153278 0.14476625050122685 0.0 -0.04312241448514047 0.0 0.0
-0.13906746246039584 0.1200510695924269 0.0 1.3209919269563386e-14 0.0 0.0
-0.14597060775150716 0.14476625050120273 0.0 0.043122414485173406 0.0 0.0
-0.15123102176821984 0.14822875355449092 0.0 0.024422436321408676 0.0 0.0
-0.14314814379067617 0.13893716127659272 0.0 0.017511113455196813 0.0 0.0
-0.12842688931542778 0.12384778233310101 0.0 0.015853845692328852 0.0 0.0
-0.11152934376116595 0.1069671679300303 0.0 0.014836509926983477 0.0 0.0
-0.09457538091654939 0.09017389741956885 0.0 0.013336505868521174 0.0 0.0
-0.07843882344523075 0.07427071527810844 0.0 0.01160295877731545 0.0 0.0
-0.0635049345989229 0.059607366469706755 0.0 0.009905199715470625 0.0 0.0
-0.049952481860662805 0.0463355088758663 0.0 0.008276158617206472 0.0 0.0
-0.037882609009878346 0.03453676349618608 0.0 0.0066242685151172345 0.0 0.0
-0.027420371210453213 0.02433155518354766 0.0 0.004951422885983966 0.0 0.0
-0.018732322454138885 0.01589808705533596 0.0 0.0033946836644625266 0.0 0.0
-0.011956363161547294 0.00940483187931447 0.0 0.002113371400628252 0.0 0.0
-0.007092744697912611 0.004882234681156049 0.0 0.001205494308541258 0.0 0.0
-0.0039769266258619755 0.002183380722142192 0.0 0.0006906877998327747 0.0 0.0
-0.002279572594420881 0.0009953007931867014 0.0 0.0006762325787630879 0.0 0.0
-0.0014252507597779839 0.0006022996357977504 0.0 0.0008774359767639555 0.0 0.0
-0.0008312368330696613 0.0003516289331887872 0.0 0.0008966303341781164 0.0 0.0
-0.00033451831699997977 4.5926247918549575e-05 0.0 0.0006104051854075181 0.0 0.0
-0.00012477453029719054 -1.71780031801794e-05 0.0 0.0003166771295559494 0.0 0.0
-0.0001255964548023903 1.3895752881515086e-05 0.0 -0.0001786474258847741 0.0 0.0
-0.0003421963262834971 8.340021786945666e-05 0.0 -0.00030583582562685146 0.0 0.0
-0.0008860841452816579 0.00037568657992569044 0.0 -0.00043682812651998806 0.0 0.0
-0.0015830761804393732 0.0006526664651167264 0.0 -0.0004114520513752164 0.0 0.0
-0.002649626701954215 0.001188185064148172 0.0 -0.00024379321700690302 0.0 0.0
-0.00472323668521488 0.0027829358771707747 0.0 -0.00024438182112596616 0.0 0.0
-0.008325412024708774 0.0060012555240333346 0.0 -0.0005262727739321175 0.0 0.0
-0.01377996109085848 0.011111119551916768 0.0 -0.000998351448625819 0.0 0.0
-0.02131723213675192 0.01835169036969716 0.0 -0.0016655937711678222 0.0 0.0
-0.030986566561012396 0.027744154731394743 0.0 -0.0024972688622801943 0.0 0.0
-0.04267811855191877 0.039158317349084835 0.0 -0.003401413147706767 0.0 0.0
-0.05622584367559477 0.05241759468170358 0.0 -0.004313380567299565 0.0 0.0
-0.07147866462227133 0.06737293766208663 0.0 -0.005259224176640028 0.0 0.0
-0.08826247945429604 0.08387670959564018 0.0 -0.006265038875591723 0.0 0.0
-0.10627357833850275 0.10166629412333077 0.0 -0.007285570076592204 0.0 0.0
-0.12493295712565858 0.12020020860974578 0.0 -0.008123027539034041 0.0 0.0
-0.14324248037092394 0.13849422570093545 0.0 -0.008394294559475575 0.0 0.0
-0.15952599502631737 0.15487708483032686 0.0 -0.008278990721145997 0.0 0.0
-0.17022959952417005 0.16629089371503467 0.0 -0.011712191207959553 0.0 0.0
-0.1673942721387468 0.16641036604039766 0.0 -0.031998909599857336 0.0 0.0
-0.16122597924106719 0.1425726121309708 0.0 6.6491950834191016e-15 0.0 0.0
-0.16739427213871783 0.16641036604036494 0.0 0.03199890959987855 0.0 0.0
-0.17022959952411537 0.1662908937149768 0.0 0.01171219120797936 0.0 0.0
-0.1595259950262412 0.15487708483025583 0.0 0.008278990721152586 0.0 0.0
-0.14324248037083404 0.1384942257008384 0.0 0.008394294559477522 0.0 0.0
-0.12493295712556265 0.12020020860965 0.0 0.008123027539031411 0.0 0.0
-0.10627357833840508 0.10166629412323414 0.0 0.007285570076587748 0.0 0.0
-0.08826247945419786 0.08387670959554588 0.0 0.006265038875588167 0.0 0.0
-0.07147866462217523 0.06737293766198879 0.0 0.005259224176635724 0.0 0.0
-0.05622584367550574 0.0524175946816154 0.0 0.004313380567289665 0.0 0.0
-0.042678118551841095 0.03915831734900923 0.0 0.0034014131476968667 0.0 0.0
-0.030986566560948718 0.02774415473133596 0.0 0.002497268862275034 0.0 0.0
-0.021317232136703126 0.01835169036964933 0.0 0.0016655937711612906 0.0 0.0
-0.013779961090823582 0.011111119551880974 0.0 0.000998351448624258 0.0 0.0
-0.00832541202468596 0.0060012555240114345 0.0 0.0005262727739279038 0.0 0.0
-0.004723236685202593 0.002782935877160715 0.0 0.000244381821126264 0.0 0.0
-0.002649626701949826 0.0011881850641456075 0.0 0.00024379321700867293 0.0 0.0
-0.0015830761804381801 0.0006526664651153791 0.0 0.0004114520513765626 0.0 0.0
-0.000886084145280967 0.0003756865799256485 0.0 0.00043682812651824326 0.0 0.0
-0.0003421963262830677 8.340021786952369e-05 0.0 0.0003058358256272935 0.0 0.0
-0.00012559645480241912 1.3895752881456118e-05 0.0 0.00017864742588519783 0.0 0.0
-8.455293817612541e-05 1.5991267865887244e-05 0.0 -0.00010975501756751039 0.0 0.0
-0.0003076224154644493 9.576020354913247e-05 0.0 -0.0001270831120931705 0.0 0.0
-0.0009235592145518683 0.0003845645228816091 0.0 -0.0001455816651144367 0.0 0.0
-0.0017734127527816018 0.0006820690563494323 0.0 -9.441987093234219e-05 0.0 0.0
-0.0030846761367565355 0.001303461739041284 0.0 0.0001470574700966113 0.0 0.0
-0.0055233438138432575 0.003105568568595387 0.0 0.00035640814570272973 0.0 0.0
-0.009578373679392672 0.006572271719009894 0.0 0.0004540721130016828 0.0 0.0
-0.015587468636957586 0.011966527896573934 0.0 0.0004874268708517093 0.0 0.0
-0.02384657734222497 0.019570407013223504 0.0 0.0004551235374488671 0.0 0.0
-0.0344678191750453 0.029435574336245596 0.0 0.00032107914211871886 0.0 0.0
-0.047377852115978655 0.04145103651973432 0.0 0.0001263119929846286 0.0 0.0
-0.06240780261079701 0.05544251586552454 0.0 -0.0001233998881727148 0.0 0.0
-0.079349916828476 0.07123989613095402 0.0 -0.0004648739232922085 0.0 0.0
-0.09795834465528948 0.08865756614727198 0.0 -0.0008706800458836558 0.0 0.0
-0.11782512172543669 0.10738449080098675 0.0 -0.0013667033873588051 0.0 0.0
-0.13817609794475244 0.12677944206064226 0.0 -0.0018673133391627576 0.0 0.0
-0.15773772457705562 0.1457269993145009 0.0 -0.0021229194992862504 0.0 0.0
-0.17478480215604802 0.16258626349165395 0.0 -0.0018881769562549867 0.0 0.0
-0.18731709473898714 0.1748992051710582 0.0 -0.00356467673550334 0.0 0.0
-0.19038586122713358 0.1775927888337981 0.0 -0.024094466252435123 0.0 0.0
-0.18857880512032021 0.1550258063731441 0.0 4.579669976578771e-16 0.0 0.0
-0.19038586122710127 0.17759278883376095 0.0 0.02409446625244191 0.0 0.0
-0.18731709473892516 0.17489920517098206 0.0 0.0035646767355111096 0.0 0.0
-0.17478480215596054 0.16258626349157945 0.0 0.0018881769562549451 0.0 0.0
-0.15773772457695448 0.1457269993143963 0.0 0.0021229194992841184 0.0 0.0
-0.13817609794464675 0.12677944206053982 0.0 0.0018673133391601156 0.0 0.0
-0.11782512172532876 0.1073844908008782 0.0 0.0013667033873570253 0.0 0.0
-0.09795834465518105 0.0886575661471844 0.0 0.0008706800458815351 0.0 0.0
-0.07934991682837013 0.07123989613085074 0.0 0.0004648739232901329 0.0 0.0
-0.062407802610698476 0.055442515865435194 0.0 0.0001233998881650638 0.0 0.0
-0.04737785211589363 0.041451036519654184 0.0 -0.00012631199298574532 0.0 0.0
-0.03446781917497716 0.029435574336183205 0.0 -0.0003210791421184118 0.0 0.0
-0.02384657734217173 0.019570407013170428 0.0 -0.000455123537451902 0.0 0.0
-0.015587468636918943 0.011966527896534953 0.0 -0.00048742687085005895 0.0 0.0
-0.00957837367936754 0.006572271718985329 0.0 -0.00045407211300005574 0.0 0.0
-0.005523343813828336 0.0031055685685838844 0.0 -0.00035640814570136136 0.0 0.0
-0.003084676136750616 0.0013034617390381593 0.0 -0.0001470574700951202 0.0 0.0
-0.001773412752780462 0.0006820690563485144 0.0 9.441987093630576e-05 0.0 0.0
-0.0009235592145511199 0.0003845645228827168 0.0 0.00014558166511591518 0.0 0.0
-0.0003076224154640099 9.576020354888764e-05 0.0 0.00012708311209415183 0.0 0.0
-8.455293817644698e-05 1.5991267866012598e-05 0.0 0.00010975501757072205 0.0 0.0
SCALARS Statev float 8
LOOKUP_TABLE default
0.0 0.018901578624668798 0.015168773039553506 -0.018037703939346946 0.002868930899793432 -0.0010542979426629469 0.0 0.0
0.0 0.006529689538197858 0.00482068415402975 -0.003027377028388369 -0.0017933071256413832 -0.007021651080916046 0.0 0.0
0.0 0.00014805138122576345 0.00019959228324032386 -0.00012221623763726002 -7.737604560306393e-05 -0.0003280109077017683 0.0 0.0
0.0 0.00016659738519821807 8.164503978545468e-05 -5.847550398485035e-05 -2.3169535800604596e-05 2.6566657266719013e-05 0.0 0.0
0.0 0.0010438332855788933 0.000725073887321938 -0.0005317330079249801 -0.00019334087939695786 0.00015078144563769705 0.0 0.0
0.0 0.002742404277193808 0.002699705517230663 -0.0021489821918083477 -0.0005507233254223187 0.0003139632173617294 0.0 0.0
0.0 0.006891009258242972 0.006311809533908193 -0.005431203996273682 -0.0008806055376345045 0.0004401176181172044 0.0 0.0
0.0 0.013235819510328612 0.01193556548287827 -0.010795304795975569 -0.0011402606869027115 0.0004977243989978851 0.0 0.0
0.0 0.022209792153865874 0.01981204375912505 -0.018438406111773373 -0.0013736376473516669 0.0004865543026811557 0.0 0.0
0.0 0.033946364997634065 0.03003226641558662 -0.028402107993974732 -0.0016301584216119212 0.000378334868799409 0.0 0.0
0.0 0.048351541900503746 0.042523175740269384 -0.04059323069760411 -0.0019299450426652279 0.00020411777746895057 0.0 0.0
0.0 0.0649125991646611 0.05712799118160077 -0.05485181406246979 -0.002276177119130901 -3.43292245099364e-05 0.0 0.0
0.0 0.08376799143094638 0.07365544803133314 -0.07099724464504226 -0.0026582033862908583 -0.000364354033879191 0.0 0.0
0.0 0.1046298155945279 0.09190751779352413 -0.0888453352411601 -0.003062182552363816 -0.000735112843977332 0.0 0.0
0.0 0.12718102252034963 0.11160378109306728 -0.10813433697472133 -0.0034694441183458465 -0.0011775473488187754 0.0 0.0
0.0 0.1508748839976283 0.1322302674343491 -0.12837106926865718 -0.0038591981656920567 -0.0016768974303375372 0.0 0.0
0.0 0.1746961061825311 0.15293637034729 -0.14872596178359737 -0.004210408563692599 -0.0021369194358982317 0.0 0.0
0.0 0.1972539053235037 0.17252686066161155 -0.1680250099715957 -0.004501850690015945 -0.0023848477701971377 0.0 0.0
0.0 0.2168725425867898 0.18956216633292888 -0.18483395531078425 -0.004728211022144403 -0.002251211406992843 0.0 0.0
0.0 0.23132750748227848 0.2023110766491295 -0.19744844815769394 -0.004862628491435668 -0.002554934164051656 0.0 0.0
0.0 0.2374454918499519 0.20743990903888068 -0.2025950021655401 -0.004844906873340533 2.950764632636549e-15 0.0 0.0
0.0 0.2313275074822416 0.2023110766490978 -0.19744844815766183 -0.004862628491435996 0.0025549341640593503 0.0 0.0
0.0 0.21687254258671645 0.18956216633286524 -0.18483395531072008 -0.0047282110221450475 0.0022512114070000764 0.0 0.0
0.0 0.1972539053234091 0.17252686066152875 -0.1680250099715148 -0.00450185069001388 0.002384847770200541 0.0 0.0
0.0 0.1746961061824225 0.15293637034719554 -0.14872596178350525 -0.00421040856369048 0.0021369194358969367 0.0 0.0
0.0 0.15087488399751545 0.13223026743424976 -0.12837106926856034 -0.003859198165689381 0.0016768974303342189 0.0 0.0
0.0 0.12718102252023486 0.11160378109296662 -0.10813433697462355 -0.003469444118342939 0.0011775473488180909 0.0 0.0
0.0 0.10462981559440945 0.091907517793421 -0.08884533524105875 -0.00306218255236236 0.0007351128439768749 0.0 0.0
0.0 0.08376799143083527 0.07365544803123589 -0.07099724464494792 -0.0026582033862878694 0.0003643540338763517 0.0 0.0
0.0 0.06491259916455222 0.0571279911815062 -0.054851814062375666 -0.0022761771191304775 3.4329224505559586e-05 0.0 0.0
0.0 0.048351541900416475 0.042523175740193014 -0.04059323069752967 -0.001929945042663362 -0.00020411777747191494 0.0 0.0
0.0 0.033946364997563906 0.03003226641552523 -0.02840210799391496 -0.0016301584216103185 -0.0003783348688014118 0.0 0.0
0.0 0.022209792153812528 0.019812043759078045 -0.01843840611172764 -0.0013736376473503639 -0.00048655430268123136 0.0 0.0
0.0 0.013235819510290861 0.011935565482844395 -0.010795304795942935 -0.0011402606869014603 -0.0004977243989981431 0.0 0.0
0.0 0.006891009258220464 0.006311809533887212 -0.005431203996254203 -0.000880605537633005 -0.0004401176181169135 0.0 0.0
0.0 0.002742404277183129 0.0026997055172199623 -0.0021489821917992226 -0.000550723325420739 -0.0003139632173607494 0.0 0.0
0.0 0.0010438332855744028 0.0007250738873187474 -0.0005317330079226466 -0.00019334087939609944 -0.0001507814456370156 0.0 0.0
0.0 0.0001665973851973363 8.164503978542465e-05 -5.847550398485551e-05 -2.316953580056859e-05 -2.656665726659142e-05 0.0 0.0
0.0 0.00014805138122479195 0.0001995922832395592 -0.0001222162376367713 -7.737604560278722e-05 0.000328010907700467 0.0 0.0
0.0 0.006529689538187734 0.004820684154024681 -0.003027377028384583 -0.001793307125640095 0.007021651080907035 0.0 0.0
0.0 0.018901578624647475 0.01516877303953924 -0.018037703939327323 0.002868930899788083 0.0010542979426221809 0.0 0.0
0.0 0.015456524037309089 0.011614318034440383 -0.014965700818158963 0.003351382783718567 -0.0005640014318389738 0.0 0.0
0.0 0.004053350675693948 0.0029114432759922582 -0.0018092839071649246 -0.001102159368827329 -0.005569278424449945 0.0 0.0
0.0 -8.039245350054399e-05 -7.296183110679089e-05 6.624962880358001e-05 6.712202303210892e-06 -8.942405303789897e-05 0.0 0.0
0.0 4.0545236512925874e-05 3.2006097417323575e-05 -2.310093974325442e-05 -8.905157674069148e-06 1.2222062227128585e-05 0.0 0.0
0.0 0.0005879979261204954 0.0004752034251746973 -0.00035133516804060713 -0.00012386825713409002 6.00420378520077e-05 0.0 0.0
0.0 0.002389354341638057 0.0020893854084466468 -0.0016797562203371614 -0.0004096291881094877 5.222018756295186e-05 0.0 0.0
0.0 0.005867244926088214 0.00536134368292117 -0.004671070672062522 -0.0006902730108586442 -0.00022300805160107957 0.0 0.0
0.0 0.011754998590653723 0.010515633071296597 -0.00964897065522348 -0.0008666624160731285 -0.0006904101326177147 0.0 0.0
0.0 0.020128792646085036 0.017784373925702396 -0.016803808169777418 -0.000980565755924988 -0.0013487879265719769 0.0 0.0
0.0 0.031001481031138735 0.027209607633136634 -0.026132311900678364 -0.0010772957324582388 -0.0021688621826449006 0.0 0.0
0.0 0.04428207918702934 0.038685934882484986 -0.0375139267728015 -0.0011720081096835355 -0.0030745697507017656 0.0 0.0
0.0 0.059887070160620566 0.0520552100518676 -0.05078567827534952 -0.001269531776518091 -0.004004500419746673 0.0 0.0
0.0 0.07706403696319253 0.06717809809160169 -0.06580801927377289 -0.0013700788178287579 -0.004970687289058701 0.0 0.0
0.0 0.09637193438075647 0.08389576407649627 -0.08242922957380025 -0.001466534502696029 -0.005976811081593235 0.0 0.0
0.0 0.11723009030854406 0.10196371548694998 -0.10041554335806652 -0.0015481721288833083 -0.006993447970381515 0.0 0.0
0.0 0.1391484979944208 0.12092792782557357 -0.1193220177601379 -0.0016059100654357487 -0.00793443151445223 0.0 0.0
0.0 0.161276180046522 0.14002926366569882 -0.13839513306308904 -0.0016341306026097138 -0.008570177855610896 0.0 0.0
0.0 0.18235330769252914 0.15818559234379395 -0.15655175151899411 -0.001633840824799851 -0.00856614984619616 0.0 0.0
0.0 0.20069687529251656 0.17398712896371812 -0.17238877691063487 -0.0015983520530832745 -0.007721545994568382 0.0 0.0
0.0 0.21409383437267654 0.18545485800030567 -0.18399603596402497 -0.0014588220362807616 -0.00666285026827919 0.0 0.0
0.0 0.21986976124137358 0.18993134670413095 -0.18868922678176936 -0.0012421199223617055 8.038708587676524e-15 0.0 0.0
0.0 0.2140938343726469 0.18545485800027942 -0.18399603596399905 -0.0014588220362802304 0.00666285026829981 0.0 0.0
0.0 0.20069687529244995 0.17398712896366086 -0.17238877691057658 -0.0015983520530841182 0.0077215459945888494 0.0 0.0
0.0 0.18235330769244232 0.1581855923437192 -0.1565517515189192 -0.0016338408248001077 0.00856614984620808 0.0 0.0
0.0 0.16127618004642336 0.14002926366561394 -0.13839513306300422 -0.001634130602609745 0.008570177855611986 0.0 0.0
0.0 0.13914849799431583 0.1209279278254825 -0.11932201776004724 -0.001605910065434972 0.007934431514446642 0.0 0.0
0.0 0.11723009030843748 0.10196371548685727 -0.1004155433579746 -0.0015481721288827565 0.006993447970379218 0.0 0.0
0.0 0.09637193438065028 0.08389576407640437 -0.08242922957370875 -0.0014665345026955517 0.005976811081589793 0.0 0.0
0.0 0.07706403696308858 0.06717809809151186 -0.06580801927368356 -0.0013700788178282947 0.004970687289052203 0.0 0.0
0.0 0.05988707016052185 0.052055210051782 -0.05078567827526398 -0.0012695317765180258 0.004004500419739042 0.0 0.0
0.0 0.04428207918694955 0.03868593488241594 -0.037513926772733 -0.0011720081096829559 0.0030745697506935864 0.0 0.0
0.0 0.0310014810310752 0.027209607633080824 -0.026132311900623244 -0.0010772957324575473 0.002168862182638915 0.0 0.0
0.0 0.020128792646036137 0.017784373925659083 -0.016803808169734726 -0.0009805657559243581 0.0013487879265681995 0.0 0.0
0.0 0.011754998590620408 0.010515633071266836 -0.00964897065519447 -0.0008666624160723857 0.0006904101326141209 0.0 0.0
0.0 0.005867244926066856 0.0053613436829016885 -0.004671070672044134 -0.0006902730108575476 0.0002230080515989357 0.0 0.0
0.0 0.002389354341626901 0.0020893854084368052 -0.0016797562203287393 -0.00040962918810806537 -5.222018756327736e-05 0.0 0.0
0.0 0.0005879979261172563 0.0004752034251724697 -0.0003513351680389718 -0.00012386825713349786 -6.00420378516135e-05 0.0 0.0
0.0 4.0545236512454836e-05 3.2006097417575395e-05 -2.310093974346005e-05 -8.90515767411519e-06 -1.2222062227024437e-05 0.0 0.0
0.0 -8.039245350058834e-05 -7.296183110650619e-05 6.62496288033221e-05 6.712202303183874e-06 8.94240530376327e-05 0.0 0.0
0.0 0.004053350675683579 0.002911443275986649 -0.0018092839071609823 -0.0011021593688256672 0.005569278424438466 0.0 0.0
0.0 0.015456524037285738 0.011614318034422531 -0.01496570081813668 0.003351382783714135 0.0005640014318083049 0.0 0.0
0.0 0.01156741604946667 0.00850818961722774 -0.011263579316918206 0.0027553896996904653 -0.003077832407965487 0.0 0.0
0.0 0.002814019570203872 0.0017939363374885379 -0.0009931162894472492 -0.0008008200480412925 -0.004726459026434083 0.0 0.0
0.0 -1.3027551122242836e-07 7.790840742931912e-07 -6.829143104413198e-07 -9.61697638518673e-08 4.890899037723222e-07 0.0 0.0
0.0 -1.3083394212396097e-06 -3.1758811733142638e-06 2.778350730237857e-06 3.9753044307627527e-07 4.729057907968723e-06 0.0 0.0
0.0 0.0002658824187781215 0.0002291911984226944 -0.00016502662792371823 -6.416457049897627e-05 1.361222235717019e-05 0.0 0.0
0.0 0.0017093777533608084 0.0014424062558398083 -0.0011285723332463853 -0.0003138339225934226 -9.513433445148132e-05 0.0 0.0
0.0 0.0045646408782107 0.004237823771017202 -0.003618681811140978 -0.0006191419598762254 -0.0006356931871081814 0.0 0.0
0.0 0.009833824182460408 0.008801717014546764 -0.007985589316563605 -0.0008161276979831508 -0.001541301956602752 0.0 0.0
0.0 0.01732333813207343 0.015311019565399554 -0.014377274417579923 -0.0009337451478196162 -0.0028015115378558987 0.0 0.0
0.0 0.027145571972391154 0.023757195216890285 -0.022732777333185517 -0.0010244178837047998 -0.004340026150620661 0.0 0.0
0.0 0.0390613804186198 0.034005718364356965 -0.032893181659655296 -0.0011125367047016253 -0.006018989677436854 0.0 0.0
0.0 0.052772534967863216 0.04590102405295089 -0.04469640331687859 -0.0012046207360722908 -0.00770796780303848 0.0 0.0
0.0 0.0684934156897648 0.05932661852411589 -0.05802721747267883 -0.001299401051437057 -0.00938752292248981 0.0 0.0
0.0 0.08541253915156094 0.0741881673337208 -0.07279824222540189 -0.0013899251083188738 -0.01112080662168959 0.0 0.0
0.0 0.10404210558516541 0.09028944439688533 -0.08882176529860267 -0.00146767909828282 -0.012879932092810506 0.0 0.0
0.0 0.12366676470450808 0.10725641309413184 -0.10573189838373133 -0.0015245147104003761 -0.014481324424627302 0.0 0.0
0.0 0.14356918308923874 0.12445666207258466 -0.12290088299328489 -0.0015557790792998444 -0.015550396597524578 0.0 0.0
0.0 0.1626246351621138 0.14092911621631585 -0.13937364794792512 -0.0015554682683907933 -0.01558773649172116 0.0 0.0
0.0 0.17925876463985563 0.15527871767243034 -0.1537763551502659 -0.0015023625221642608 -0.014268911089849585 0.0 0.0
0.0 0.1913330195431836 0.1656514212862468 -0.16423476097990256 -0.0014166603063439508 -0.011598340020151225 0.0 0.0
0.0 0.19677813084083615 0.1698226315415212 -0.1686613541890071 -0.0011612773525140974 1.502270530195915e-14 0.0 0.0
0.0 0.1913330195431594 0.16565142128622415 -0.16423476097988066 -0.0014166603063435002 0.011598340020188 0.0 0.0
0.0 0.1792587646398009 0.15527871767238238 -0.1537763551502183 -0.0015023625221642113 0.01426891108988697 0.0 0.0
0.0 0.16262463516203682 0.14092911621624948 -0.13937364794785803 -0.0015554682683913469 0.015587736491741628 0.0 0.0
0.0 0.1435691830891525 0.12445666207251069 -0.12290088299321127 -0.0015557790792994533 0.01555039659752784 0.0 0.0
0.0 0.12366676470441629 0.10725641309405214 -0.10573189838365217 -0.0015245147103999275 0.014481324424619642 0.0 0.0
0.0 0.10404210558507107 0.09028944439680366 -0.08882176529852133 -0.0014676790982823037 0.012879932092805382 0.0 0.0
0.0 0.0854125391514677 0.07418816733363971 -0.07279824222532177 -0.0013899251083179288 0.011120806621684442 0.0 0.0
0.0 0.06849341568967324 0.059326618524037124 -0.05802721747259995 -0.0012994010514371882 0.00938752292247984 0.0 0.0
0.0 0.05277253496777654 0.04590102405287604 -0.04469640331680421 -0.0012046207360717597 0.00770796780302576 0.0 0.0
0.0 0.039061380418548154 0.034005718364294495 -0.032893181659593394 -0.0011125367047011068 0.006018989677424229 0.0 0.0
0.0 0.02714557197233436 0.02375719521684021 -0.022732777333136268 -0.001024417883703917 0.004340026150609872 0.0 0.0
0.0 0.017323338132027435 0.01531101956535921 -0.01437727441754019 -0.0009337451478190243 0.0028015115378477204 0.0 0.0
0.0 0.009833824182429632 0.008801717014519709 -0.007985589316537395 -0.0008161276979823014 0.0015413019565966436 0.0 0.0
0.0 0.004564640878192941 0.004237823771000923 -0.0036186818111258777 -0.0006191419598750448 0.0006356931871045337 0.0 0.0
0.0 0.0017093777533522753 0.0014424062558325446 -0.0011285723332403895 -0.00031383392259215503 9.51343344505549e-05 0.0 0.0
0.0 0.00026588241877584717 0.00022919119842130267 -0.0001650266279227338 -6.416457049856894e-05 -1.3612222357103e-05 0.0 0.0
0.0 -1.3083394211417651e-06 -3.1758811730683045e-06 2.778350730052698e-06 3.975304430156393e-07 -4.729057907872992e-06 0.0 0.0
0.0 -1.3027551114604748e-07 7.790840742977236e-07 -6.82914310443804e-07 -9.616976385392038e-08 -4.890899037725834e-07 0.0 0.0
0.0 0.002814019570195083 0.0017939363374833723 -0.0009931162894437659 -0.0008008200480396014 0.0047264590264208374 0.0 0.0
0.0 0.0115674160494433 0.00850818961721041 -0.011263579316896357 0.0027553896996859394 0.003077832407945436 0.0 0.0
0.0 0.008797625072320065 0.006305088530792671 -0.00852076772376174 0.0022156791929690547 -0.003335481841123537 0.0 0.0
0.0 0.0020436951415317654 0.001224117590933361 -0.0006609722734200003 -0.0005631453175133559 -0.0035814784637089687 0.0 0.0
0.0 0.0 0.0 0.0 0.0 0.0 0.0 0.0
0.0 -2.5372216437156487e-06 -2.698681101058425e-06 2.12169829676113e-06 5.769828042972937e-07 1.9198537767975095e-06 0.0 0.0
0.0 9.150078412644055e-05 6.881888302846903e-05 -4.701834664497718e-05 -2.1800536383491427e-05 8.915878734801458e-06 0.0 0.0
0.0 0.0010277397748098818 0.0009111829067731023 -0.0006939763921692499 -0.0002172065146038515 -0.00017055706510078018 0.0 0.0
0.0 0.003575218780327125 0.0031552846033609133 -0.002628659847864793 -0.0005266247554961235 -0.0008096292619669343 0.0 0.0
0.0 0.007962603231851079 0.007109336657440285 -0.0063563518257283985 -0.000752984831711877 -0.002081297927330358 0.0 0.0
0.0 0.014590912207793487 0.012827475719548979 -0.011947038446378658 -0.0008804372731703166 -0.003801946402086792 0.0 0.0
0.0 0.02328597675135367 0.020269924807925124 -0.019302300617070004 -0.0009676241908550969 -0.005888380353233644 0.0 0.0
0.0 0.033752400191810236 0.02927818294849223 -0.028229329958190802 -0.0010488529903013933 -0.008147565191208355 0.0 0.0
0.0 0.045935306128911814 0.03969417013423481 -0.03855958682224859 -0.0011345833119862276 -0.010411499154969398 0.0 0.0
0.0 0.05942125120898175 0.051428699328068345 -0.05020465095850029 -0.001224048369568068 -0.012653786733275562 0.0 0.0
0.0 0.0747167190689931 0.06441401758626292 -0.06310588847811581 -0.0013081291081470776 -0.014931638485105835 0.0 0.0
0.0 0.09097260137703739 0.07852874314582314 -0.07714733636877216 -0.0013814067770508952 -0.017228676955059734 0.0 0.0
0.0 0.10811447642388293 0.09349013555400323 -0.09205109811107118 -0.0014390374429320185 -0.019341476410640965 0.0 0.0
0.0 0.12589086738238922 0.10878550258121204 -0.10731263688953122 -0.001472865691680716 -0.02081955099031872 0.0 0.0
0.0 0.14299957171345248 0.12357863350065333 -0.12210680384236809 -0.0014718296582851202 -0.02106036862392991 0.0 0.0
0.0 0.15802816978707196 0.13659869703734281 -0.1351690406590064 -0.0014296563783365187 -0.019439987881248687 0.0 0.0
0.0 0.16911077638621813 0.14623197994236833 -0.14486016936853688 -0.0013718105738317738 -0.015101588540135496 0.0 0.0
0.0 0.17455921156002988 0.15034823530829972 -0.14933331730717186 -0.0010149180011276165 2.143424326916943e-14 0.0 0.0
0.0 0.16911077638619473 0.1462319799423462 -0.14486016936851462 -0.0013718105738317944 0.01510158854018425 0.0 0.0
0.0 0.15802816978702416 0.13659869703730018 -0.1351690406589635 -0.0014296563783365844 0.01943998788129625 0.0 0.0
0.0 0.14299957171338526 0.12357863350059484 -0.12210680384230872 -0.0014718296582860977 0.021060368623956403 0.0 0.0
0.0 0.12589086738231356 0.10878550258114675 -0.10731263688946686 -0.0014728656916798834 0.020819550990322677 0.0 0.0
0.0 0.10811447642380079 0.09349013555393239 -0.09205109811100012 -0.0014390374429321586 0.01934147641063179 0.0 0.0
0.0 0.09097260137695434 0.07852874314575087 -0.07714733636870065 -0.0013814067770502887 0.017228676955052362 0.0 0.0
0.0 0.07471671906891275 0.06441401758619274 -0.0631058884780466 -0.0013081291081461757 0.014931638485098955 0.0 0.0
0.0 0.05942125120890209 0.051428699327999955 -0.05020465095843234 -0.0012240483695675427 0.01265378673326403 0.0 0.0
0.0 0.04593530612883956 0.03969417013417227 -0.03855958682218629 -0.0011345833119860338 0.01041149915495211 0.0 0.0
0.0 0.03375240019174653 0.029278182948437283 -0.02822932995813596 -0.001048852990301296 0.008147565191191756 0.0 0.0
0.0 0.023285976751301618 0.020269924807879862 -0.019302300617025512 -0.0009676241908543523 0.005888380353218393 0.0 0.0
0.0 0.014590912207753551 0.012827475719514345 -0.011947038446344599 -0.0008804372731697432 0.003801946402076335 0.0 0.0
0.0 0.007962603231824008 0.007109336657416063 -0.006356351825704939 -0.0007529848317111164 0.0020812979273215405 0.0 0.0
0.0 0.0035752187803115587 0.0031552846033477753 -0.0026286598478531043 -0.0005266247554946727 0.0008096292619627255 0.0 0.0
0.0 0.0010277397748034308 0.0009111829067680182 -0.0006939763921652738 -0.0002172065146027442 0.00017055706509952904 0.0 0.0
0.0 9.150078412526319e-05 6.881888302803482e-05 -4.701834664468931e-05 -2.180053638334544e-05 -8.915878734582102e-06 0.0 0.0
0.0 -2.5372216440877655e-06 -2.698681101059613e-06 2.121698296762116e-06 5.769828042975181e-07 -1.919853776809641e-06 0.0 0.0
0.0 0.0 0.0 0.0 0.0 0.0 0.0 0.0
0.0 0.002043695141524097 0.0012241175909289085 -0.0006609722734170146 -0.0005631453175118947 0.0035814784636973166 0.0 0.0
0.0 0.008797625072299763 0.006305088530776892 -0.008520767723741713 0.0022156791929648146 0.0033354818411088214 0.0 0.0
0.0 0.00647526109542292 0.0046147910179622775 -0.006348782398322304 0.0017339913803600313 -0.002868877785977875 0.0 0.0
0.0 0.0016327455838288033 0.0008051868206363659 -0.0004240300491806045 -0.00038115677145576077 -0.0025769867856157273 0.0 0.0
0.0 0.0 0.0 0.0 0.0 0.0 0.0 0.0
0.0 -3.545872780834835e-07 8.143749235991867e-08 -6.218013446046105e-08 -1.9257357899456365e-08 -2.1770895622456425e-08 0.0 0.0
0.0 -1.2529281458985392e-05 -8.955576937908064e-07 2.973095168403883e-06 -2.0775374746130716e-06 1.7353186540686535e-05 0.0 0.0
0.0 0.0005815994007378661 0.00048324701285928494 -0.00035888383923564213 -0.0001243631736236431 -0.00015382456766100983 0.0 0.0
0.0 0.002618008472815473 0.0021807139154619705 -0.0017670717678946375 -0.0004136421475673287 -0.0008348024781018658 0.0 0.0
0.0 0.006177082477523349 0.005464432327851661 -0.004790191383176426 -0.0006742409446752417 -0.0022700223685575135 0.0 0.0
0.0 0.011901124852463826 0.010365179727827044 -0.009547196379010199 -0.0008179833488168501 -0.004342046503891214 0.0 0.0
0.0 0.019424674995771055 0.01678170553822157 -0.015876762753294384 -0.0009049427849271834 -0.006808282587998819 0.0 0.0
0.0 0.028530622581134774 0.0245368170130126 -0.02355660730491816 -0.0009802097080944413 -0.009464403071364466 0.0 0.0
0.0 0.039015104427555944 0.03347010784837046 -0.03241104298946933 -0.0010590648589011028 -0.012118657303449357 0.0 0.0
0.0 0.05083862095543426 0.043505624856276924 -0.04236369451310996 -0.0011419303431669668 -0.014745665683063649 0.0 0.0
0.0 0.06358086161910234 0.05462088461190699 -0.05339960136655155 -0.0012212832453554364 -0.017405470430043223 0.0 0.0
0.0 0.07778335741374084 0.06673549403338694 -0.06544536247339222 -0.0012901315599946907 -0.020061646665681086 0.0 0.0
0.0 0.09288517012374367 0.07965940244938424 -0.07831394141773851 -0.0013454610316456983 -0.022502532800988018 0.0 0.0
0.0 0.10820747460906333 0.09301649374589883 -0.09163369655468404 -0.0013827971912147709 -0.02431934352339989 0.0 0.0
0.0 0.12333567489813849 0.10612794017410403 -0.10473704954678328 -0.0013908906273208117 -0.024864737291521843 0.0 0.0
0.0 0.13691437687775168 0.11793197168455655 -0.11656914347860468 -0.0013628282059517638 -0.023123549136530586 0.0 0.0
0.0 0.1473204802093995 0.127047647904552 -0.12573060839406264 -0.0013170395104892922 -0.01771918469574225 0.0 0.0
0.0 0.15297285191145027 0.1312475890672749 -0.13041175108791758 -0.000835837979357272 2.43459766235965e-14 0.0 0.0
0.0 0.14732048020937952 0.1270476479045322 -0.12573060839404246 -0.0013170395104896337 0.017719184695797474 0.0 0.0
0.0 0.1369143768777105 0.11793197168451856 -0.11656914347856667 -0.0013628282059517847 0.023123549136584074 0.0 0.0
0.0 0.12333567489808185 0.10612794017405408 -0.1047370495467326 -0.0013908906273215605 0.024864737291553744 0.0 0.0
0.0 0.10820747460899657 0.09301649374584117 -0.09163369655462708 -0.0013827971912140397 0.024319343523404823 0.0 0.0
0.0 0.09288517012367131 0.07965940244932192 -0.07831394141767577 -0.0013454610316461413 0.022502532800978095 0.0 0.0
0.0 0.0777833574136643 0.06673549403332091 -0.06544536247332627 -0.0012901315599946359 0.02006164666566967 0.0 0.0
0.0 0.06358086161903308 0.05462088461184689 -0.05339960136649191 -0.0012212832453549513 0.017405470430034257 0.0 0.0
0.0 0.05083862095536401 0.043505624856216306 -0.04236369451304963 -0.0011419303431666108 0.014745665683049601 0.0 0.0
0.0 0.0390151044274932 0.03347010784831641 -0.03241104298941597 -0.0010590648589004447 0.012118657303429968 0.0 0.0
0.0 0.028530622581081962 0.02453681701296749 -0.02355660730487372 -0.0009802097080937786 0.009464403071344586 0.0 0.0
0.0 0.019424674995727077 0.016781705538184064 -0.015876762753257216 -0.0009049427849268365 0.006808282587981256 0.0 0.0
0.0 0.011901124852430427 0.010365179727798086 -0.009547196378981895 -0.0008179833488161863 0.00434204650387897 0.0 0.0
0.0 0.006177082477501251 0.005464432327832445 -0.00479019138315815 -0.0006742409446742957 0.0022700223685483824 0.0 0.0
0.0 0.0026180084728029285 0.002180713915451838 -0.0017670717678859582 -0.00041364214756588056 0.0008348024780975292 0.0 0.0
0.0 0.0005815994007329477 0.000483247012855731 -0.0003588838392328931 -0.00012436317362283787 0.00015382456765956602 0.0 0.0
0.0 -1.2529281459284666e-05 -8.95557693551558e-07 2.973095168188466e-06 -2.0775374746369537e-06 -1.7353186540133883e-05 0.0 0.0
0.0 -3.5458727796460485e-07 8.143749225751238e-08 -6.218013438147144e-08 -1.9257357876047382e-08 2.1770895494136638e-08 0.0 0.0
0.0 0.0 0.0 0.0 0.0 0.0 0.0 0.0
0.0 0.0016327455838218263 0.0008051868206329553 -0.0004240300491783519 -0.0003811567714546014 0.002576986785606331 0.0 0.0
0.0 0.0064752610954061235 0.0046147910179491205 -0.006348782398305358 0.0017339913803562262 0.0028688777859675013 0.0 0.0
0.0 0.004730672583320057 0.0032622403407867977 -0.004563063281399322 0.001300822940612522 -0.002252117665953821 0.0 0.0
0.0 0.0010051344366069984 0.0005026427440102186 -0.00025693224093828416 -0.00024571050307193443 -0.0017637132823987284 0.0 0.0
0.0 0.0 0.0 0.0 0.0 0.0 0.0 0.0
0.0 -3.915484027466605e-07 5.973133053746563e-08 -4.565642524825301e-08 -1.4074905289212637e-08 -1.0647571377129076e-07 0.0 0.0
0.0 -2.0154437513736964e-05 -1.5344426324652573e-05 1.244319702973152e-05 2.901229294921061e-06 2.3099040646459316e-05 0.0 0.0
0.0 0.00022062931477308468 0.00020303135217269094 -0.00014668235380331784 -5.634899836937316e-05 -9.963294666389897e-05 0.0 0.0
0.0 0.0015535884040883189 0.0013733536714541834 -0.0010818834495819375 -0.00029147022187224643 -0.0007696134581129234 0.0 0.0
0.0 0.0047751541089364555 0.0039033887454366385 -0.0033366226102425284 -0.0005667661351941048 -0.0021634097095378046 0.0 0.0
0.0 0.009150688888084105 0.007956022153293194 -0.007215485799284641 -0.0007405363540085529 -0.004395126776322098 0.0 0.0
0.0 0.015647824598417494 0.013325741321553421 -0.01249210264535068 -0.0008336386762027355 -0.007090175785873461 0.0 0.0
0.0 0.023322094351353975 0.019817219525276715 -0.018912571591868023 -0.0009046479334086827 -0.00996200951392528 0.0 0.0
0.0 0.03210344539369234 0.027264816406249646 -0.026287909325197943 -0.0009769070810516718 -0.012827885510147385 0.0 0.0
0.0 0.0419158717253622 0.035604107412408124 -0.03455079898229694 -0.0010533084301112005 -0.01565560915223618 0.0 0.0
0.0 0.05284104438086873 0.04483853902256965 -0.04371249123939574 -0.0011260477831739474 -0.018508456094691456 0.0 0.0
0.0 0.06462566457409728 0.05495050821281867 -0.05375974255861285 -0.0011907656542058333 -0.021357734745811215 0.0 0.0
0.0 0.07716584428007518 0.06581933637958506 -0.06457497210069006 -0.0012443642788949934 -0.02398031211388976 0.0 0.0
0.0 0.0906494536911169 0.07717777464141756 -0.07589339865556184 -0.0012843759858557036 -0.026008008579578447 0.0 0.0
0.0 0.10371493254692855 0.08856834257759247 -0.0872620052000631 -0.0013063373775294115 -0.02685171270984709 0.0 0.0
0.0 0.11572453116144717 0.09920916452214969 -0.09791347628623154 -0.0012956882359182293 -0.02531303335793722 0.0 0.0
0.0 0.12567385040896684 0.107945220112016 -0.10668924140887605 -0.0012559787031398404 -0.019568948915663884 0.0 0.0
0.0 0.13172008386075737 0.11233383044275587 -0.11170493826538505 -0.0006288921773707487 2.511706120866819e-14 0.0 0.0
0.0 0.12567385040894954 0.10794522011199752 -0.10668924140885708 -0.001255978703140508 0.019568948915720183 0.0 0.0
0.0 0.11572453116141714 0.09920916452212011 -0.09791347628620271 -0.0012956882359174637 0.025313033357993182 0.0 0.0
0.0 0.10371493254688088 0.08856834257754967 -0.08726200520001992 -0.0013063373775296415 0.02685171270988001 0.0 0.0
0.0 0.09064945369105837 0.07717777464136735 -0.07589339865551199 -0.0012843759858553814 0.026008008579582194 0.0 0.0
0.0 0.07716584428001402 0.0658193363795324 -0.06457497210063728 -0.0012443642788951602 0.02398031211387989 0.0 0.0
0.0 0.06462566457403472 0.054950508212764815 -0.053759742558559295 -0.001190765654205502 0.02135773474579829 0.0 0.0
0.0 0.052841044380810796 0.04483853902251926 -0.0437124912393456 -0.001126047783173699 0.01850845609468072 0.0 0.0
0.0 0.041915871725304824 0.03560410741235927 -0.03455079898224819 -0.0010533084301110594 0.015655609152222066 0.0 0.0
0.0 0.032103445393636645 0.027264816406202465 -0.026287909325151085 -0.0009769070810513789 0.012827885510126875 0.0 0.0
0.0 0.02332209435130551 0.019817219525236133 -0.018912571591828502 -0.0009046479334076317 0.009962009513901915 0.0 0.0
0.0 0.01564782459838075 0.013325741321522224 -0.012492102645319888 -0.0008336386762023222 0.007090175785854539 0.0 0.0
0.0 0.00915068888805478 0.007956022153267768 -0.007215485799260023 -0.0007405363540077529 0.0043951267763077595 0.0 0.0
0.0 0.00477515410891736 0.003903388745421359 -0.0033366226102282672 -0.000566766135193088 0.0021634097095287325 0.0 0.0
0.0 0.0015535884040798257 0.0013733536714475145 -0.0010818834495763983 -0.0002914702218711166 0.0007696134581087975 0.0 0.0
0.0 0.00022062931477065655 0.0002030313521711371 -0.00014668235380221694 -5.634899836892007e-05 9.96329466633274e-05 0.0 0.0
0.0 -2.0154437514190272e-05 -1.5344426324186596e-05 1.2443197029385241e-05 2.901229294801326e-06 -2.3099040645960837e-05 0.0 0.0
0.0 -3.91548402581975e-07 5.973133053955643e-08 -4.565642524977909e-08 -1.4074905289774195e-08 1.0647571376820512e-07 0.0 0.0
0.0 0.0 0.0 0.0 0.0 0.0 0.0 0.0
0.0 0.0010051344366011506 0.0005026427440075129 -0.0002569322409364861 -0.00024571050307102636 0.0017637132823908966 0.0 0.0
0.0 0.004730672583306738 0.0032622403407763386 -0.004563063281385472 0.0013008229406091323 0.0022521176659466564 0.0 0.0
0.0 0.0031578334620197533 0.002190017650862429 -0.0031073091514659357 0.0009172915006035038 -0.0016806231823651395 0.0 0.0
0.0 0.0006260246099370633 0.0002733008790028994 -0.00012507440622396053 -0.00014822647277893834 -0.0010971546130995572 0.0 0.0
0.0 2.9041076945466384e-07 -3.4488798683329004e-09 2.6803405111441826e-09 7.685393571887485e-10 5.864590140692222e-08 0.0 0.0
0.0 -3.9933846218285653e-07 2.3010864123224606e-08 -1.7665084308602554e-08 -5.345779814626124e-09 -7.114747973550936e-08 0.0 0.0
0.0 -9.461704942917413e-06 -6.508876582829953e-06 5.192787139378023e-06 1.316089443451977e-06 1.3913010718681761e-05 0.0 0.0
0.0 4.016205133347361e-05 3.716309077944868e-05 -2.416852792984269e-05 -1.2994562849605937e-05 -1.3291079173342104e-05 0.0 0.0
0.0 0.0008838826765747223 0.0007204448709796108 -0.0005534005626378698 -0.00016704430834174128 -0.0005844896687315065 0.0 0.0
0.0 0.0030007986192878036 0.0025335346723767966 -0.002102488029711624 -0.0004310466426651732 -0.0018896476000509227 0.0 0.0
0.0 0.007056018352543529 0.005634092256222241 -0.004999128829619752 -0.000634963426602487 -0.003981699528307176 0.0 0.0
0.0 0.011803415778498787 0.00994229099997848 -0.009195529271670635 -0.0007467617283078468 -0.006707770695537196 0.0 0.0
0.0 0.01818337041609382 0.015157216544536143 -0.014338484784960656 -0.0008187317595754991 -0.009623073112450748 0.0 0.0
0.0 0.025297550712428965 0.0211154411005978 -0.020230156244139787 -0.0008852848564580348 -0.01252564143099295 0.0 0.0
0.0 0.03317703546174346 0.0277607046550375 -0.026806085536180333 -0.0009546191188571335 -0.015371820619075488 0.0 0.0
0.0 0.04189126132483662 0.035120292011456423 -0.034098975999089225 -0.001021316012367218 -0.018229733976737484 0.0 0.0
0.0 0.05140540996153341 0.04321930850472816 -0.04213838652808603 -0.0010809219766421043 -0.021082734593295138 0.0 0.0
0.0 0.061973178088787786 0.0520054873283415 -0.05087526860306481 -0.0011302187252767413 -0.023738957354529654 0.0 0.0
0.0 0.07249120558470219 0.06132403480738275 -0.06014984998840962 -0.00117418481897315 -0.025843730482420668 0.0 0.0
0.0 0.08378991373741523 0.07091181987283861 -0.0696987292639653 -0.001213090608873186 -0.026932187209866114 0.0 0.0
0.0 0.0947367157621301 0.08034255181573768 -0.07911892292680876 -0.0012236288889290038 -0.025904194371141734 0.0 0.0
0.0 0.10415318903997701 0.08876020134223567 -0.08756981134052073 -0.0011903900017149395 -0.02062075555175598 0.0 0.0
0.0 0.11082306721245086 0.09342816076561634 -0.09303487951519035 -0.00039328125042601504 2.336672522140759e-14 0.0 0.0
0.0 0.10415318903996534 0.08876020134222101 -0.08756981134050604 -0.0011903900017150451 0.02062075555181183 0.0 0.0
0.0 0.09473671576210789 0.0803425518157142 -0.07911892292678571 -0.0012236288889284944 0.02590419437119874 0.0 0.0
0.0 0.08378991373738101 0.07091181987280654 -0.06969872926393395 -0.00121309060887261 0.026932187209900083 0.0 0.0
0.0 0.07249120558465613 0.06132403480734339 -0.0601498499883707 -0.0011741848189726917 0.02584373048242393 0.0 0.0
0.0 0.06197317808873434 0.052005487328296324 -0.05087526860301906 -0.0011302187252773112 0.02373895735451598 0.0 0.0
0.0 0.05140540996148904 0.043219308504689226 -0.04213838652804803 -0.0010809219766411819 0.02108273459328404 0.0 0.0
0.0 0.04189126132479218 0.035120292011417906 -0.034098975999051276 -0.0010213160123666355 0.018229733976726677 0.0 0.0
0.0 0.03317703546169895 0.027760704654999628 -0.026806085536143155 -0.0009546191188565026 0.015371820619062839 0.0 0.0
0.0 0.025297550712387283 0.02111544110056316 -0.020230156244105603 -0.0008852848564575802 0.01252564143097461 0.0 0.0
0.0 0.01818337041605549 0.015157216544505043 -0.01433848478493001 -0.0008187317595750396 0.009623073112427794 0.0 0.0
0.0 0.011803415778467743 0.009942290999953085 -0.009195529271645417 -0.0007467617283076691 0.006707770695517309 0.0 0.0
0.0 0.00705601835251834 0.005634092256202535 -0.00499912882960097 -0.0006349634266015618 0.003981699528293184 0.0 0.0
0.0 0.0030007986192736934 0.002533534672365348 -0.002102488029701381 -0.00043104664266396445 0.001889647600043062 0.0 0.0
0.0 0.0008838826765690211 0.000720444870975739 -0.0005534005626348787 -0.0001670443083408598 0.0005844896687283956 0.0 0.0
0.0 4.016205133204536e-05 3.7163090778873374e-05 -2.4168527929432995e-05 -1.2994562849440566e-05 1.3291079173014961e-05 0.0 0.0
0.0 -9.461704943800833e-06 -6.508876582819519e-06 5.19278713936555e-06 1.3160894434539676e-06 -1.3913010718582044e-05 0.0 0.0
0.0 -3.9933846203843063e-07 2.3010864114477826e-08 -1.766508430182229e-08 -5.345779812654833e-09 7.114747970917023e-08 0.0 0.0
0.0 2.9041076910978675e-07 -3.44887986405181e-09 2.6803405077244864e-09 7.685393563274542e-10 -5.8645901335916544e-08 0.0 0.0
0.0 0.000626024609932355 0.00027330087900096704 -0.0001250744062226615 -0.00014822647277830533 0.0010971546130935199 0.0 0.0
0.0 0.0031578334620096 0.0021900176508545294 -0.003107309151455162 0.0009172915006006347 0.0016806231823600002 0.0 0.0
0.0 0.0023747794898147413 0.0013158020361351904 -0.001890570681593695 0.0005747686454585037 -0.0011351594622245166 0.0 0.0
0.0 0.0002441881274477211 0.00011824746891602845 -3.9156566768379945e-05 -7.909090214764874e-05 -0.0005890562488744538 0.0 0.0
0.0 5.341244410789471e-07 2.3707003709806972e-08 -2.4431314461563155e-08 7.243107517568514e-10 -4.7180155865073234e-07 0.0 0.0
0.0 -7.124086811531736e-07 3.085052028970247e-08 -2.3864168568420648e-08 -6.986351721282108e-09 -1.939551598800686e-07 0.0 0.0
0.0 -5.996340649049746e-06 -3.450423206837208e-06 2.7340946472002686e-06 7.16328559636945e-07 1.1700219597001175e-05 0.0 0.0
0.0 -2.0792459266265365e-05 -1.2621694241447714e-05 1.118369615795688e-05 1.437998083490814e-06 3.0155737473912685e-05 0.0 0.0
0.0 0.00036541561027492593 0.00027048905797153887 -0.00020368461561911098 -6.68044423524275e-05 -0.00034165185734677604 0.0 0.0
0.0 0.001704232704815169 0.0013708425512985768 -0.0011037671081852332 -0.0002670754431133434 -0.0014419063126965008 0.0 0.0
0.0 0.004412824532582802 0.003526278761761179 -0.003038491650887802 -0.0004877871108733763 -0.0032499079070507663 0.0 0.0
0.0 0.008565408065404657 0.0066787765520857885 -0.006051228010321052 -0.0006275485417647288 -0.00567776261818131 0.0 0.0
0.0 0.013142620444964084 0.01060007623850359 -0.00988930682843457 -0.0007107694100690169 -0.008426582753060973 0.0 0.0
0.0 0.01851669173805144 0.01506941118964156 -0.014292705320453247 -0.0007767058691883269 -0.011177780195079055 0.0 0.0
0.0 0.02453396137161758 0.020026800953655128 -0.019186606189380805 -0.0008401947642743098 -0.01386861537189003 0.0 0.0
0.0 0.03111515955291018 0.025513888309055096 -0.02461453300608961 -0.0008993553029654695 -0.016545088271082996 0.0 0.0
0.0 0.03846844596870587 0.031593093813264084 -0.030639348842418167 -0.0009537449708459166 -0.019220160673078246 0.0 0.0
0.0 0.04638371175946804 0.038284233384738686 -0.03728386219124188 -0.001000371193496779 -0.021746393095663837 0.0 0.0
0.0 0.05506832844565649 0.04550728912517809 -0.044464813514264664 -0.0010424756109133982 -0.02379379405885986 0.0 0.0
0.0 0.06392764247916743 0.05318343019941965 -0.052087012078714065 -0.0010964181207055587 -0.024986510800647475 0.0 0.0
0.0 0.07302409917525746 0.061264179531184515 -0.06012367163355996 -0.0011405078976245546 -0.02467277121877432 0.0 0.0
0.0 0.08221575022246418 0.0693199392197277 -0.06819700628311232 -0.0011229329366154082 -0.02072210662891348 0.0 0.0
0.0 0.08982291797286518 0.07434239879988787 -0.07421785652509827 -0.00012454227478966804 2.052004399732965e-14 0.0 0.0
0.0 0.08221575022245775 0.0693199392197167 -0.0681970062831011 -0.0011229329366154773 0.020722106628965613 0.0 0.0
0.0 0.07302409917524055 0.06126417953116484 -0.06012367163354071 -0.0011405078976241408 0.024672771218828667 0.0 0.0
0.0 0.06392764247914196 0.0531834301993951 -0.05208701207869015 -0.001096418120704987 0.024986510800678628 0.0 0.0
0.0 0.055068328445620755 0.04550728912514767 -0.044464813514235 -0.0010424756109126336 0.023793794058862137 0.0 0.0
0.0 0.046383711759429014 0.038284233384706295 -0.037283862191209535 -0.0010003711934968094 0.021746393095649973 0.0 0.0
0.0 0.03846844596867124 0.0315930938132343 -0.030639348842389082 -0.0009537449708451881 0.019220160673066988 0.0 0.0
0.0 0.03111515955287602 0.025513888309026064 -0.024614533006061107 -0.0008993553029649713 0.016545088271072646 0.0 0.0
0.0 0.02453396137158484 0.020026800953628063 -0.019186606189354048 -0.0008401947642739958 0.013868615371877831 0.0 0.0
0.0 0.01851669173802211 0.015069411189617405 -0.01429270532042957 -0.0007767058691878455 0.01117778019506305 0.0 0.0
0.0 0.013142620444936219 0.010600076238481826 -0.009889306828413512 -0.0007107694100682997 0.008426582753040798 0.0 0.0
0.0 0.00856540806538145 0.006678776552068067 -0.0060512280103036005 -0.0006275485417644656 0.005677762618163891 0.0 0.0
0.0 0.004412824532566964 0.003526278761748851 -0.003038491650876513 -0.00048778711087234044 0.0032499079070403927 0.0 0.0
0.0 0.0017042327048051014 0.001370842551290798 -0.0011037671081786113 -0.00026707544311218635 0.001441906312689342 0.0 0.0
0.0 0.00036541561027116385 0.0002704890579689721 -0.00020368461561712047 -6.680444235185144e-05 0.0003416518573436427 0.0 0.0
0.0 -2.079245926684715e-05 -1.2621694241023566e-05 1.1183696157624073e-05 1.4379980833995323e-06 -3.0155737472810025e-05 0.0 0.0
0.0 -5.996340649594088e-06 -3.4504232068831108e-06 2.7340946472370337e-06 7.163285596460691e-07 -1.170021959721443e-05 0.0 0.0
0.0 -7.124086814854706e-07 3.085052029967172e-08 -2.386416857524915e-08 -6.986351724422474e-09 1.939551600086797e-07 0.0 0.0
0.0 5.341244408952348e-07 2.370700373711664e-08 -2.4431314489300367e-08 7.243107521841479e-10 4.718015592409271e-07 0.0 0.0
0.0 0.0002441881274448846 0.0001182474689148862 -3.9156566767654926e-05 -7.909090214723135e-05 0.0005890562488701104 0.0 0.0
0.0 0.002374779489805413 0.0013158020361294699 -0.001890570681585659 0.0005747686454561886 0.0011351594622206389 0.0 0.0
0.0 0.0011946112803773497 0.0007066042828659472 -0.0010276280791009452 0.000321023796234998 -0.0007432306555543848 0.0 0.0
0.0 6.79129184232141e-05 1.9904988553318683e-05 1.855701250542009e-05 -3.846200105873881e-05 -0.0002168941177557182 0.0 0.0
0.0 1.9729874015930255e-06 -9.645431660723137e-10 1.043083707591237e-08 -9.46629390983914e-09 5.336742813047842e-07 0.0 0.0
0.0 1.4772181826929847e-06 -5.9168405152897015e-08 4.114858303329953e-08 1.8019822119597338e-08 8.270265433946315e-07 0.0 0.0
0.0 -6.0332040384430555e-06 -1.9176944506219503e-06 1.5018476238645145e-06 4.1584682675743585e-07 1.0494852543494122e-05 0.0 0.0
0.0 -2.308044355588534e-05 -9.142232672614062e-06 7.603639530452936e-06 1.5385931421611335e-06 2.294153222861265e-05 0.0 0.0
0.0 0.00010423528215039052 4.208920539820078e-05 -3.1011980219694474e-05 -1.107722517850639e-05 -0.00011809627219676041 0.0 0.0
0.0 0.0008029144257527534 0.0004895718418260463 -0.0003885046937698034 -0.00010106714805624326 -0.0008486144602458144 0.0 0.0
0.0 0.002354583531852615 0.0016916947748940848 -0.0014140099765953117 -0.00027768479829877224 -0.002258058641735835 0.0 0.0
0.0 0.004989373433538375 0.003668213614969183 -0.0032282579452059127 -0.0004399556697632706 -0.004153808084165755 0.0 0.0
0.0 0.008137908001886409 0.006237094858953738 -0.005687687034869264 -0.0005494078240844736 -0.0064216401586340635 0.0 0.0
0.0 0.011917352420100497 0.009194414364077452 -0.008570684798831076 -0.0006237295652463697 -0.008775123545620144 0.0 0.0
0.0 0.016028572819705163 0.01246945121581342 -0.011781988599887381 -0.0006874626159260407 -0.011135169589104384 0.0 0.0
0.0 0.02053321343245114 0.016095209368606728 -0.015354240472717143 -0.0007409688958895913 -0.013475085359457276 0.0 0.0
0.0 0.025583156814193504 0.020151068077370455 -0.019361324446628875 -0.0007897436307415821 -0.015794443814530025 0.0 0.0
0.0 0.031252223592048115 0.024720339461161103 -0.02388521696923122 -0.0008351224919298823 -0.018045728397937576 0.0 0.0
0.0 0.037471989581065776 0.029827441435358974 -0.02894918767582018 -0.0008782537595387747 -0.01997862840184418 0.0 0.0
0.0 0.04401571669472638 0.03548317920957313 -0.03455062264029048 -0.0009325565692827154 -0.021168059128006726 0.0 0.0
0.0 0.05142300666723571 0.04193902651557134 -0.04092536876705698 -0.0010136577485143137 -0.02133493490509398 0.0 0.0
0.0 0.06016891732233506 0.049423747034103134 -0.04837518069636373 -0.0010485663377394032 -0.019457566701070992 0.0 0.0
0.0 0.06880777141107794 0.05485718483118698 -0.055037340815906416 0.00018015598471938452 1.7752292691408655e-14 0.0 0.0
0.0 0.06016891732233264 0.0494237470340948 -0.04837518069635462 -0.001048566337740154 0.019457566701115838 0.0 0.0
0.0 0.05142300666722544 0.041939026515557226 -0.04092536876704329 -0.0010136577485139128 0.021334934905141784 0.0 0.0
0.0 0.044015716694705845 0.03548317920955459 -0.034550622640271346 -0.0009325565692832345 0.021168059128031033 0.0 0.0
0.0 0.03747198958103771 0.029827441435336933 -0.02894918767579844 -0.0008782537595385051 0.019978628401840726 0.0 0.0
0.0 0.03125222359202392 0.02472033946114187 -0.0238852169692117 -0.0008351224919301368 0.018045728397925023 0.0 0.0
0.0 0.025583156814168242 0.020151068077349916 -0.019361324446608656 -0.0007897436307412613 0.01579444381451791 0.0 0.0
0.0 0.020533213432427155 0.016095209368586695 -0.015354240472697622 -0.0007409688958890852 0.013475085359448755 0.0 0.0
0.0 0.01602857281968831 0.012469451215799721 -0.011781988599874149 -0.0006874626159255747 0.011135169589097499 0.0 0.0
0.0 0.011917352420077387 0.009194414364060323 -0.008570684798814345 -0.0006237295652459681 0.008775123545604122 0.0 0.0
0.0 0.008137908001866557 0.006237094858939003 -0.005687687034854953 -0.0005494078240840445 0.006421640158617074 0.0 0.0
0.0 0.004989373433521502 0.0036682136149570866 -0.0032282579451945277 -0.0004399556697625605 0.004153808084151761 0.0 0.0
0.0 0.002354583531843187 0.001691694774887635 -0.0014140099765894863 -0.0002776847982981483 0.002258058641727835 0.0 0.0
0.0 0.0008029144257457406 0.000489571841821477 -0.0003885046937660601 -0.00010106714805541664 0.0008486144602390367 0.0 0.0
0.0 0.00010423528214761288 4.208920539762403e-05 -3.101198021926382e-05 -1.1077225178360186e-05 0.00011809627219517395 0.0 0.0
0.0 -2.3080443555703715e-05 -9.142232672032704e-06 7.603639530006718e-06 1.538593142025957e-06 -2.2941532226347513e-05 0.0 0.0
0.0 -6.033204038315149e-06 -1.9176944504898204e-06 1.5018476237676166e-06 4.1584682672221505e-07 -1.0494852542302288e-05 0.0 0.0
0.0 1.4772181820114886e-06 -5.916840519522725e-08 4.1148583064959376e-08 1.8019822130268742e-08 -8.270265438227989e-07 0.0 0.0
0.0 1.9729874015263835e-06 -9.645431483045592e-10 1.0430837054612079e-08 -9.46629390630713e-09 -5.336742806921868e-07 0.0 0.0
0.0 6.791291842078176e-05 1.9904988552853994e-05 1.8557012505652406e-05 -3.8462001058506254e-05 0.00021689411775351714 0.0 0.0
0.0 0.0011946112803710566 0.0007066042828624378 -0.0010276280790958924 0.00032102379623345415 0.0007432306555515932 0.0 0.0
0.0 0.0005494064233378029 0.00028385622605881964 -0.00041613704740762407 0.00013228082134880454 -0.00036889036016975066 0.0 0.0
0.0 -2.7047926456154286e-05 -1.8932076320938323e-05 3.457326897086014e-05 -1.564119264992185e-05 -8.676011429701716e-06 0.0 0.0
0.0 1.949648543364365e-06 1.8528339816869566e-08 -4.577705557087562e-08 2.7248715754006568e-08 -1.3327441474703332e-06 0.0 0.0
0.0 5.773278991691639e-07 -4.515940312303507e-08 3.763812379314052e-08 7.521279329892557e-09 -5.616680822970026e-07 0.0 0.0
0.0 -4.5074642698568165e-06 -7.534997543893475e-07 6.162084542410143e-07 1.3729130014834113e-07 7.957882959996481e-06 0.0 0.0
0.0 -8.334176241813756e-06 -3.84917230725608e-06 3.2300469843375136e-06 6.191253229185368e-07 1.8288940161038104e-05 0.0 0.0
0.0 4.5131875998397036e-05 -4.96120293487031e-07 6.947150662895138e-07 -1.9859477280244826e-07 -5.700362687855213e-05 0.0 0.0
0.0 0.00023343932446415075 4.9319279427044986e-05 -4.1466730126129504e-05 -7.85254930091552e-06 -0.0003536332553748654 0.0 0.0
0.0 0.000792950540636738 0.0003276813108499904 -0.00028768252382475103 -3.999878702523902e-05 -0.0011165973711621303 0.0 0.0
0.0 0.001959934076666735 0.0010599346013659497 -0.0009477948638887589 -0.00011213973747719187 -0.0023910205388367814 0.0 0.0
0.0 0.003815052537310172 0.002237165883422405 -0.002032356595037266 -0.00020480928838513695 -0.003983527167624836 0.0 0.0
0.0 0.005748280249992887 0.003664174165801255 -0.003376139716582438 -0.0002880344492188221 -0.0057559507869647565 0.0 0.0
0.0 0.00804244658174116 0.005252877014289362 -0.004892076432608394 -0.00036080058168096076 -0.007621221707517821 0.0 0.0
0.0 0.010619851560021718 0.007030901889649366 -0.006608793581808577 -0.0004221083078407894 -0.009551374408409362 0.0 0.0
0.0 0.013497969582098594 0.009070016459260954 -0.008591329767350173 -0.00047868669191078586 -0.01154041201196743 0.0 0.0
0.0 0.016823707818628235 0.011489372712855543 -0.010953562463959997 -0.0005358102488955388 -0.013573823104164261 0.0 0.0
0.0 0.020767252376709407 0.014439180439349601 -0.013842758165599756 -0.0005964222737498514 -0.01550007605048655 0.0 0.0
0.0 0.025372614588819727 0.018049596621016198 -0.017391328149241162 -0.0006582684717750322 -0.016832042007005152 0.0 0.0
0.0 0.030660658751641305 0.022593668502868033 -0.021850282865305045 -0.0007433856375630048 -0.01702411453809552 0.0 0.0
0.0 0.03773953380690167 0.028953788219624604 -0.02805673736008662 -0.0008970508595379476 -0.016460452118075758 0.0 0.0
0.0 0.04880530515498999 0.03471887090718865 -0.035256127103538655 0.000537256196350024 1.4637596690292298e-14 0.0 0.0
0.0 0.037739533806907456 0.028953788219622075 -0.028056737360083326 -0.000897050859538796 0.01646045211811508 0.0 0.0
0.0 0.030660658751634203 0.0225936685028587 -0.02185028286529596 -0.0007433856375627633 0.017024114538128726 0.0 0.0
0.0 0.025372614588806845 0.018049596621005932 -0.017391328149231017 -0.0006582684717749041 0.016832042007020365 0.0 0.0
0.0 0.02076725237669073 0.014439180439338329 -0.01384275816558963 -0.0005964222737487195 0.015500076050478774 0.0 0.0
0.0 0.016823707818615044 0.011489372712846585 -0.01095356246395108 -0.0005358102488955093 0.013573823104153619 0.0 0.0
0.0 0.013497969582085077 0.009070016459251038 -0.008591329767340235 -0.0004786866919108075 0.011540412011957565 0.0 0.0
0.0 0.010619851560008334 0.0070309018896408115 -0.006608793581799903 -0.0004221083078409157 0.00955137440840121 0.0 0.0
0.0 0.008042446581731023 0.0052528770142832954 -0.004892076432602907 -0.00036080058168039037 0.007621221707509985 0.0 0.0
0.0 0.00574828024997898 0.00366417416579268 -0.0033761397165739744 -0.00028803444921870585 0.005755950786951941 0.0 0.0
0.0 0.0038150525373016448 0.0022371658834185533 -0.002032356595033267 -0.00020480928838528594 0.0039835271676135825 0.0 0.0
0.0 0.0019599340766580367 0.001059934601360974 -0.0009477948638838969 -0.00011213973747707816 0.0023910205388283597 0.0 0.0
0.0 0.0007929505406334728 0.0003276813108485407 -0.0002876825238234361 -3.999878702510384e-05 0.0011165973711577102 0.0 0.0
0.0 0.00023343932446154392 4.931927942627273e-05 -4.146673012543097e-05 -7.852549300841844e-06 0.0003536332553714766 0.0 0.0
0.0 4.513187599765672e-05 -4.961202933188489e-07 6.947150661641394e-07 -1.9859477284526893e-07 5.700362687890228e-05 0.0 0.0
0.0 -8.334176243013532e-06 -3.849172307255751e-06 3.2300469843330993e-06 6.191253229226515e-07 -1.8288940160837804e-05 0.0 0.0
0.0 -4.507464269772706e-06 -7.534997543563416e-07 6.162084542202532e-07 1.372913001360851e-07 -7.957882959054174e-06 0.0 0.0
0.0 5.773278992537393e-07 -4.5159403140594665e-08 3.763812381244003e-08 7.521279328155305e-09 5.616680832399671e-07 0.0 0.0
0.0 1.949648543328175e-06 1.8528339822986242e-08 -4.577705559160666e-08 2.724871576861692e-08 1.3327441483340755e-06 0.0 0.0
0.0 -2.704792645717454e-05 -1.893207632092318e-05 3.457326897073198e-05 -1.5641192649808742e-05 8.676011428985111e-06 0.0 0.0
0.0 0.0005494064233335822 0.00028385622605683463 -0.00041613704740473304 0.000132280821347898 0.0003688903601675891 0.0 0.0
0.0 0.00010732337493908243 6.17150478506009e-05 -9.241386222869109e-05 3.069881437809013e-05 -9.962795780446264e-05 0.0 0.0
0.0 -1.82768506084065e-05 -1.0375622879191102e-05 1.4553041036970688e-05 -4.177418157779568e-06 2.0006611094606065e-05 0.0 0.0
0.0 3.3086006941755875e-06 1.2074132665206799e-07 -7.821790716332332e-08 -4.2523419488748546e-08 3.1500871950286013e-06 0.0 0.0
0.0 1.706904522032797e-06 -1.2471681281402177e-07 9.989921790857457e-08 2.4817594905449826e-08 -1.443476593719433e-06 0.0 0.0
0.0 -1.8734960471176301e-06 -1.8771214681487665e-07 1.8559850479733924e-07 2.1136420175365664e-09 2.955866068507715e-06 0.0 0.0
0.0 3.108287424051452e-07 -8.774537615508266e-07 9.107470387025859e-07 -3.329327715175954e-08 7.6175081501179574e-06 0.0 0.0
0.0 5.497219633307126e-05 -1.51519412796729e-06 1.516561453091269e-06 -1.3673251239929603e-09 -7.139283498703668e-05 0.0 0.0
0.0 0.0001695939946302074 -1.0652892610636197e-06 1.022411129910187e-06 4.2878131153478526e-08 -0.00029091888026150543 0.0 0.0
0.0 0.0004016192636099536 -2.5799359674065997e-07 2.3918332065207034e-07 1.881027608854516e-08 -0.0006185835223682292 0.0 0.0
0.0 0.0006625579516351071 4.799859402094457e-08 -1.7544970923677266e-08 -3.045362309740283e-08 -0.001238457510051196 0.0 0.0
0.0 0.0011912703364478506 6.44505623116512e-07 -8.286669473261965e-07 1.8416132420986063e-07 -0.002248815960669117 0.0 0.0
0.0 0.001926508551889355 -5.755312680363726e-06 7.764118695863172e-06 -2.0088060154990935e-06 -0.0037877763309350303 0.0 0.0
0.0 0.0030232390974266597 -1.935917234034614e-05 2.301049035860627e-05 -3.6513180182594682e-06 -0.0055139621285354365 0.0 0.0
0.0 0.004299473544301361 -3.143047086733356e-05 3.3924659397746755e-05 -2.4941885304135506e-06 -0.007348863054612448 0.0 0.0
0.0 0.005732158712780669 1.6519899600752285e-05 -2.4602000010861516e-05 8.08210041011037e-06 -0.00930012890355602 0.0 0.0
0.0 0.007284828542156212 0.00026512471335204935 -0.0002982863389289553 3.316162557690525e-05 -0.011369447737916198 0.0 0.0
0.0 0.009006039640829749 0.00096279343613797 -0.001041775185779544 7.898174964157762e-05 -0.013493392622688616 0.0 0.0
0.0 0.01082843190068358 0.0023390073290772357 -0.002535081366686188 0.00019607403760894595 -0.015483864117430187 0.0 0.0
0.0 0.013358363373682661 0.0040969597106047554 -0.004477626043031378 0.00038066633242662734 -0.016931162357303964 0.0 0.0
0.0 0.01943118333347376 0.008263965292828294 -0.008027115696184983 -0.00023684959664330873 -0.017307509903437476 0.0 0.0
0.0 0.034437634789035956 0.014711879176552136 -0.015812139199531013 0.0011002600229788667 1.2640062607705005e-14 0.0 0.0
0.0 0.019431183333484602 0.008263965292830251 -0.008027115696186088 -0.0002368495966441543 0.01730750990346438 0.0 0.0
0.0 0.013358363373675354 0.004096959710600416 -0.004477626043027811 0.00038066633242739187 0.016931162357311506 0.0 0.0
0.0 0.01082843190067002 0.0023390073290753366 -0.0025350813666851534 0.00019607403760981546 0.015483864117425854 0.0 0.0
0.0 0.00900603964081616 0.0009627934361388202 -0.0010417751857810294 7.89817496422124e-05 0.013493392622676901 0.0 0.0
0.0 0.007284828542150699 0.0002651247133521631 -0.0002982863389285809 3.316162557641909e-05 0.011369447737906864 0.0 0.0
0.0 0.005732158712770384 1.651989960188365e-05 -2.4602000011590642e-05 8.082100409707263e-06 0.009300128903546001 0.0 0.0
0.0 0.004299473544293891 -3.143047086392602e-05 3.3924659394023334e-05 -2.494188530097004e-06 0.007348863054603139 0.0 0.0
0.0 0.0030232390974172093 -1.9359172338228312e-05 2.3010490356512785e-05 -3.6513180182843507e-06 0.005513962128521665 0.0 0.0
0.0 0.0019265085518804475 -5.7553126790368795e-06 7.764118694414244e-06 -2.0088060153776764e-06 0.0037877763309229224 0.0 0.0
0.0 0.0011912703364440082 6.445056233037266e-07 -8.286669477438718e-07 1.841613244403349e-07 0.002248815960663183 0.0 0.0
0.0 0.0006625579516320894 4.799859374178962e-08 -1.7544970676668906e-08 -3.0453623065076666e-08 0.0012384575100485647 0.0 0.0
0.0 0.0004016192636085616 -2.579935967586696e-07 2.3918332067185026e-07 1.881027608666517e-08 0.0006185835223661625 0.0 0.0
0.0 0.00016959399462921493 -1.0652892610389403e-06 1.0224111299080377e-06 4.287813113091362e-08 0.00029091888025976204 0.0 0.0
0.0 5.4972196331834215e-05 -1.5151941280025286e-06 1.5165614531252612e-06 -1.3673251227124715e-09 7.139283498659615e-05 0.0 0.0
0.0 3.1082874130059635e-07 -8.774537615266312e-07 9.107470386853984e-07 -3.329327715877313e-08 -7.6175081497332495e-06 0.0 0.0
0.0 -1.8734960470554075e-06 -1.8771214684860343e-07 1.8559850482800223e-07 2.1136420206044205e-09 -2.955866067668683e-06 0.0 0.0
0.0 1.7069045221457632e-06 -1.247168128710856e-07 9.989921795890363e-08 2.4817594912181948e-08 1.4434765945137397e-06 0.0 0.0
0.0 3.308600692824791e-06 1.2074132666567856e-07 -7.821790717340907e-08 -4.25234194922607e-08 -3.1500871953459845e-06 0.0 0.0
0.0 -1.827685060836358e-05 -1.0375622878825922e-05 1.4553041036543849e-05 -4.1774181577179414e-06 -2.0006611093282125e-05 0.0 0.0
0.0 0.00010732337493727761 6.171504785012486e-05 -9.241386222803551e-05 3.0698814377910766e-05 9.96279578036144e-05 0.0 0.0
0.0 1.969997731238999e-06 -9.82917843555084e-07 1.1930346957238324e-06 -2.101168521687629e-07 2.575201163641206e-06 0.0 0.0
0.0 -8.078164842874866e-07 1.6346880214169105e-07 -1.7973404739964812e-07 1.6265245257959512e-08 4.6531994946037957e-07 0.0 0.0
0.0 6.491062701875637e-07 8.579774054659189e-08 -1.2293084549849813e-07 3.7133104951905743e-08 -1.2008227862667498e-06 0.0 0.0
0.0 3.7951706252057517e-06 -1.007109201662645e-07 7.023198135690574e-08 3.047893880935913e-08 -2.056439774382481e-06 0.0 0.0
0.0 1.6140602066053617e-06 -2.6839229631430746e-07 2.5591204800038575e-07 1.2480248313921736e-08 -2.3216881333637894e-06 0.0 0.0
0.0 -2.2499227647755993e-07 -1.3107408558985984e-07 3.7168940782291134e-07 -2.406153222330064e-07 -4.744575149783731e-06 0.0 0.0
0.0 7.085308521240019e-05 -3.052907814247978e-06 2.732823832368044e-06 3.2008398187987213e-07 -6.67779124352279e-05 0.0 0.0
0.0 0.0002465367906828996 -5.399824528310817e-05 4.566766872711927e-05 8.330576555988886e-06 -0.000365238779248748 0.0 0.0
0.0 0.0007964816665401418 -0.00032924778803161746 0.0002889798000765963 4.026798795502127e-05 -0.0011227506048662882 0.0 0.0
0.0 0.001957836458953303 -0.0010588535740319771 0.0009467892344747403 0.00011206433955723728 -0.002390601447748381 0.0 0.0
0.0 0.0038272642419703217 -0.002238224433654892 0.0020334411747054094 0.00020478325894948026 -0.00398059967873499 0.0 0.0
0.0 0.00578322903963888 -0.0036859173395176244 0.003394852635035054 0.0002910647044825685 -0.005760621802227104 0.0 0.0
0.0 0.008104931164588455 -0.0053087769767503675 0.0049433437395942584 0.00036543323715610744 -0.007625863167440982 0.0 0.0
0.0 0.010690012874584438 -0.007100940289873585 0.006679524992649766 0.00042141529722382266 -0.00954647468309734 0.0 0.0
0.0 0.013382883362018894 -0.00899764907582057 0.008543176483030013 0.000454472592790553 -0.011540862668900694 0.0 0.0
0.0 0.01604952914019071 -0.010805839738669427 0.010348636536111953 0.0004572032025574719 -0.013671062773347413 0.0 0.0
0.0 0.018309148539058902 -0.012178030304643405 0.011756240889433497 0.0004217894152099158 -0.015976593132332552 0.0 0.0
0.0 0.01994799602113869 -0.012653829968868005 0.012318902702341785 0.00033492726652622974 -0.018524728704873955 0.0 0.0
0.0 0.020063166056404694 -0.011696448008208158 0.011556749676437935 0.00013969833177021937 -0.02127160433289357 0.0 0.0
0.0 0.01635016559867604 -0.008460523731756736 0.008812242773124103 -0.0003517190413673655 -0.02319054728736452 0.0 0.0
0.0 0.03319207325074129 -0.004730620315941672 0.0023113643145689826 0.002419256001372683 1.624481799078481e-14 0.0 0.0
0.0 0.016350165598679748 -0.008460523731756632 0.008812242773122954 -0.00035171904136632704 0.023190547287378706 0.0 0.0
0.0 0.020063166056401936 -0.011696448008203231 0.011556749676433574 0.00013969833176965125 0.021271604332910577 0.0 0.0
0.0 0.01994799602112278 -0.012653829968856244 0.01231890270233076 0.00033492726652548473 0.018524728704873386 0.0 0.0
0.0 0.01830914853904006 -0.012178030304629743 0.011756240889420361 0.0004217894152093938 0.015976593132322865 0.0 0.0
0.0 0.016049529140169983 -0.010805839738654845 0.010348636536097047 0.000457203202557798 0.013671062773331652 0.0 0.0
0.0 0.013382883362002867 -0.008997649075807534 0.008543176483017688 0.0004544725927898419 0.011540862668889366 0.0 0.0
0.0 0.010690012874567272 -0.0071009402898601585 0.006679524992636851 0.00042141529722330886 0.009546474683086354 0.0 0.0
0.0 0.008104931164568771 -0.0053087769767361515 0.004943343739580436 0.00036543323715571794 0.007625863167427183 0.0 0.0
0.0 0.005783229039622272 -0.0036859173395062776 0.0033948526350247384 0.0002910647044815376 0.0057606218022122485 0.0 0.0
0.0 0.0038272642419534693 -0.002238224433644161 0.0020334411746952274 0.00020478325894893304 0.003980599678720355 0.0 0.0
0.0 0.0019578364589425083 -0.0010588535740252056 0.0009467892344685328 0.0001120643395566736 0.0023906014477390373 0.0 0.0
0.0 0.0007964816665355339 -0.0003292477880290444 0.00028897980007429623 4.026798795474828e-05 0.0011227506048614813 0.0 0.0
0.0 0.0002465367906809892 -5.39982452827023e-05 4.566766872682433e-05 8.330576555878022e-06 0.00036523877924676167 0.0 0.0
0.0 7.085308521092959e-05 -3.0529078143266335e-06 2.7328238324044053e-06 3.2008398192223246e-07 6.677791243486307e-05 0.0 0.0
0.0 -2.249922768529714e-07 -1.31074085760657e-07 3.716894079553985e-07 -2.4061532219473877e-07 4.744575151287735e-06 0.0 0.0
0.0 1.6140602058697117e-06 -2.6839229640315047e-07 2.5591204807528597e-07 1.2480248327854468e-08 2.321688134103954e-06 0.0 0.0
0.0 3.795170624679066e-06 -1.0071092027184549e-07 7.023198144457583e-08 3.047893882726801e-08 2.0564397753164446e-06 0.0 0.0
0.0 6.491062698023256e-07 8.579774053017544e-08 -1.2293084549439738e-07 3.713310496421741e-08 1.2008227869173067e-06 0.0 0.0
0.0 -8.07816484235017e-07 1.634688020387027e-07 -1.7973404728112145e-07 1.626524524241769e-08 -4.6531994958719015e-07 0.0 0.0
0.0 1.9699977298048942e-06 -9.829178430847198e-07 1.1930346950231295e-06 -2.1011685193839386e-07 -2.575201162641128e-06 0.0 0.0
0.0 -5.791226492451871e-07 3.285152939261595e-08 -4.863961923435168e-08 1.5788089841737027e-08 -8.324711323925468e-08 0.0 0.0
0.0 1.123189483885724e-06 3.3603216115553975e-09 1.7583683366026334e-08 -2.0944004977586526e-08 2.7453551635915124e-07 0.0 0.0
0.0 -5.63617259899415e-07 2.976736207045587e-07 -2.4358029100250945e-07 -5.4093329702058165e-08 2.1038730209758877e-06 0.0 0.0
0.0 1.7570472705338997e-06 -4.556308363269302e-07 3.547787121132795e-07 1.0085212421363863e-07 -4.058726156125616e-06 0.0 0.0
0.0 3.977796047245534e-06 2.0767029485152866e-06 -1.6970823045963332e-06 -3.796206439188898e-07 8.236530501365153e-06 0.0 0.0
0.0 1.656568080951208e-05 4.11976777858681e-06 -3.1491162501662793e-06 -9.706515284205495e-07 5.420662745406848e-06 0.0 0.0
0.0 0.00012109821663854164 -6.191850648859648e-05 4.774080198602933e-05 1.4177704502567198e-05 -0.00017968195466148984 0.0 0.0
0.0 0.0008220293929153156 -0.0004979958735294762 0.0003959556112798858 0.0001020402622495904 -0.0008696207536072396 0.0 0.0
0.0 0.0023548392852052566 -0.0016912985990453454 0.0014134596155986978 0.00027783898344664696 -0.002261795578021927 0.0 0.0
0.0 0.004986073207488258 -0.003666669507920799 0.0032266790324335754 0.00043999047548722253 -0.0041508413345685505 0.0 0.0
0.0 0.008142964880655596 -0.006241895297201944 0.005692300093464392 0.0005495952037375525 -0.006422075759759594 0.0 0.0
0.0 0.011941797270854548 -0.009215270616029766 0.00859077267122573 0.0006244979448040383 -0.008776318678298905 0.0 0.0
0.0 0.016078760066142506 -0.012518327818384493 0.011830057992110843 0.0006882698262736387 -0.011108070453953935 0.0 0.0
0.0 0.020577223729295522 -0.01615357721000075 0.015415605272375243 0.0007379719376254982 -0.013391729696632966 0.0 0.0
0.0 0.025458569674224458 -0.020072123361947386 0.019300009393067537 0.0007721139688798536 -0.015719877248395967 0.0 0.0
0.0 0.030509479074945493 -0.024067253858509392 0.023282108853963375 0.0007851450045459995 -0.018299585978561374 0.0 0.0
0.0 0.03524526646875325 -0.027729302674818847 0.026951594891057216 0.0007777077837616243 -0.02135222560182358 0.0 0.0
0.0 0.03887256857481478 -0.030474517080649327 0.02972106152082035 0.00075345555982897 -0.024985670725794214 0.0 0.0
0.0 0.04069990125776327 -0.031255245533927487 0.030592757626139985 0.0006624879077874986 -0.028505050867617485 0.0 0.0
0.0 0.03786433732083284 -0.0278568030701497 0.027377956104178737 0.00047884696597096094 -0.02930834669079268 0.0 0.0
0.0 0.040738593161042544 -0.022449057535498154 0.019242255317042004 0.00320680221845613 1.7115649175725167e-14 0.0 0.0
0.0 0.0378643373208426 -0.027856803070148605 0.027377956104178466 0.0004788469659701723 0.029308346690831943 0.0 0.0
0.0 0.040699901257759914 -0.03125524553391836 0.03059275762613101 0.0006624879077873429 0.028505050867655174 0.0 0.0
0.0 0.03887256857479222 -0.030474517080629038 0.029721061520800826 0.0007534555598282123 0.02498567072580523 0.0 0.0
0.0 0.035245266468724314 -0.027729302674795574 0.026951594891033864 0.0007777077837617096 0.02135222560181682 0.0 0.0
0.0 0.030509479074912034 -0.024067253858482116 0.023282108853936685 0.0007851450045454386 0.018299585978544104 0.0 0.0
0.0 0.025458569674195238 -0.02007212336192348 0.0193000093930443 0.0007721139688791963 0.015719877248381413 0.0 0.0
0.0 0.020577223729269283 -0.016153577209978353 0.015415605272353288 0.0007379719376250443 0.013391729696619855 0.0 0.0
0.0 0.016078760066111412 -0.01251832781835944 0.011830057992086104 0.0006882698262733267 0.01110807045393878 0.0 0.0
0.0 0.011941797270824325 -0.009215270616006925 0.008590772671203235 0.0006244979448036929 0.00877631867827739 0.0 0.0
0.0 0.008142964880626732 -0.006241895297180012 0.0056923000934427015 0.0005495952037373131 0.006422075759736881 0.0 0.0
0.0 0.0049860732074664 -0.003666669507904445 0.0032266790324180722 0.0004399904754863733 0.004150841334552402 0.0 0.0
0.0 0.0023548392851933182 -0.001691298599036392 0.0014134596155909343 0.00027783898344545775 0.002261795578013362 0.0 0.0
0.0 0.0008220293929101904 -0.0004979958735262487 0.0003959556112773569 0.00010204026224889121 0.0008696207536024496 0.0 0.0
0.0 0.0001210982166355976 -6.191850648773896e-05 4.77408019853803e-05 1.4177704502358655e-05 0.00017968195465951312 0.0 0.0
0.0 1.6565680808861307e-05 4.1197677782637505e-06 -3.149116249929876e-06 -9.70651528333986e-07 -5.420662744632302e-06 0.0 0.0
0.0 3.977796046482509e-06 2.076702948300772e-06 -1.697082304415618e-06 -3.7962064388514526e-07 -8.236530500368132e-06 0.0 0.0
0.0 1.7570472702566821e-06 -4.556308364491033e-07 3.547787122139497e-07 1.0085212423515973e-07 4.058726156944575e-06 0.0 0.0
0.0 -5.636172605869694e-07 2.9767362069679047e-07 -2.4358029100680306e-07 -5.409332968998275e-08 -2.1038730206312393e-06 0.0 0.0
0.0 1.1231894835376431e-06 3.360321622801099e-09 1.7583683358237314e-08 -2.0944004981040028e-08 -2.7453551651051794e-07 0.0 0.0
0.0 -5.791226488939735e-07 3.285152937202806e-08 -4.863961920387383e-08 1.57880898318369e-08 8.324711318699175e-08 0.0 0.0
0.0 0.0 0.0 0.0 0.0 0.0 0.0 0.0
0.0 1.2793262250216665e-07 8.703308849541075e-11 4.028570319636627e-09 -4.115603408136257e-09 2.4778079492361678e-08 0.0 0.0
0.0 6.546895031820668e-07 2.420609444587415e-07 -1.8909988310377045e-07 -5.296106135496421e-08 1.3857408784953512e-06 0.0 0.0
0.0 8.431228876577758e-07 1.1544069028146864e-06 -9.682303976934792e-07 -1.8617650512120744e-07 3.2361475620817897e-06 0.0 0.0
0.0 2.1159949644070735e-06 2.2561225089255425e-06 -1.7687379577644342e-06 -4.873845511611484e-07 2.104358501607303e-06 0.0 0.0
0.0 1.777528588753187e-05 -1.8344661497336067e-05 1.384768114112016e-05 4.496980356215971e-06 -4.553220338465581e-05 0.0 0.0
0.0 0.0004449527909562102 -0.00029230691076366846 0.0002233899315394381 6.89169792242302e-05 -0.00038428952768885133 0.0 0.0
0.0 0.00172068372081122 -0.0013745618477787112 0.0011074138166618955 0.0002671480311168143 -0.0014580437927051147 0.0 0.0
0.0 0.0044086888883936096 -0.0035227341190810432 0.003034807943273053 0.0004879261758079874 -0.003247447849280648 0.0 0.0
0.0 0.008564577121786782 -0.006678347901002377 0.006050710568579407 0.0006276373324229793 -0.00567393251979287 0.0 0.0
0.0 0.013146110730625736 -0.010606798089011125 0.009896208802928009 0.0007105892860831041 -0.008428620675424619 0.0 0.0
0.0 0.01853492139352936 -0.015085027835853661 0.014308393638295043 0.0007766341975586167 -0.01117117489997495 0.0 0.0
0.0 0.024555069781804995 -0.020053212485150948 0.01921298471786608 0.0008402277672848791 -0.01380340386160984 0.0 0.0
0.0 0.031106442142771227 -0.025534682891372045 0.024637542759495458 0.0008971401318765669 -0.016361141596574428 0.0 0.0
0.0 0.03831164353887291 -0.03150206558337376 0.030561683770293186 0.0009403818130806047 -0.019015841701930696 0.0 0.0
0.0 0.04577104203838159 -0.037750149706013876 0.03678916797922581 0.0009609817267880315 -0.022111382978258157 0.0 0.0
0.0 0.05333795039975654 -0.04378177838693158 0.04282659685409328 0.0009551815328382709 -0.026089985395248313 0.0 0.0
0.0 0.059564502256319346 -0.048683738521143514 0.04777835563122528 0.0009053828899182276 -0.030934141751404683 0.0 0.0
0.0 0.06275253763516372 -0.050813240685931946 0.050016690029802774 0.0007965506561291294 -0.03532170695487566 0.0 0.0
0.0 0.059104308131217684 -0.04708666602890867 0.04656168194057973 0.0005249840883289111 -0.036638987370413725 0.0 0.0
0.0 0.05661274408422906 -0.03984230200425989 0.03590959188940053 0.003932710114859362 1.9747224688781984e-14 0.0 0.0
0.0 0.05910430813122765 -0.04708666602890767 0.046561681940579504 0.0005249840883281701 0.03663898737046372 0.0 0.0
0.0 0.06275253763515548 -0.050813240685917666 0.05001669002978908 0.0007965506561285363 0.03532170695492217 0.0 0.0
0.0 0.05956450225629026 -0.048683738521115946 0.04777835563119807 0.0009053828899178496 0.03093414175142555 0.0 0.0
0.0 0.0533379503997148 -0.04378177838689659 0.042826596854057965 0.0009551815328386577 0.026089985395242956 0.0 0.0
0.0 0.04577104203833779 -0.03775014970597718 0.0367891679791893 0.00096098172678785 0.02211138297824216 0.0 0.0
0.0 0.038311643538830514 -0.0315020655833385 0.030561683770258544 0.0009403818130799506 0.019015841701912825 0.0 0.0
0.0 0.031106442142732237 -0.025534682891338707 0.02463754275946289 0.0008971401318758064 0.01636114159655973 0.0 0.0
0.0 0.024555069781762782 -0.020053212485116063 0.0192129847178314 0.0008402277672846625 0.013803403861592359 0.0 0.0
0.0 0.01853492139348618 -0.015085027835818964 0.014308393638260971 0.0007766341975579832 0.011171174899950825 0.0 0.0
0.0 0.013146110730588061 -0.010606798088981191 0.009896208802898198 0.0007105892860829814 0.008428620675400253 0.0 0.0
0.0 0.008564577121757016 -0.006678347900978859 0.0060507105685565265 0.0006276373324223314 0.005673932519773373 0.0 0.0
0.0 0.004408688888374096 -0.003522734119065866 0.0030348079432590764 0.0004879261758067866 0.0032474478492685224 0.0 0.0
0.0 0.0017206837208022048 -0.001374561847771757 0.0011074138166561045 0.0002671480311156527 0.0014580437926989891 0.0 0.0
0.0 0.0004449527909517799 -0.00029230691076109397 0.0002233899315374347 6.891697922365935e-05 0.0003842895276855747 0.0 0.0
0.0 1.7775285885571525e-05 -1.8344661496857324e-05 1.3847681140738432e-05 4.496980356118886e-06 4.5532203383833027e-05 0.0 0.0
0.0 2.1159949642841716e-06 2.2561225085369556e-06 -1.7687379574484949e-06 -4.873845510884549e-07 -2.104358500482681e-06 0.0 0.0
0.0 8.431228869984412e-07 1.1544069026682052e-06 -9.68230397572176e-07 -1.861765050960283e-07 -3.2361475612280842e-06 0.0 0.0
0.0 6.546895026742255e-07 2.42060944493504e-07 -1.8909988313313594e-07 -5.2961061360374684e-08 -1.3857408786677626e-06 0.0 0.0
0.0 1.2793262222365965e-07 8.703308583074716e-11 4.028570317766604e-09 -4.115603403594462e-09 -2.4778079435018216e-08 0.0 0.0
0.0 0.0 0.0 0.0 0.0 0.0 0.0 0.0
0.0 0.0 0.0 0.0 0.0 0.0 0.0 0.0
0.0 -1.2025212151614905e-07 -2.8111852206668733e-09 1.9303984439410896e-09 8.807867767261456e-10 -2.3879236813071873e-08 0.0 0.0
0.0 -2.4465655723445695e-07 1.3366584177810207e-07 -1.0622878257720242e-07 -2.743705920090259e-08 5.97577418871655e-07 0.0 0.0
0.0 -2.4772177103017037e-06 5.227488835371866e-07 -4.259337801414687e-07 -9.681510339570738e-08 9.064786902022128e-07 0.0 0.0
0.0 -5.424883570075762e-07 6.870987028618113e-06 -5.679182390942845e-06 -1.1918046376752597e-06 1.3137408068944442e-05 0.0 0.0
0.0 0.00013570559887267 -7.769867510702791e-05 5.7531674239689384e-05 2.0167000867338406e-05 -8.042761723929634e-05 0.0 0.0
0.0 0.00090689795516423 -0.000747670302314103 0.0005786532027124212 0.000169017099601682 -0.0006464794109671997 0.0 0.0
0.0 0.003005680990810899 -0.0025302818894895967 0.0020994539439784837 0.00043082794551111304 -0.0018976988348106338 0.0 0.0
0.0 0.007049863449658288 -0.0056296516327135285 0.004994298770451891 0.0006353528622616374 -0.003974834373099383 0.0 0.0
0.0 0.01180426620233876 -0.00994430613277785 0.00919753674429026 0.0007467693884875942 -0.006704837785827545 0.0 0.0
0.0 0.018193560181427666 -0.01516482200676359 0.014346617308025715 0.0008182046987378806 -0.009625000259991055 0.0 0.0
0.0 0.025303789742613304 -0.021121188460018113 0.02023694816155027 0.000884240298467809 -0.012510466717616502 0.0 0.0
0.0 0.03315679407444101 -0.027751456117262676 0.026797854263051937 0.0009536018542107402 -0.01527566795313297 0.0 0.0
0.0 0.041812028073578186 -0.03508127620926979 0.03406072328783458 0.0010205529214351865 -0.01796802464720865 0.0 0.0
0.0 0.051222985169467855 -0.04311263246995145 0.04203730167948678 0.0010753307904646469 -0.020764142572620554 0.0 0.0
0.0 0.06155070075671361 -0.05164943741609779 0.05054590613315926 0.0011035312829385407 -0.024116839430633363 0.0 0.0
0.0 0.07128311619195944 -0.06006939269807527 0.058980284297655707 0.0010891084004195058 -0.028573034293200676 0.0 0.0
0.0 0.08010616801484327 -0.06704478911746528 0.06603199429837728 0.0010127948190880563 -0.03407226708744296 0.0 0.0
0.0 0.08469589590603362 -0.07024264990508254 0.06939579028397658 0.0008468596211058965 -0.03924249668870954 0.0 0.0
0.0 0.08011168268843713 -0.06575784899838108 0.06523270343440836 0.0005251455639727424 -0.04121899395507033 0.0 0.0
0.0 0.07403733318647461 -0.056857034992280425 0.05230165473097697 0.0045553802613033136 2.2056141635307114e-14 0.0 0.0
0.0 0.08011168268843674 -0.06575784899837243 0.06523270343440019 0.0005251455639722611 0.04121899395512014 0.0 0.0
0.0 0.08469589590601598 -0.07024264990506092 0.06939579028395514 0.0008468596211056955 0.039242496688759225 0.0 0.0
0.0 0.08010616801480498 -0.06704478911742967 0.06603199429834171 0.0010127948190878264 0.034072267087468106 0.0 0.0
0.0 0.07128311619190811 -0.060069392698031354 0.05898028429761139 0.0010891084004199915 0.02857303429319761 0.0 0.0
0.0 0.06155070075665936 -0.05164943741605155 0.050545906133113085 0.00110353128293841 0.02411683943061954 0.0 0.0
0.0 0.051222985169413926 -0.04311263246990537 0.04203730167944147 0.0010753307904639066 0.02076414257260261 0.0 0.0
0.0 0.04181202807352507 -0.03508127620922416 0.03406072328778954 0.001020552921434599 0.017968024647192143 0.0 0.0
0.0 0.03315679407438727 -0.027751456117217584 0.02679785426300668 0.0009536018542108757 0.015275667953114191 0.0 0.0
0.0 0.025303789742562546 -0.02112118845997574 0.020236948161508186 0.0008842402984675466 0.012510466717593477 0.0 0.0
0.0 0.018193560181382164 -0.015164822006726062 0.01434661730798838 0.0008182046987376994 0.00962500025996495 0.0 0.0
0.0 0.011804266202303869 -0.009944306132748704 0.00919753674426172 0.000746769388486993 0.006704837785806858 0.0 0.0
0.0 0.007049863449631364 -0.005629651632692301 0.004994298770431664 0.000635352862260641 0.00397483437308533 0.0 0.0
0.0 0.003005680990795063 -0.0025302818894771067 0.0020994539439673147 0.0004308279455097926 0.0018976988348016102 0.0 0.0
0.0 0.00090689795515638 -0.0007476703023085175 0.0005786532027079563 0.00016901709960056213 0.000646479410962473 0.0 0.0
0.0 0.000135705598870097 -7.769867510579919e-05 5.753167423879323e-05 2.0167000867006023e-05 8.042761723812036e-05 0.0 0.0
0.0 -5.424883573704739e-07 6.870987028027778e-06 -5.679182390475069e-06 -1.191804637552695e-06 -1.3137408067769113e-05 0.0 0.0
0.0 -2.477217710223404e-06 5.227488831807603e-07 -4.259337798629331e-07 -9.681510331781064e-08 -9.064786890273125e-07 0.0 0.0
0.0 -2.446565573814006e-07 1.336658418221916e-07 -1.0622878261362636e-07 -2.7437059208562357e-08 -5.975774190492117e-07 0.0 0.0
0.0 -1.2025212151506954e-07 -2.8111852205958148e-09 1.930398443898689e-09 8.807867766964716e-10 2.387923681280424e-08 0.0 0.0
0.0 0.0 0.0 0.0 0.0 0.0 0.0 0.0
0.0 0.0 0.0 0.0 0.0 0.0 0.0 0.0
0.0 0.0 0.0 0.0 0.0 0.0 0.0 0.0
0.0 -3.3866988521738376e-07 7.146389742201031e-10 -2.6519072179112964e-10 -4.4944825243034235e-10 4.037437095085689e-09 0.0 0.0
0.0 -1.910075576208884e-06 1.7403390726197077e-06 -1.4041084480419777e-06 -3.3623062457770556e-07 3.7622816615304377e-06 0.0 0.0
0.0 -7.074506321583051e-06 -2.6552518393084633e-06 1.2144310224684294e-06 1.4408208168400258e-06 -3.568365281819385e-07 0.0 0.0
0.0 0.00033165595189020287 -0.0002370525373628963 0.00017664507573195647 6.040746163093978e-05 -0.00015487034962937803 0.0 0.0
0.0 0.0015947018562928025 -0.001383732196327267 0.00109393903079263 0.000289793165534637 -0.0008061976881325786 0.0 0.0
0.0 0.004771977968708636 -0.003896385925716903 0.003329307809268775 0.0005670781164481297 -0.002163652368868444 0.0 0.0
0.0 0.009147063522849328 -0.00795299557280807 0.007212122206207761 0.0007408733666003112 -0.00438698298881133 0.0 0.0
0.0 0.015652389205547113 -0.01333037959441666 0.012496853136172936 0.0008335264582437255 -0.007088711798119339 0.0 0.0
0.0 0.023330466946030488 -0.01982408515299363 0.01892029974058216 0.0009037854124114613 -0.009962392806046452 0.0 0.0
0.0 0.032093784520259905 -0.02725710012627543 0.026282234081321857 0.0009748660449536075 -0.012803370627916628 0.0 0.0
0.0 0.041848052303121525 -0.03555259226264402 0.034501724936314586 0.0010508673263293978 -0.015541710177092823 0.0 0.0
0.0 0.05268481205053673 -0.04472813225957398 0.04360167989860746 0.0011264523609665592 -0.018223484522277372 0.0 0.0
0.0 0.06441229495895368 -0.05481206607989671 0.053618363010912655 0.0011937030689840266 -0.020990965651855455 0.0 0.0
0.0 0.07690807503823639 -0.06561772984183256 0.06438774329096564 0.0012299865508669642 -0.02422419877108469 0.0 0.0
0.0 0.08987974580467507 -0.07637323736173371 0.07516886509554416 0.001204372266189545 -0.028540625940277238 0.0 0.0
0.0 0.10060680382681712 -0.0853391308285455 0.084248025334269 0.0010911054942763104 -0.03415558005756156 0.0 0.0
0.0 0.10583527890623129 -0.08946570660404778 0.08859408813534675 0.0008716184687010012 -0.03998346095991218 0.0 0.0
0.0 0.10073940533565878 -0.08423948988694085 0.08371551726856215 0.0005239726183787368 -0.04398466857657476 0.0 0.0
0.0 0.0927654276188556 -0.07391700862388657 0.06881269764623467 0.005104310977651886 2.2369259222720927e-14 0.0 0.0
0.0 0.1007394053356521 -0.08423948988692787 0.08371551726854971 0.0005239726183782162 0.043984668576624794 0.0 0.0
0.0 0.10583527890620466 -0.08946570660401926 0.08859408813531851 0.0008716184687007916 0.03998346095996211 0.0 0.0
0.0 0.10060680382677016 -0.08533913082850281 0.08424802533422653 0.0010911054942762328 0.03415558005758775 0.0 0.0
0.0 0.08987974580461637 -0.07637323736168299 0.07516886509549298 0.0012043722661899208 0.02854062594027722 0.0 0.0
0.0 0.07690807503817439 -0.06561772984177883 0.06438774329091289 0.0012299865508659693 0.024224198771073957 0.0 0.0
0.0 0.06441229495888813 -0.05481206607984029 0.05361836301085692 0.001193703068983368 0.02099096565184103 0.0 0.0
0.0 0.05268481205047391 -0.04472813225951931 0.04360167989855371 0.0011264523609655812 0.018223484522262096 0.0 0.0
0.0 0.04184805230305425 -0.03555259226258681 0.03450172493625682 0.0010508673263299611 0.015541710177074302 0.0 0.0
0.0 0.032093784520197906 -0.027257100126223118 0.026282234081269763 0.0009748660449533277 0.012803370627893447 0.0 0.0
0.0 0.02333046694597511 -0.01982408515294729 0.01892029974053601 0.0009037854124112647 0.009962392806020313 0.0 0.0
0.0 0.015652389205504397 -0.013330379594380737 0.012496853136137466 0.0008335264582432704 0.007088711798098904 0.0 0.0
0.0 0.009147063522819663 -0.00795299557278193 0.007212122206182377 0.000740873366599552 0.00438698298879708 0.0 0.0
0.0 0.004771977968686388 -0.0038963859256989863 0.003329307809252279 0.000567078116446707 0.0021636523688582324 0.0 0.0
0.0 0.001594701856281913 -0.0013837321963184662 0.0010939390307853985 0.00028979316553306663 0.0008061976881272078 0.0 0.0
0.0 0.0003316559518862826 -0.00023705253736060254 0.00017664507573020223 6.040746163039991e-05 0.0001548703496279525 0.0 0.0
0.0 -7.07450632204297e-06 -2.6552518396693446e-06 1.2144310227657024e-06 1.440820816903605e-06 3.568365288495415e-07 0.0 0.0
0.0 -1.910075576821889e-06 1.740339072568293e-06 -1.4041084480004358e-06 -3.3623062456785234e-07 -3.762281661274099e-06 0.0 0.0
0.0 -3.386698850853187e-07 7.146390059470572e-10 -2.651907471323251e-10 -4.494482588141899e-10 -4.037437196428407e-09 0.0 0.0
0.0 0.0 0.0 0.0 0.0 0.0 0.0 0.0
0.0 0.0 0.0 0.0 0.0 0.0 0.0 0.0
0.0 0.0 0.0 0.0 0.0 0.0 0.0 0.0
0.0 0.0 0.0 0.0 0.0 0.0 0.0 0.0
0.0 -1.9259891853480113e-07 -1.2438204119640457e-08 9.900711751953166e-09 2.537492367688598e-09 -3.208399983975565e-08 0.0 0.0
0.0 -3.3266257485900295e-06 1.5575850693298832e-06 -1.256414113187909e-06 -3.0117095614200297e-07 2.7223485493202047e-06 0.0 0.0
0.0 3.0548131495728226e-05 -1.3822864056865954e-05 8.193538963904042e-06 5.629325092962019e-06 2.487607838662946e-06 0.0 0.0
0.0 0.0005574975112424447 -0.0005302105725237631 0.0003996937579101217 0.00013051681461364085 -0.00023730629825888542 0.0 0.0
0.0 0.0026458291670194783 -0.0021784650500104416 0.0017674659146337376 0.00041099913537670323 -0.0008590367147747364 0.0 0.0
0.0 0.006170536677585269 -0.005458215419369252 0.004783633991623721 0.0006745814277455297 -0.0022644334542771516 0.0 0.0
0.0 0.01190153105639411 -0.010365596766902782 0.009547335835223174 0.0008182609316796038 -0.004334987189430533 0.0 0.0
0.0 0.019432347537424906 -0.016788299641135804 0.015883591416885605 0.0009047082242502192 -0.006808551002469966 0.0 0.0
0.0 0.02853544282612142 -0.024540463600157283 0.0235614580397384 0.0009790055604188739 -0.009462531617414447 0.0 0.0
0.0 0.03898709545037976 -0.03344644259604284 0.03239021908819914 0.0010562235078436812 -0.01208566532036441 0.0 0.0
0.0 0.050727007511054266 -0.04341416436609866 0.042275906189321394 0.001138258176777215 -0.014630390077999515 0.0 0.0
0.0 0.0633555622937543 -0.05444167542343397 0.053220358742009394 0.0012213166814245661 -0.01715835384741836 0.0 0.0
0.0 0.0775123647351436 -0.06653216684751297 0.06523472642304286 0.0012974404244702354 -0.01973258434573285 0.0 0.0
0.0 0.0926701977143791 -0.0795052177734426 0.07816162982386714 0.0013435879495753045 -0.02251934401919136 0.0 0.0
0.0 0.10768315277818524 -0.09250855376725611 0.0911949683399994 0.0013135854272566289 -0.026079770124454074 0.0 0.0
0.0 0.12059244589891015 -0.10341761900453667 0.10225318581699777 0.0011644331875390118 -0.031179922244521447 0.0 0.0
0.0 0.12712656894541255 -0.10856197134742679 0.1076688352716921 0.0008931360757344734 -0.0378314047666311 0.0 0.0
0.0 0.12151021631080842 -0.10288566295253018 0.10237244020861647 0.0005132227439137174 -0.04536913367879949 0.0 0.0
0.0 0.11198692973590588 -0.09140281523039342 0.08581603447880944 0.005586780751584043 2.1078624956594183e-14 0.0 0.0
0.0 0.12151021631079637 -0.10288566295251356 0.10237244020860031 0.0005132227439131646 0.045369133678848914 0.0 0.0
0.0 0.1271265689453762 -0.1085619713473912 0.10766883527165681 0.0008931360757342525 0.037831404766677366 0.0 0.0
0.0 0.12059244589885548 -0.1034176190044879 0.10225318581694925 0.0011644331875386564 0.03117992224454614 0.0 0.0
0.0 0.10768315277811571 -0.09250855376719586 0.09119496833993895 0.0013135854272569197 0.026079770124456524 0.0 0.0
0.0 0.09267019771430421 -0.07950521777337755 0.07816162982380279 0.00134358794957468 0.0225193440191829 0.0 0.0
0.0 0.07751236473506568 -0.06653216684744599 0.06523472642297595 0.001297440424470062 0.01973258434572051 0.0 0.0
0.0 0.06335556229367949 -0.05444167542336929 0.0532203587419455 0.0012213166814237521 0.017158353847403558 0.0 0.0
0.0 0.050727007510977605 -0.04341416436603244 0.042275906189254996 0.001138258176777442 0.014630390077982804 0.0 0.0
0.0 0.03898709545030716 -0.03344644259598077 0.032390219088137336 0.001056223507843437 0.012085665320343308 0.0 0.0
0.0 0.028535442826058428 -0.02454046360010356 0.0235614580396849 0.0009790055604186896 0.009462531617390538 0.0 0.0
0.0 0.019432347537372368 -0.01678829964109073 0.015883591416840863 0.0009047082242498543 0.0068085510024495895 0.0 0.0
0.0 0.011901531056357292 -0.010365596766870688 0.009547335835191774 0.0008182609316789161 0.004334987189417128 0.0 0.0
0.0 0.0061705366775600574 -0.005458215419347366 0.004783633991603112 0.0006745814277442541 0.0022644334542675725 0.0 0.0
0.0 0.002645829167005011 -0.0021784650499988936 0.0017674659146237664 0.0004109991353751268 0.0008590367147694898 0.0 0.0
0.0 0.0005574975112371102 -0.000530210572519844 0.00039969375790712856 0.00013051681461271513 0.00023730629825717298 0.0 0.0
0.0 3.054813149454201e-05 -1.3822864056771881e-05 8.193538963861823e-06 5.6293250929101754e-06 -2.4876078383941045e-06 0.0 0.0
0.0 -3.3266257488233095e-06 1.5575850693012603e-06 -1.2564141131678915e-06 -3.0117095613336906e-07 -2.722348549259134e-06 0.0 0.0
0.0 -1.9259891850927365e-07 -1.243820411784055e-08 9.900711750511593e-09 2.5374923673294314e-09 3.208399983580417e-08 0.0 0.0
0.0 0.0 0.0 0.0 0.0 0.0 0.0 0.0
0.0 0.0 0.0 0.0 0.0 0.0 0.0 0.0
0.0 0.0 0.0 0.0 0.0 0.0 0.0 0.0
0.0 0.0 0.0 0.0 0.0 0.0 0.0 0.0
0.0 -7.18462332870173e-08 -5.322214849680892e-09 4.219826328331633e-09 1.102388521349622e-09 -1.0684932772376604e-08 0.0 0.0
0.0 -3.860784613669917e-06 2.566938226220281e-06 -2.0912275454480087e-06 -4.757106807722652e-07 3.401839100762731e-06 0.0 0.0
0.0 9.903176819019667e-05 -7.059134030733646e-05 4.8707710363410204e-05 2.18836299439264e-05 -1.0436141054686087e-05 0.0 0.0
0.0 0.001045629930400115 -0.0009031281438087707 0.0006903997823436822 0.00021272836146508868 -0.00021181525315278272 0.0 0.0
0.0 0.003574855689072976 -0.0031485579740538837 0.0026236348435935528 0.0005249231304603283 -0.0008224035046444081 0.0 0.0
0.0 0.007962569825661498 -0.007108156179987352 0.006355163909897123 0.00075299227009023 -0.0020735482080601604 0.0 0.0
0.0 0.014596527628543715 -0.012832270202746406 0.011951608277987755 0.0008806619247586412 -0.003797212921629258 0.0 0.0
0.0 0.023295030604596974 -0.02027726633680624 0.01930999910093914 0.0009672672358670895 -0.005890030149025258 0.0 0.0
0.0 0.03375066971193508 -0.029275952456670938 0.028228628344305014 0.001047324112365908 -0.008143083366912898 0.0 0.0
0.0 0.045888287660678324 -0.03965370126493059 0.03852236137478251 0.0011313398901480743 -0.010374331086988323 0.0 0.0
0.0 0.05927625774515767 -0.05130594151534298 0.05008618231936404 0.0012197591959790064 -0.012553835161461859 0.0 0.0
0.0 0.0744387320820437 -0.06418014162208074 0.06287401910292609 0.0013061225191545445 -0.014759502852144668 0.0 0.0
0.0 0.09060782431371264 -0.0782267119475294 0.07684090960336101 0.0013858023441683772 -0.017007255277318636 0.0 0.0
0.0 0.1077650680313291 -0.09321111116970696 0.09176856465527548 0.001442546514431594 -0.019189318544746217 0.0 0.0
0.0 0.12528129917266195 -0.10826816560558553 0.10684318016409865 0.0014249854414869138 -0.021487130905610868 0.0 0.0
0.0 0.14032659069317654 -0.12113495134901334 0.1198796612387476 0.0012552901102656716 -0.025236854417926263 0.0 0.0
0.0 0.14832498534779118 -0.1276444032515105 0.12671979865942387 0.0009246045920866667 -0.03271865034276699 0.0 0.0
0.0 0.14297254644304236 -0.12203787113033673 0.12155563603739736 0.00048223509293955397 -0.04513322861585995 0.0 0.0
0.0 0.13273939532817147 -0.1097004844587272 0.1037047133471644 0.005995771111562707 1.7564075194265172e-14 0.0 0.0
0.0 0.14297254644302396 -0.12203787113031603 0.12155563603737717 0.000482235092938792 0.045133228615901966 0.0 0.0
0.0 0.14832498534774172 -0.1276444032514657 0.12671979865937807 0.0009246045920875566 0.032718650342807166 0.0 0.0
0.0 0.14032659069311348 -0.12113495134895788 0.1198796612386929 0.0012552901102650183 0.0252368544179475 0.0 0.0
0.0 0.12528129917258246 -0.10826816560551672 0.10684318016402977 0.0014249854414869118 0.021487130905612235 0.0 0.0
0.0 0.10776506803124163 -0.09321111116963121 0.09176856465519981 0.0014425465144314094 0.01918931854474166 0.0 0.0
0.0 0.09060782431362352 -0.07822671194745254 0.07684090960328449 0.001385802344167988 0.0170072552773089 0.0 0.0
0.0 0.07443873208195624 -0.06418014162200496 0.06287401910285087 0.0013061225191540334 0.014759502852132842 0.0 0.0
0.0 0.059276257745070914 -0.0513059415152681 0.050086182319289504 0.0012197591959786627 0.012553835161448711 0.0 0.0
0.0 0.04588828766059626 -0.03965370126485944 0.03852236137471175 0.0011313398901477293 0.010374331086971084 0.0 0.0
0.0 0.03375066971186338 -0.029275952456609203 0.028228628344243528 0.0010473241123656624 0.00814308336689226 0.0 0.0
0.0 0.023295030604536998 -0.020277266336754432 0.019309999100887834 0.000967267235866599 0.005890030149007654 0.0 0.0
0.0 0.014596527628500526 -0.012832270202708659 0.011951608277950599 0.0008806619247580592 0.0037972129216173297 0.0 0.0
0.0 0.007962569825633883 -0.0071081561799626256 0.006355163909873415 0.0007529922700892165 0.002073548208051881 0.0 0.0
0.0 0.0035748556890555947 -0.003148557974039056 0.002623634843580245 0.000524923130458809 0.0008224035046393208 0.0 0.0
0.0 0.001045629930393252 -0.0009031281438034606 0.0006903997823395188 0.00021272836146394116 0.000211815253151494 0.0 0.0
0.0 9.903176818825156e-05 -7.059134030632257e-05 4.870771036268669e-05 2.188362994363594e-05 1.0436141054601548e-05 0.0 0.0
0.0 -3.860784613879032e-06 2.566938225652127e-06 -2.0912275450208144e-06 -4.7571068063130323e-07 -3.401839100250599e-06 0.0 0.0
0.0 -7.184623319621463e-08 -5.322214842869262e-09 4.219826322927047e-09 1.1023885199412321e-09 1.0684932758656047e-08 0.0 0.0
0.0 0.0 0.0 0.0 0.0 0.0 0.0 0.0
0.0 0.0 0.0 0.0 0.0 0.0 0.0 0.0
0.0 0.0 0.0 0.0 0.0 0.0 0.0 0.0
0.0 0.0 0.0 0.0 0.0 0.0 0.0 0.0
0.0 0.0 0.0 0.0 0.0 0.0 0.0 0.0
0.0 -5.8308591556194594e-06 5.649566830196844e-06 -4.591804901358633e-06 -1.0577619288382315e-06 4.839035801163226e-06 0.0 0.0
0.0 0.00019641448967699248 -0.0001938244015403564 0.0001374115553079354 5.6412846232420917e-05 -3.0090417517152074e-06 0.0 0.0
0.0 0.001669946154256416 -0.0014094976258512888 0.0011009916036121984 0.0003085060222390903 -0.00012112804679386243 0.0 0.0
0.0 0.004558458645156347 -0.004231051324438586 0.003613572553291708 0.0006174787711468792 -0.0006392782318460483 0.0 0.0
0.0 0.0098497400533709 -0.00880782110963995 0.007992195140074512 0.0008156259695654494 -0.0015351986496200335 0.0 0.0
0.0 0.017333094040527984 -0.015320289389535394 0.014386301377055323 0.0009339880124800649 -0.0027993453557082887 0.0 0.0
0.0 0.027154234610671322 -0.02376380607921209 0.022739912195338906 0.0010238938838732174 -0.004342084743597809 0.0 0.0
0.0 0.03905091647897369 -0.03399565804877623 0.03288491278098535 0.0011107452677908687 -0.006013417501364977 0.0 0.0
0.0 0.0527077867851614 -0.04584455088169097 0.04464319648797309 0.0012013543937178259 -0.007674474935796439 0.0 0.0
0.0 0.06832602599662783 -0.05918199861903074 0.05788701845120055 0.001294980167830217 -0.009316063036964422 0.0 0.0
0.0 0.0850986440116635 -0.07391654100161545 0.07253127572772274 0.0013852652738927614 -0.011028571257443512 0.0 0.0
0.0 0.1035610884513393 -0.08987236142064317 0.0884092062577705 0.0014631551628726475 -0.012781978542460916 0.0 0.0
0.0 0.12299262844880332 -0.10667790070673915 0.10516088736958502 0.0015170133371541624 -0.014311345832288857 0.0 0.0
0.0 0.14241919614407952 -0.1234854912570062 0.12196181211970586 0.0015236791373004458 -0.01535523620733924 0.0 0.0
0.0 0.15952022762122098 -0.13826387718483532 0.13686059672391115 0.0014032804609241042 -0.016988161578006224 0.0 0.0
0.0 0.16960678769044796 -0.1467175302098818 0.14571493742634184 0.0010025927835397696 -0.02377521023202563 0.0 0.0
0.0 0.165418380083368 -0.1420807347237198 0.14167787399632087 0.00040286072739870724 -0.04225294932280095 0.0 0.0
0.0 0.15516307231281914 -0.12935289506268688 0.12305151333686523 0.006301381725821546 1.2406742300186124e-14 0.0 0.0
0.0 0.16541838008334242 -0.14208073472369476 0.14167787399629644 0.0004028607273982674 0.042252949322833064 0.0 0.0
0.0 0.16960678769039483 -0.14671753020983413 0.14571493742629438 0.0010025927835398969 0.023775210232059002 0.0 0.0
0.0 0.15952022762114662 -0.138263877184771 0.1368605967238474 0.001403280460923539 0.016988161578023214 0.0 0.0
0.0 0.1424191961439873 -0.1234854912569265 0.12196181211962627 0.0015236791373004054 0.01535523620733963 0.0 0.0
0.0 0.12299262844870547 -0.10667790070665431 0.10516088736950092 0.0015170133371534512 0.014311345832286895 0.0 0.0
0.0 0.1035610884512421 -0.08987236142055875 0.08840920625768703 0.0014631551628717667 0.012781978542455774 0.0 0.0
0.0 0.08509864401156172 -0.07391654100152739 0.07253127572763525 0.0013852652738921719 0.01102857125743485 0.0 0.0
0.0 0.06832602599652861 -0.05918199861894491 0.05788701845111474 0.0012949801678301348 0.00931606303695597 0.0 0.0
0.0 0.05270778678506893 -0.04584455088161118 0.0446431964878937 0.001201354393717386 0.007674474935784168 0.0 0.0
0.0 0.03905091647889496 -0.033995658048707515 0.032884912780917055 0.0011107452677904645 0.006013417501349473 0.0 0.0
0.0 0.027154234610608292 -0.023763806079156798 0.022739912195284106 0.001023893883872688 0.004342084743585133 0.0 0.0
0.0 0.01733309404047988 -0.015320289389492807 0.014386301377013576 0.000933988012479246 0.002799345355699498 0.0 0.0
0.0 0.009849740053338302 -0.008807821109610875 0.007992195140046246 0.0008156259695646183 0.0015351986496136224 0.0 0.0
0.0 0.004558458645136389 -0.004231051324420411 0.003613572553274971 0.0006174787711454472 0.0006392782318417561 0.0 0.0
0.0 0.0016699461542470835 -0.0014094976258433793 0.001100991603605717 0.00030850602223766077 0.00012112804679250577 0.0 0.0
0.0 0.00019641448967424208 -0.0001938244015386797 0.00013741155530675266 5.641284623192696e-05 3.009041751927031e-06 0.0 0.0
0.0 -5.830859155577488e-06 5.649566829822676e-06 -4.591804901078098e-06 -1.0577619287446038e-06 -4.839035801010167e-06 0.0 0.0
0.0 0.0 0.0 0.0 0.0 0.0 0.0 0.0
0.0 0.0 0.0 0.0 0.0 0.0 0.0 0.0
0.0 0.0 0.0 0.0 0.0 0.0 0.0 0.0
0.0 0.0 0.0 0.0 0.0 0.0 0.0 0.0
0.0 0.0 0.0 0.0 0.0 0.0 0.0 0.0
0.0 0.0 0.0 0.0 0.0 0.0 0.0 0.0
0.0 -4.313688927021517e-06 2.6615783829516362e-06 -3.002278952585268e-06 3.407005696336406e-07 5.466597146449265e-06 0.0 0.0
0.0 0.0004540608504191364 -0.0003741006565783083 0.00026954156293940536 0.00010455909363890288 5.861170961164577e-05 0.0 0.0
0.0 0.0022866887650288673 -0.002041406204351689 0.0016349094439606722 0.00040649676039101475 4.842645614103823e-05 0.0 0.0
0.0 0.005859321394959955 -0.005360464771712788 0.004672831995506753 0.0006876327762060397 -0.00022253197624765077 0.0 0.0
0.0 0.011760219826811892 -0.010530358749382553 0.009664136834315596 0.00086622191506694 -0.0006885590667958486 0.0 0.0
0.0 0.020149381816112345 -0.017796947075063255 0.016816217064880574 0.0009807300101826889 -0.0013479931525747539 0.0 0.0
0.0 0.0310082018281837 -0.027214390479717313 0.026137800168874025 0.001076590310843277 -0.002170754403972382 0.0 0.0
0.0 0.044262077710529785 -0.03866741886502643 0.03749738494823897 0.001170033916787464 -0.0030710797441884535 0.0 0.0
0.0 0.05980682560132043 -0.05198457267894129 0.05071815008658114 0.0012664225923601923 -0.003984356809678159 0.0 0.0
0.0 0.07688031814456096 -0.06701777058423752 0.06565211050880718 0.0013656600754302615 -0.004935244159789369 0.0 0.0
0.0 0.0960287705626843 -0.08359515233046949 0.08213604838340617 0.0014591039470632193 -0.0059479566375145315 0.0 0.0
0.0 0.11662187640341157 -0.10142836694214966 0.0998952471836046 0.001533119758545168 -0.006979433274768843 0.0 0.0
0.0 0.1380340009412236 -0.11995126283822649 0.11837605237706247 0.001575210461163922 -0.007838033189931853 0.0 0.0
0.0 0.15912153783952804 -0.1381720305904462 0.13659146279787795 0.0015805677925683163 -0.008142108014203366 0.0 0.0
0.0 0.1779158446415408 -0.1544205104111864 0.15287243080814875 0.0015480796030377143 -0.008041252753908643 0.0 0.0
0.0 0.19054953399235547 -0.16531973906645372 0.16400543300399814 0.0013143060624553403 -0.011373945212940117 0.0 0.0
0.0 0.18928956926800225 -0.1634809932550405 0.16315026687228976 0.00033072638275072737 -0.03134668533976992 0.0 0.0
0.0 0.18051769110599775 -0.15152000634790627 0.1453307225267982 0.006189283821108055 6.277964259560065e-15 0.0 0.0
0.0 0.1892895692679687 -0.1634809932550099 0.1631502668722591 0.00033072638275076467 0.03134668533978989 0.0 0.0
0.0 0.19054953399229088 -0.16531973906639785 0.1640054330039416 0.001314306062456234 0.011373945212959855 0.0 0.0
0.0 0.1779158446414559 -0.15442051041111288 0.1528724308080757 0.0015480796030371128 0.008041252753916497 0.0 0.0
0.0 0.1591215378394202 -0.13817203059035368 0.13659146279778425 0.0015805677925693966 0.00814210801420294 0.0 0.0
0.0 0.1380340009411134 -0.11995126283813067 0.11837605237696737 0.0015752104611632032 0.007838033189930442 0.0 0.0
0.0 0.11662187640329959 -0.10142836694205284 0.09989524718350816 0.0015331197585447785 0.00697943327476591 0.0 0.0
0.0 0.09602877056257382 -0.08359515233037336 0.08213604838331137 0.001459103947061872 0.0059479566375094505 0.0 0.0
0.0 0.07688031814444946 -0.06701777058414127 0.06565211050871066 0.0013656600754306035 0.00493524415978503 0.0 0.0
0.0 0.05980682560121888 -0.051984572678853085 0.050718150086493684 0.0012664225923594123 0.003984356809670734 0.0 0.0
0.0 0.044262077710441994 -0.0386674188649503 0.03749738494816357 0.0011700339167867344 0.0030710797441796276 0.0 0.0
0.0 0.031008201828114562 -0.027214390479656514 0.026137800168814136 0.0010765903108423914 0.002170754403965641 0.0 0.0
0.0 0.02014938181605845 -0.017796947075015505 0.016816217064833456 0.0009807300101820422 0.0013479931525702035 0.0 0.0
0.0 0.011760219826773138 -0.01053035874934793 0.009664136834281745 0.0008662219150661786 0.0006885590667925759 0.0 0.0
0.0 0.005859321394935951 -0.005360464771690903 0.004672831995486052 0.00068763277620485 0.00022253197624500767 0.0 0.0
0.0 0.0022866887650167026 -0.002041406204340972 0.0016349094439515365 0.0004064967603894336 -4.842645614135337e-05 0.0 0.0
0.0 0.00045406085041543084 -0.0003741006565757464 0.0002695415629375492 0.0001045590936381971 -5.861170961120181e-05 0.0 0.0
0.0 -4.313688927213547e-06 2.6615783826584578e-06 -3.0022789523558224e-06 3.407005696974353e-07 -5.466597146358026e-06 0.0 0.0
0.0 0.0 0.0 0.0 0.0 0.0 0.0 0.0
0.0 0.0 0.0 0.0 0.0 0.0 0.0 0.0
0.0 0.0 0.0 0.0 0.0 0.0 0.0 0.0
0.0 0.0 0.0 0.0 0.0 0.0 0.0 0.0
0.0 0.0 0.0 0.0 0.0 0.0 0.0 0.0
0.0 0.0 0.0 0.0 0.0 0.0 0.0 0.0
0.0 2.3954546036541762e-05 -2.2660659471940588e-05 1.450648683567125e-05 8.154172636269445e-06 1.0522185668997699e-05 0.0 0.0
0.0 0.0007727742397841036 -0.0006025198603773316 0.00043174566054111934 0.00017077419983621247 0.00014903378624906005 0.0 0.0
0.0 0.0029218684833633504 -0.0026122602509722178 0.0020708526808079645 0.0005414075701642502 0.0003390791855790446 0.0 0.0
0.0 0.006880855466907974 -0.006319582554984228 0.005440591372948937 0.0008789911820352935 0.00044493769367960547 0.0 0.0
0.0 0.013264837429035172 -0.011955418496804269 0.01081464388811654 0.0011407746086877302 0.0004971572841574771 0.0 0.0
0.0 0.022228122234062425 -0.019826679160425603 0.018452617402487714 0.0013740617579378583 0.0004860577687906542 0.0 0.0
0.0 0.03395115629868827 -0.030035164808783533 0.028406133339328836 0.0016290314694546557 0.00037447139510030526 0.0 0.0
0.0 0.048324629450136394 -0.04249812856975707 0.040571355700291065 0.0019267728694659734 0.00020090017159111453 0.0 0.0
0.0 0.06482160433106521 -0.05704715927957283 0.05477581538131417 0.002271343898258635 -3.179572189727833e-05 0.0 0.0
0.0 0.08357217030650307 -0.07348277148235381 0.07083168807691474 0.0026510834054391027 -0.0003619031781860703 0.0 0.0
0.0 0.10425929160617417 -0.09157897821816699 0.08853246747029503 0.0030465107478720253 -0.000758446715724061 0.0 0.0
0.0 0.1264602573777876 -0.11095997621551489 0.10753455926534611 0.0034254169501686375 -0.0012497621183423027 0.0 0.0
0.0 0.14938887029412812 -0.13089695587863082 0.12715326560729603 0.003743690271334906 -0.0017539259033535794 0.0 0.0
0.0 0.17161492161073455 -0.1501715141577438 0.14622295576093075 0.003948558396812896 -0.002026865834442275 0.0 0.0
0.0 0.19114953317755 -0.16708841210321387 0.16307836164382566 0.004010050459387928 -0.001813703013913693 0.0 0.0
0.0 0.20525620328571345 -0.1794972761757501 0.17541996552386566 0.004077310651884603 -0.0034107300708529197 0.0 0.0
0.0 0.20803556896237996 -0.18243060601716343 0.1782394577856305 0.00419114823153285 -0.02357750377433833 0.0 0.0
0.0 0.20390716366948694 -0.17377731628511928 0.16269818313611406 0.011079133149004872 4.440892098500626e-16 0.0 0.0
0.0 0.20803556896234054 -0.18243060601712863 0.17823945778559627 0.004191148231532282 0.023577503774344193 0.0 0.0
0.0 0.20525620328563388 -0.17949727617568212 0.1754199655237962 0.004077310651885966 0.0034107300708605456 0.0 0.0
0.0 0.19114953317745603 -0.16708841210313174 0.16307836164374623 0.004010050459385691 0.0018137030139146575 0.0 0.0
0.0 0.17161492161061626 -0.15017151415764124 0.1462229557608284 0.0039485583968126205 0.0020268658344391316 0.0 0.0
0.0 0.14938887029400835 -0.13089695587852646 0.1271532656071933 0.003743690271332924 0.0017539259033526756 0.0 0.0
0.0 0.12646025737766348 -0.11095997621540657 0.10753455926523912 0.0034254169501673104 0.001249762118340868 0.0 0.0
0.0 0.10425929160606129 -0.09157897821806783 0.08853246747019916 0.0030465107478685484 0.0007584467157217192 0.0 0.0
0.0 0.08357217030638288 -0.07348277148224905 0.07083168807681167 0.002651083405437432 0.0003619031781842766 0.0 0.0
0.0 0.0648216043309573 -0.05704715927947861 0.05477581538122214 0.0022713438982563863 3.179572189359898e-05 0.0 0.0
0.0 0.04832462945004207 -0.04249812856967454 0.04057135570021025 0.0019267728694643037 -0.0002009001715929824 0.0 0.0
0.0 0.03395115629861353 -0.03003516480871822 0.02840613333926533 0.0016290314694528765 -0.0003744713951018279 0.0 0.0
0.0 0.02222812223400243 -0.019826679160372857 0.018452617402436228 0.0013740617579366336 -0.0004860577687916712 0.0 0.0
0.0 0.013264837428992345 -0.01195541849676588 0.01081464388807947 0.0011407746086864027 -0.000497157284156943 0.0 0.0
0.0 0.006880855466881273 -0.006319582554959783 0.005440591372925941 0.0008789911820338352 -0.0004449376936793048 0.0 0.0
0.0 0.002921868483349582 -0.002612260250959241 0.0020708526807968657 0.0005414075701623776 -0.00033907918557786275 0.0 0.0
0.0 0.0007727742397790246 -0.0006025198603733859 0.0004317456605382786 0.00017077419983510834 -0.00014903378624802813 0.0 0.0
0.0 2.3954546036113915e-05 -2.2660659471728524e-05 1.4506486835536964e-05 8.154172636191558e-06 -1.0522185668883571e-05 0.0 0.0
0.0 0.0 0.0 0.0 0.0 0.0 0.0 0.0
0.0 0.0 0.0 0.0 0.0 0.0 0.0 0.0
0.0 0.0 0.0 0.0 0.0 0.0 0.0 0.0
SCALARS Wm float 4
LOOKUP_TABLE default
13.127897079520089 2.0344830738943624 5.537230731074851 5.5561832745508735
6.650465978885351 3.1770532278606947 1.5651221866669514 1.9082905643577082
0.7509242432602864 0.6894088655783485 0.010401182666868692 0.05111419501506916
0.5556672422868467 0.520252112940378 0.009784480831936304 0.025630648514533
1.155690978708341 0.802311493518062 0.12724363037934416 0.2261358548109339
2.553271493368113 1.1761695474826332 0.5178083426856006 0.8592936031998781
5.348759489497196 1.7017352529938057 1.5895648735546075 2.0574593629487805
9.932152372832196 2.3703307680761356 3.5950715503571895 3.9667500543988687
16.75586548469758 3.2326893246796122 6.8635278067912395 6.659648353226725
26.140246067356358 4.3195355500183465 11.658087602303535 10.162622915034504
38.21872796566342 5.646091906716714 18.126788951082702 14.445847107863992
52.86951618664958 7.209189609212157 26.20741617785127 19.45291039958618
70.15136086784531 8.983715318311491 36.04738927710026 25.120256272433558
89.91838243811513 10.941748446077275 47.592625971576624 31.384008020461252
111.81649424420392 12.934497958657731 60.74103797148786 38.14095831405826
135.12833628789562 14.711226177110102 75.20466108564335 45.212449025142206
158.62758621547516 15.979886936153257 90.31485592427676 52.332843355045185
180.71447302724982 16.529416426498837 105.10841625787333 59.0766403428775
199.69902141406126 16.43129977130689 118.3239428771638 64.94377876559084
213.0395821816458 15.438204767641285 128.2566750949829 69.34470231902151
217.32177732565424 13.55635992538286 132.5115971179327 71.25382028233871
213.03958218163362 15.438204767665269 128.2566750949573 69.34470231901099
199.69902141402127 16.431299771339393 118.32394287711335 64.9437787655684
180.7144730271576 16.529416426498234 105.10841625781029 59.07664034284911
158.6275862153651 15.979886936145963 90.31485592420678 52.33284335501233
135.1283362877798 14.711226177098267 75.20466108557282 45.21244902510871
111.81649424409342 12.934497958650507 60.741037971419374 38.14095831402354
89.91838243801199 10.941748446077238 47.592625971509264 31.384008020425487
70.15136086774316 8.983715318302494 36.04738927704051 25.120256272400198
52.86951618656411 7.209189609214408 26.20741617779624 19.45291039955349
38.21872796558369 5.64609190670411 18.12678895104174 14.445847107837817
26.14024606729921 4.31953555001225 11.658087602273454 10.162622915013513
16.755865484657335 3.232689324676092 6.863527806770633 6.659648353210619
9.932152372803195 2.3703307680714962 3.595071550344366 3.966750054387334
5.348759489481066 1.701735252991212 1.5895648735480965 2.0574593629417595
2.553271493359588 1.1761695474801017 0.5178083426833113 0.8592936031961733
1.1556909787053227 0.8023114935166992 0.12724363037868047 0.22613585480994325
0.5556672422861308 0.520252112939699 0.009784480831911056 0.02563064851452092
0.7509242432587406 0.6894088655770659 0.010401182666800115 0.05111419501487388
6.650465978880211 3.1770532278615455 1.5651221866640221 1.9082905643546435
13.127897079491039 2.034483073879649 5.53723073106694 5.556183274544469
15.717273032013502 6.830656879511807 4.310213208865659 4.576402943636033
2.706642743379737 0.594367649069192 0.8944419323598193 1.2178331619507248
0.2773302718483262 0.3233021986359843 -0.015443895358456704 -0.030528031429201373
0.4306467046506345 0.4186361661923448 0.002319505391370091 0.009691033066919501
0.8700225981014209 0.6553353994539404 0.06703280787113096 0.14765439077635023
2.0375109956571036 0.9681981502840636 0.40465956676397236 0.6646532786090676
4.387808649911348 1.3333842243766434 1.2981345919561624 1.7562898335785422
8.402644657826482 1.7872771077002378 3.095571364596071 3.519796185530171
14.414015466795483 2.322926433258222 6.064856798682312 6.026232234854952
22.625962665935205 2.9364671682957555 10.404765430321282 9.284730067318156
33.119013938245274 3.6163215531118755 16.24588992231979 13.256802462813592
45.93336033331297 4.372109832558067 23.67825666044569 17.882993840309215
60.808072383209876 5.211096049608554 32.48012538507389 23.116850948527446
77.94874930538244 6.099159631942792 42.946358311434395 28.903231362005286
96.99291605622275 6.973374975452695 54.855581523441735 35.16395955732836
117.39492915835314 7.702494250025941 67.95578410788826 41.736650800438845
138.2042032996944 8.130069913479527 81.72983300460729 48.34430038160759
158.07033039783136 8.147775896684438 95.29072314055125 54.63183136059572
175.18813319179475 7.6636645919326964 107.41093665747152 60.11353194239045
187.28988979563073 6.741373916889378 116.4410347269017 64.10748115183962
191.89222391948266 5.689214600096804 120.37879867402295 65.82421064536292
187.28988979558704 6.7413739168745925 116.44103472688158 64.10748115183083
175.18813319173714 7.663664591939918 107.41093665742687 60.11353194237043
158.07033039775445 8.147775896690078 95.29072314049455 54.63183136056986
138.2042032996018 8.13006991347884 81.72983300454477 48.34430038157814
117.39492915825578 7.702494250024282 67.95578410782409 41.73665080040742
96.99291605612804 6.973374975452555 54.85558152337927 35.16395955729622
77.94874930528471 6.099159631936017 42.94635831137517 28.903231361973514
60.80807238312372 5.211096049608391 32.48012538501911 23.11685094849619
45.93336033323112 4.3721098325548216 23.678256660396812 17.88299384027947
33.11901393817706 3.616321553104203 16.245889922283204 13.256802462789643
22.625962665883804 2.9364671682902608 10.404765430294564 9.284730067298968
14.41401546676029 2.3229264332564843 6.064856798663816 6.026232234839984
8.402644657801464 1.787277107696422 3.0955713645850915 3.5197961855199518
4.38780864989654 1.3333842243743068 1.2981345919502916 1.7562898335719384
2.0375109956505373 0.9681981502830664 0.4046595667615706 0.6646532786059018
0.8700225980991075 0.6553353994527296 0.06703280787071424 0.14765439077566414
0.43064670465009364 0.4186361661917229 0.0023195053913721833 0.009691033066998606
0.2773302718482652 0.32330219863572807 -0.015443895358383603 -0.030528031429079117
2.706642743372666 0.594367649068039 0.8944419323569232 1.2178331619477039
15.71727303198627 6.8306568794998395 4.310213208857444 4.576402943628976
11.894391328433125 5.442288169143492 3.004968103849916 3.4471350554397113
1.6863739243741571 0.2452908028724214 0.5974413480723952 0.8436417734293429
0.17324174481925617 0.17292641002811968 4.676449773351186e-05 0.0002685702934029753
0.3188342113736006 0.3206070890116514 -0.0005802013574775437 -0.0011926762805733353
0.656887414812853 0.5619034168558832 0.02497946076636337 0.07000453719060658
1.5846299240652646 0.8670286427345629 0.26161469935300813 0.4559865819776944
3.554170710569467 1.2168226617968163 0.9542273401551328 1.3831207086175183
7.055471829660469 1.6371382954862952 2.473650061303938 2.944683472870234
12.338214935064787 2.11530233625756 5.025951450045994 5.196961148761233
19.583784522286678 2.646327567401883 8.809362038649109 8.128094916235682
28.797279813289133 3.229944186292392 13.881584523443921 11.685751103552821
39.91939874463673 3.877610010470371 20.22793862598352 15.813850108182837
53.08069305534626 4.6088160121829835 28.005436227812087 20.4664408153512
67.95726122301305 5.4072178733454 36.9294660036786 25.62057734598902
84.66452285936889 6.206963721145696 47.2540850854246 31.20347405279856
102.64999633129713 6.918710545335984 58.640350659047954 37.090935126913216
121.12620551091449 7.409365017751818 70.64952090414714 43.06731958901554
138.8542019955728 7.520779093494677 82.56346905414297 48.769953847935135
154.11757501553734 7.126999247024645 93.25858098675249 53.73199478176024
164.93301552939346 6.427406789133734 101.18730080465737 57.318307935602334
168.86452170008891 5.120802533984635 104.79520496855349 58.9485141975508
164.93301552937942 6.427406789143195 101.18730080464134 57.31830793559482
154.11757501547802 7.126999247017531 93.25858098671682 53.73199478174365
138.85420199550953 7.520779093503334 82.56346905409417 48.769953847911964
121.12620551083103 7.40936501774729 70.64952090409413 43.0673195889896
102.64999633120486 6.918710545325681 58.64035065899345 37.09093512688574
84.66452285928032 6.2069637211388216 47.25408508537105 31.203474052770453
67.95726122293334 5.40721787334415 36.929466003628185 25.62057734596096
53.08069305526558 4.608816012176651 28.00543622776521 20.466440815323708
39.919398744567374 3.8776100104685223 20.227938625942027 15.813850108156855
28.79727981323262 3.2299441862895986 13.881584523412009 11.685751103531013
19.583784522243764 2.646327567399392 8.809362038625986 8.128094916218384
12.338214935031733 2.1153023362552146 5.0259514500293 5.196961148747222
7.055471829639987 1.637138295484746 2.4736500612943164 2.9446834728609272
3.554170710557007 1.2168226617944904 0.9542273401506063 1.3831207086119104
1.5846299240596642 0.8670286427329472 0.2616146993513597 0.455986581975357
0.6568874148113432 0.561903416855023 0.024979460766143068 0.07000453719017724
0.318834211373332 0.3206070890112877 -0.0005802013574603985 -0.001192676280495211
0.17324174481922336 0.17292641002808581 4.676449773314657e-05 0.00026857029340440763
1.6863739243688052 0.24529080287212074 0.5974413480700402 0.8436417734266426
11.894391328406195 5.4422881691314355 3.0049681038421965 3.4471350554325664
8.999793619535005 4.239992082625268 2.1333815596072805 2.6264199773024584
1.135182121277568 0.11426122486920122 0.40094561421966946 0.6199752821886956
0.1212874745869451 0.1212874745869451 0.0 0.0
0.23822820471980502 0.23929784536895307 -0.00014743713551480084 -0.0009222035136332659
0.4938317630113665 0.46903522347865734 0.004945962679439997 0.019850576853269002
1.179580219184179 0.7504184994912473 0.14144277485776902 0.28771894483516264
2.8119384338222 1.1018004091672635 0.6796489106936241 1.0304891139613122
5.763414242997191 1.4830220735533453 1.8964308511749937 2.3839613182688524
10.332835510026882 1.9079487674982119 4.050329088335294 4.374557654193369
16.60705981916294 2.365556645824069 7.268420595716259 6.9730825776226135
24.541448710441593 2.8601881989169553 11.564631578615332 10.116628932909306
34.15729847930161 3.4162334492907505 16.995612649535786 13.745452380475063
45.33664032933121 4.046828049554906 23.462998622969497 17.826813656806802
58.304100895045174 4.747002375080681 31.220543022058408 22.336555497906094
72.66937317220683 5.485401140860597 39.94034254724286 27.243629484103394
88.20676947325153 6.182569962973074 49.57778769675917 32.446411813519276
104.43428933290198 6.723103263055521 59.95561714746308 37.755568922383375
120.12569169531636 6.940887890089314 70.29941429166806 42.88538951355897
133.74926045733253 6.7107955460317195 79.64003006080338 47.39843485049742
143.5565329148085 6.15158596330769 86.67661310461156 50.72833384688924
147.13149568390148 4.5897278281661515 90.19644571308376 52.34532214265152
143.5565329147858 6.151585963306714 86.67661310459656 50.72833384688249
133.74926045730138 6.710795546045185 79.64003006077323 47.398434850483
120.12569169525796 6.940887890092423 70.29941429162665 42.8853895135389
104.4342893328354 6.723103263056824 59.95561714741809 37.7555689223605
88.20676947318418 6.182569962977484 49.577787696712065 32.44641181349467
72.66937317213636 5.485401140860881 39.94034254719723 27.243629484078177
58.3041008949712 4.7470023750730705 31.220543022016304 22.336555497881847
45.336640329266416 4.046828049553217 23.462998622930222 17.826813656782967
34.15729847923769 3.4162334492823567 16.995612649502238 13.745452380453102
24.541448710388398 2.8601881989104694 11.564631578587978 10.116628932889954
16.60705981912536 2.365556645822622 7.268420595695899 6.973082577606828
10.332835509998773 1.907948767496082 4.050329088321428 4.374557654181264
5.763414242978584 1.4830220735512172 1.8964308511670118 2.383961318260353
2.8119384338118336 1.1018004091649891 0.6796489106899185 1.0304891139569259
1.179580219180032 0.7504184994897919 0.14144277485670548 0.28771894483353516
0.4938317630102647 0.46903522347775395 0.004945962679357321 0.01985057685315334
0.23822820471964157 0.23929784536879123 -0.0001474371355144136 -0.0009222035136352997
0.12128747458673204 0.12128747458673204 0.0 0.0
1.1351821212726287 0.11426122486850046 0.4009456142177208 0.619975282186408
8.999793619514504 4.2399920826175626 2.1333815596010015 2.6264199772959413
6.7129703509920855 3.2801241741853975 1.4654917684784214 1.9673544083282672
0.8311622373618032 0.11307845605607274 0.2862320958858829 0.43185168541984753
0.11042035194066323 0.11042035194066323 0.0 0.0
0.19076344975303153 0.19073455858759483 6.00771950039521e-06 2.2883445936305715e-05
0.37277923144828073 0.3770894381642879 -0.002527821953572426 -0.0017823847624347756
0.8613000768621792 0.6448626416289822 0.06395576194946034 0.15248167328373644
2.134380477756623 0.9665112827482257 0.4519938431261439 0.7158753518822545
4.546249341752374 1.3269265650359623 1.3751013589734558 1.8442214177429574
8.397897512273747 1.7008524904158195 3.1333900096436933 3.563655012214235
13.708380764685852 2.0926868506082505 5.791089523013176 5.824604391064432
20.4312258312813 2.5114937752967683 9.368248733107983 8.551483322876543
28.516207535948634 2.9802114026396693 13.8540801736798 11.681915959629169
37.99440995497755 3.523474425480974 19.28237756049692 15.188557968999653
48.73049852765955 4.139147170511052 25.524500847481335 19.06685050966714
60.92310367600382 4.799293029920176 32.8350222661018 23.288788379981863
74.24589188738757 5.473714606770696 40.9815607761729 27.790616504443957
88.12142853366811 6.066468927537821 49.61416512369546 32.4407944824348
101.83242475329577 6.414341817452143 58.433646202663844 36.98443673317978
113.99485975314302 6.358661362829314 66.58005884243057 41.05613954788317
123.05815685402098 5.9206139325763205 72.96170060073051 44.1758423207141
126.43191303543904 4.083755188697445 76.4767896385076 45.87136820823404
123.05815685400786 5.920613932581377 72.96170060071832 44.17584232070811
113.99485975309699 6.358661362820978 66.5800588424054 41.056139547870586
101.83242475324455 6.414341817451812 58.4336462026302 36.98443673316252
88.1214285336128 6.066468927540697 49.614165123657145 32.44079448241496
74.24589188731646 5.473714606761489 40.98156077613284 27.79061650442212
60.92310367594897 4.799293029928638 32.83502226606141 23.28878837995896
48.73049852760731 4.139147170514357 25.524500847446557 19.06685050964638
37.9944099549243 3.5234744254823664 19.282377560463498 15.188557968978424
28.516207535903597 2.980211402641586 13.854080173651916 11.681915959610091
20.43122583123752 2.511493775290771 9.36824873308626 8.551483322860483
13.708380764651762 2.0926868506038465 5.791089522996761 5.824604391051153
8.397897512250928 1.7008524904142344 3.1333900096327034 3.5636550122039896
4.546249341736962 1.326926565033428 1.3751013589672907 1.844221417736243
2.134380477749128 0.966511282746849 0.45199384312344115 0.715875351878839
0.8613000768589545 0.6448626416275867 0.06395576194878613 0.1524816732825812
0.3727792314474959 0.37708943816337415 -0.0025278219535562626 -0.001782384762322007
0.19076344975279735 0.190734558587403 6.007719496945806e-06 2.2883445897427194e-05
0.11042035194044367 0.11042035194044367 0.0 0.0
0.8311622373581515 0.11307845605575248 0.2862320958843337 0.4318516854180669
6.712970350975044 3.2801241741786025 1.465491768473582 1.9673544083228558
4.915408251394809 2.5160303143031326 0.9806667385481833 1.418711198543494
0.5894035573230126 0.14337852656361766 0.15914423597500185 0.286880794784393
0.12464487555978411 0.12464487555978411 0.0 0.0
0.1689251563712656 0.16889765922449623 2.1122973595452346e-06 2.5384849409824578e-05
0.29535277334786825 0.30367042780144987 -0.001981537860911128 -0.00633611659267045
0.6143562563940893 0.5326153942356282 0.01733451223954702 0.06440634991891439
1.514256123191066 0.8159485245482142 0.23933369760886566 0.4589739010339855
3.4644754503669013 1.1608095976200796 0.9684036949775895 1.335262157769232
6.528086804466703 1.4928559226302691 2.26588184132243 2.7693490405140064
10.926498579856785 1.8284389602889317 4.410873232865302 4.68718638670255
16.449338035840178 2.179159218413582 7.276359690163645 6.99381912726295
23.054256496391652 2.5730608246769444 10.854910329370572 9.626285342344143
30.746205422438088 3.0341835980206526 15.1520780006457 12.559943823771746
39.60818434627296 3.5686065503260616 20.237779180287763 15.801798615659145
49.54571398748539 4.168711362132355 26.031624456375674 19.34537816897736
60.45819723385257 4.794836954130093 32.518546811148305 23.144813468574185
72.2609939459036 5.41440746810266 39.747576943879544 27.099009533921397
84.01043909447932 5.911380825038606 47.040801007381496 31.058257262059218
94.74429713973115 6.052077606833877 53.965708631618035 34.726510901279205
103.24500735154632 5.735774168183305 59.8240100999705 37.68522308339253
106.55221526898012 3.6105874184791396 63.44435750318705 39.49727034731394
103.24500735153153 5.735774168184314 59.82401009996009 37.685223083387065
94.74429713970179 6.052077606831201 53.96570863160052 34.72651090127011
84.0104390944381 5.911380825038572 47.04080100735435 31.058257262045153
72.26099394585907 5.41440746810769 39.74757694384742 27.09900953390395
60.45819723380546 4.7948369541336975 32.518546811116124 23.14481346855567
49.54571398742412 4.168711362121379 26.031624456344066 19.34537816895867
39.60818434622283 3.5686065503213555 20.237779180259913 15.801798615641555
30.746205422388904 3.0341835980147422 15.152078000619703 12.559943823754475
23.05425649634813 2.5730608246738953 10.854910329346966 9.626285342327272
16.44933803580941 2.179159218416379 7.276359690144744 6.993819127248291
10.926498579832002 1.8284389602883373 4.410873232852338 4.687186386691327
6.5280868044491855 1.4928559226309748 2.265881841313291 2.7693490405049217
3.464475450354768 1.1608095976182287 0.9684036949727237 1.3352621577638162
1.5142561231849676 0.8159485245460307 0.23933369760726356 0.45897390103167296
0.6143562563920848 0.5326153942343413 0.017334512239305502 0.0644063499184378
0.2953527733475082 0.3036704278008917 -0.001981537860881089 -0.006336116592502492
0.16892515637106303 0.1688976592242932 2.112297359485174e-06 2.5384849410358673e-05
0.12464487555949992 0.12464487555949992 0.0 0.0
0.5894035573201187 0.14337852656337235 0.15914423597382674 0.28688079478291967
4.9154082513816935 2.516030314297859 0.9806667385446503 1.4187111985391854
3.4737539413616245 1.9009418962876024 0.6004570951415511 0.9723549499324717
0.4401387104878362 0.18744310981024634 0.08360081153338353 0.16909478914420648
0.14974105491992742 0.1497512527721665 -5.595583971474408e-07 -9.638293841952227e-06
0.16496779691872565 0.16495351090260857 9.176681420014073e-07 1.3368347975063384e-05
0.24928303048823777 0.25326325595264304 -0.0008008135603769826 -0.0031794119040282295
0.44513859214910834 0.43644933089143806 -0.0018682981514456343 0.010557559409115997
1.038535663225462 0.6764420144156702 0.11109103437624213 0.2510026144335494
2.4086529247741026 0.9683055001775331 0.5487122796421866 0.8916351449543833
4.880524331725613 1.285453713428846 1.5891630363255842 2.0059075819711847
8.239325956548651 1.5679176713885143 3.1073068136388335 3.5641014715213033
12.632045760124985 1.8622389794690544 5.321301356858541 5.448505423797389
17.823495665912137 2.1905612679627824 8.051284159193635 7.581650238755714
23.82872852032066 2.578345262088548 11.305503612453723 9.944879645778387
30.727828376493427 3.0391565726024248 15.137034207694198 12.551637596196809
38.543991835134804 3.56989533728764 19.559364124912445 15.414732372934717
47.348369562322915 4.15539026541344 24.686298965467042 18.506680331442418
56.61858088478154 4.773100393086606 30.073249024510567 21.77223146718438
66.51460713383607 5.387160486695569 36.033876405770364 25.093570241370102
76.10418514613221 5.760539008410255 42.00258729251164 28.341058845210338
84.08851772890583 5.605693000425391 47.293694446631335 31.189130281849142
87.48105363903346 3.184413853920433 51.11186637925515 33.18477340585788
84.0885177288942 5.605693000424019 47.29369444662467 31.189130281845536
76.1041851461101 5.760539008407121 42.00258729249925 28.34105884520375
66.51460713379026 5.387160486678549 36.03387640575188 25.09357024135983
56.61858088473216 4.773100393075058 30.0732490244866 21.772231467170528
47.348369562280986 4.155390265414152 24.686298965440347 18.50668033142647
38.543991835093486 3.569895337280982 19.55936412489128 15.41473237292124
30.727828376459364 3.0391565726018945 15.137034207674073 12.551637596183395
23.828728520289417 2.5783452620897744 11.305503612434723 9.944879645764932
17.823495665879275 2.1905612679591187 8.051284159176998 7.581650238743167
12.63204576009353 1.8622389794633487 5.321301356844443 5.448505423785737
8.239325956527146 1.5679176713866418 3.107306813628573 3.564101471511932
4.880524331709586 1.2854537134271897 1.589163036318405 2.0059075819639927
2.4086529247656037 0.968305500176346 0.5487122796389307 0.8916351449503271
1.038535663221689 0.6764420144141552 0.11109103437536047 0.2510026144321734
0.44513859214787627 0.4364493308904537 -0.001868298151513406 0.010557559408936318
0.24928303048789274 0.2532632559522786 -0.0008008135603706194 -0.0031794119040152407
0.16496779691840927 0.16495351090229757 9.176681415783688e-07 1.336834797013782e-05
0.14974105491949985 0.14975125277172657 -5.595583963068968e-07 -9.638293830423766e-06
0.44013871048580544 0.18744310981010598 0.08360081153258392 0.16909478914311518
3.4737539413516876 1.9009418962834366 0.6004570951391124 0.9723549499291408
2.4262788579607126 1.4497888522625584 0.37590637934798177 0.600583626350173
0.32281485181616126 0.21403958523050626 0.025295275074160618 0.0834799915114943
0.17602516907748414 0.17593406576041132 8.634099459166996e-06 8.246921761368372e-05
0.17244558650830707 0.17240964681903417 2.738212862720299e-06 3.320147641019133e-05
0.22421698883478677 0.22701774293987825 -0.000501295201066659 -0.002299458904024771
0.3432163661165753 0.35469729824760104 -0.0048898650416925255 -0.006591067089333425
0.6763857422850766 0.5396828544527537 0.03164838492726938 0.10505450290505382
1.5570101948349397 0.7763683401685216 0.2659803691981338 0.5146614854682842
3.244067470655261 1.0462954083263345 0.8893734349828629 1.308398627346064
5.819648297894684 1.3072348074418434 2.0382259964811826 2.474187493971658
9.004139489655145 1.5515942216949776 3.5327527394587643 3.9197925285014064
12.826341030343379 1.8246035230478472 5.446262343965915 5.555475163329616
17.24453203961113 2.14790174659564 7.74561326495693 7.3510170280585605
22.295820592117114 2.53657556414803 10.432469940470751 9.326775087498337
28.113292218617477 3.006876136746873 13.599818281994242 11.506597799876364
34.62845745194261 3.5437920021183666 17.190936057385734 13.893729392438528
41.87176941416514 4.129312898078123 21.302215999681376 16.440240516405627
49.603730904761754 4.8123882412526005 25.66657786169275 19.124764801816433
57.68976212768234 5.436868272962673 30.343875118684707 21.90901873603495
65.35413440085155 5.530948511137601 35.19053025055483 24.632655639159136
69.02627222775534 2.819090740120262 39.316783325822506 26.890398161812556
65.35413440085063 5.5309485111418155 35.19053025055139 24.632655639157417
57.689762127674776 5.436868272969128 30.343875118675857 21.909018736029793
49.60373090475008 4.812388241261414 25.666577861679947 19.124764801808745
41.87176941414308 4.129312898084144 21.302215999664035 16.440240516394894
34.62845745190203 3.543792002107623 17.190936057367594 13.893729392426815
28.11329221859083 3.0068761367460137 13.599818281978896 11.506597799865922
22.29582059209151 2.5365755641470304 10.432469940456409 9.326775087488059
17.24453203958208 2.1479017465894237 7.745613264943938 7.351017028048714
12.826341030319547 1.824603523043835 5.446262343955072 5.555475163320635
9.00413948963713 1.551594221694808 3.532752739449388 3.9197925284929322
5.819648297878168 1.3072348074390938 2.0382259964742024 2.474187493964872
3.2440674706452723 1.046295408324931 0.8893734349788498 1.308398627341491
1.5570101948296333 0.7763683401681064 0.26598036919612483 0.5146614854654015
0.6763857422826546 0.5396828544518097 0.03164838492679099 0.10505450290405378
0.34321636611581546 0.35469729824657265 -0.004889865041654667 -0.006591067089102655
0.22421698883441293 0.2270177429395433 -0.0005012952010637414 -0.002299458904066604
0.17244558650794956 0.17240964681865362 2.738212863633405e-06 3.320147643232204e-05
0.17602516907698212 0.17593406575979903 8.63409946762032e-06 8.246921771550165e-05
0.3228148518147584 0.214039585230268 0.025295275073738452 0.08347999151075172
2.4262788579534424 1.449788852259607 0.3759063793461018 0.600583626347734
1.5790132113789632 1.0736587154461166 0.16877174231927525 0.3365827536135712
0.25190779472156694 0.22714716237624744 0.0016509887159830506 0.02310964362933637
0.19821911901306832 0.198314835537777 -9.70905181493375e-06 -8.600747289372226e-05
0.18628690929572617 0.1864418208079836 -1.403443316258857e-05 -0.00014087707909488212
0.21312377655266648 0.21548322988497898 -0.0004474245630320721 -0.0019120287692804272
0.2889907250588437 0.29685497757146334 -0.0030209477364412547 -0.00484330477617847
0.45210457350106203 0.4262322951425782 0.0008371491342080613 0.025035129224275563
0.9059358005051136 0.5932495284344191 0.09180160848720427 0.22088466358349054
1.8895306760614903 0.795652176740558 0.3964548652238526 0.6974236340970793
3.5001603615788124 1.010069840664732 1.0322562343915183 1.4578342865225629
5.599482686150296 1.2186610955924413 1.9394026512873592 2.4414189392704975
8.14339333084091 1.4482859403453383 3.128847798487998 3.5662595920075706
11.062195855647843 1.717309348705388 4.543848193652404 4.801038313290046
14.395878428809517 2.0386849423061313 6.200839467672792 6.1563540188305925
18.26445571201529 2.439522392819199 8.165256734071917 7.659676585124167
22.75457067047906 2.932089324920394 10.485454025118266 9.337027320440411
27.8289403242503 3.4889657985171403 13.154666333961067 11.185308191772089
33.4029431032674 4.112415035502668 16.108449558387107 13.182078509377632
39.93690046284637 4.95098683146412 19.568027281653517 15.417886349728716
47.28581507457092 5.513258909225463 23.795030410961658 17.977525754383777
51.409858303546564 2.567564788348258 28.1692772238056 20.67301629139271
47.28581507457234 5.513258909228816 23.79503041096042 17.97752575438311
39.93690046283244 4.950986831458291 19.568027281648533 15.417886349725597
33.40294310324202 4.112415035492818 16.10844955837762 13.182078509371568
27.82894032422013 3.4889657985078513 13.15466633394865 11.185308191763625
22.75457067045676 2.932089324915519 10.485454025108071 9.337027320433178
18.264455711997037 2.4395223928185508 8.165256734061844 7.659676585116639
14.395878428796372 2.038684942309231 6.200839467663737 6.156354018823412
11.062195855631062 1.7173093486999293 4.543848193646344 4.8010383132847885
8.14339333082984 1.4482859403486792 3.1288477984804164 3.566259592000748
5.599482686134551 1.2186610955888588 1.939402651281316 2.4414189392643766
3.500160361569928 1.0100698406650253 1.0322562343871555 1.4578342865177465
1.889530676054897 0.7956521767386545 0.396454865221828 0.6974236340944153
0.905935800501721 0.5932495284340713 0.09180160848609946 0.22088466358154998
0.45210457349978705 0.42623229514182115 0.0008371491340378491 0.025035129223928275
0.28899072505832674 0.2968549775704358 -0.003020947736362741 -0.004843304775746319
0.21312377655229744 0.21548322988437846 -0.0004474245630105186 -0.00191202876907057
0.18628690929526676 0.18644182080760835 -1.4034433169503269e-05 -0.0001408770791720745
0.1982191190127682 0.19831483553736579 -9.709051808922449e-06 -8.600747278865128e-05
0.251907794720689 0.22714716237589247 0.001650988715800367 0.023109643628996104
1.5790132113739903 1.0736587154437958 0.1687717423182014 0.3365827536119934
1.0074560052653396 0.805094594525552 0.05990174099088626 0.1424596697489015
0.20824429906495887 0.22044947768921969 -0.005380900648414839 -0.006824277975845866
0.21407648544265181 0.21380875517065107 3.4149857777454e-05 0.00023358041422331645
0.20259011890111406 0.2024819940429957 1.0539993937436052e-05 9.758486418090771e-05
0.21412397583803114 0.2159202833441092 -0.00040176338267000617 -0.0013945441234080932
0.26388267159124573 0.26913696909999446 -0.0019286936805866773 -0.003325603828161912
0.3487733878614654 0.33929146408644717 -2.0802369950991836e-05 0.009502726144969194
0.49699501958915804 0.416373989172092 0.017252048456187222 0.06336898196087849
0.8536362123024082 0.5263057832977535 0.0973161563000724 0.23001427270458238
1.55797736277447 0.6625704860576079 0.3176716730304344 0.5777352036864282
2.6389363294007135 0.8091932178134037 0.7352547907321703 1.0944883208551388
3.9420414218008255 0.9719333420743336 1.2547559876744865 1.7153520920520056
5.496996503070786 1.1714493637301284 1.9200001924901777 2.4055469468504813
7.314461791232209 1.4199013120816903 2.7226353860856616 3.17192509306486
9.45297279131728 1.7379752051056059 3.6790250832465814 4.035972502965092
12.04352179299191 2.1595345603508527 4.8464691794521375 5.03751805318892
15.203989825452737 2.689541977552933 6.300337604316547 6.214110243583256
18.8912385906055 3.243359228864162 8.08598500941335 7.561894352327989
23.304612021946568 3.942238036195893 10.228804702025341 9.133569283725322
29.793217126154104 5.236758218570678 13.269409949876925 11.287048957706507
35.49396224398162 2.576028824282947 18.308218627841878 14.609714791856785
29.793217126149372 5.23675821856182 13.269409949879385 11.287048957708162
23.30461202195162 3.942238036206012 10.228804702022368 9.133569283723237
18.89123859060087 3.243359228868549 8.085985009408184 7.561894352324141
15.20398982543842 2.6895419775512357 6.30033760430943 6.214110243577756
12.043521792984482 2.1595345603521943 4.8464691794473875 5.0375180531848995
9.452972791310858 1.7379752051079682 3.6790250832419598 4.035972502960931
7.314461791221186 1.4199013120788122 2.7226353860813757 3.1719250930609966
5.496996503066592 1.1714493637320555 1.920000192487125 2.4055469468474104
3.9420414217909707 0.9719333420725254 1.25475598767061 1.7153520920478358
2.6389363293924286 0.8091932178098965 0.7352547907299357 1.094488320852597
1.557977362769364 0.6625704860565701 0.31767167302869215 0.5777352036841018
0.8536362123002164 0.5263057832970715 0.09731615629951407 0.23001427270363067
0.4969950195874634 0.4163739891713467 0.01725204845589041 0.06336898196022661
0.34877338786063383 0.33929146408556693 -2.0802369971043705e-05 0.009502726145037887
0.26388267159055406 0.2691369690992637 -0.0019286936805778024 -0.0033256038281318243
0.21412397583765302 0.21592028334354169 -0.0004017633826427479 -0.001394544123245906
0.20259011890078346 0.202481994042486 1.0539993954097575e-05 9.758486434334361e-05
0.2140764854421061 0.2138087551699398 3.4149857794819484e-05 0.00023358041437158668
0.20824429906456485 0.2204494776889093 -0.005380900648422734 -0.006824277975921639
1.0074560052623573 0.8050945945240648 0.059901740990343955 0.14245966974794816
0.6295320696852469 0.5881645313669901 0.008137638256748094 0.03322990006150889
0.18876863461980398 0.19604685363528432 -0.001467308467100187 -0.0058109105483802135
0.22348164068134518 0.22408450308167344 -6.81031882555809e-05 -0.000534759212072727
0.21868392968837091 0.21839778848514668 3.137707146020031e-05 0.000254764131764003
0.22499201487096887 0.22579141766348318 -0.0002919967532275856 -0.0005074060392866709
0.2608796953984051 0.2635797277522728 -0.001402222799255669 -0.001297809554612064
0.32338695438466264 0.30888348735284826 0.0020843351976795655 0.012419131834134877
0.3779419703162143 0.31167701020106364 0.016055543188355177 0.05020941692679556
0.42528027404487806 0.2716716741747083 0.04855401162236922 0.1050545882478005
0.5428323842504272 0.2460477320108844 0.10214334671475092 0.19464130552479197
0.8255425466596378 0.285030782242084 0.21407004473836255 0.32644171967919133
1.2599606262633296 0.30594427741354063 0.3784033405006842 0.5756130083491049
1.8506440059421272 0.3088857931145558 0.6371326435132507 0.9046255693143204
2.5809803447440904 0.3291392550511631 0.9678914908849305 1.283949598807997
3.470360886906531 0.3854118884828413 1.3727852970955996 1.7121637013280901
4.522196071309697 0.4985354086015065 1.8391472808850418 2.184513381823149
5.787907434931077 0.6925901395465168 2.399458572267927 2.6958587231166327
7.2523217668130675 0.9534425671191938 3.0563188874435716 3.2425603122503
9.319018853922726 1.3889801293977972 3.9531209755559265 3.9769177489690017
14.72427379979658 3.1633838843453734 5.762421648805934 5.79846826664527
24.6317932407433 2.7607238359868784 11.58219768350282 10.288871721253598
14.724273799810216 3.1633838843521227 5.762421648809799 5.798468266648299
9.319018853903538 1.3889801293827249 3.9531209755537398 3.976917748967075
7.25232176679828 0.9534425671123757 3.056318887439323 3.2425603122465794
5.78790743491999 0.6925901395435362 2.3994585722637347 2.695858723112717
4.522196071308022 0.4985354086035072 1.8391472808832159 2.184513381821299
3.4703608868958145 0.385411888477678 1.3727852970928622 1.7121637013252742
2.580980344738825 0.3291392550499922 0.9678914908830123 1.2839495988058212
1.8506440059366542 0.30888579311423703 0.6371326435108069 0.9046255693116105
1.2599606262591347 0.3059442774131831 0.37840334049893437 0.5756130083470172
0.825542546659708 0.2850307822435516 0.21407004473754554 0.3264417196786105
0.542832384249876 0.24604773201084745 0.1021433467145318 0.19464130552449715
0.4252802740446252 0.2716716741750078 0.048554011622155974 0.10505458824746114
0.37794197031603294 0.3116770102013281 0.01605554318821246 0.05020941692649242
0.3233869543842878 0.30888348735263155 0.0020843351976024666 0.012419131834053765
0.2608796953980353 0.2635797277518315 -0.0014022227992449285 -0.0012978095545514378
0.22499201487051707 0.22579141766286726 -0.0002919967532084122 -0.0005074060391417402
0.21868392968819636 0.21839778848481645 3.1377071478097815e-05 0.00025476413190171876
0.2234816406808329 0.22408450308122674 -6.810318826241634e-05 -0.0005347592121313165
0.18876863461990995 0.19604685363506577 -0.0014673084670491815 -0.005810910548106753
0.6295320696836696 0.5881645313658224 0.008137638256605538 0.03322990006124209
0.4056036625697611 0.4063775564262608 -0.00021065201622299384 -0.0005632418402766414
0.1776144709545229 0.17766977075444748 1.0336841460705155e-05 -6.563664138530817e-05
0.22680326712009 0.22659548775624308 6.271207509849747e-06 0.00020150815633710638
0.2324034687525125 0.23200383160106494 3.873544058718962e-05 0.0003609017108603489
0.24192781548094863 0.24167284232208516 -0.00015581172214728915 0.0004107848810108001
0.281013472803991 0.28134539723255947 -0.0011306705241080298 0.0007987460955396503
0.36000733849829136 0.3469424030440343 0.00159788568915064 0.01146704976510657
0.5028903714422609 0.418276941940719 0.01880359083371293 0.06580983866782882
0.8554574532045867 0.5262328052785545 0.09804765458619671 0.23117699333983566
1.5569863649514946 0.6621626776788064 0.3173602847724655 0.5774634025002219
2.6425149016942733 0.8109924853737719 0.7364949645547654 1.095027451765737
3.9614455612506347 0.9751736243695723 1.2639836383702483 1.722288298510812
5.538267293586899 1.177128806425419 1.9378270702961158 2.423311416865366
7.355497793131089 1.4208124809709985 2.7443778268235777 3.1903074853365125
9.352223231296858 1.7067650428218717 3.6442820766320736 4.001176111842908
11.421706222176995 2.0368182227165685 4.583671092235681 4.801216907224749
13.299493767463044 2.392441353145221 5.4229573450469495 5.484095069270875
14.798291189354863 2.8112213963199517 6.0679601406549315 5.919109652379981
15.324621806118015 3.1060233267275477 6.239604030057681 5.978994449332789
12.37672721189631 2.096458947900733 5.3694571390572685 4.9108111249383
24.94739909190087 4.37035136462917 10.694196841321462 9.88285088595023
12.376727211889623 2.096458947890337 5.369457139059362 4.910811124939923
15.324621806122323 3.106023326733757 6.239604030056621 5.978994449331949
14.798291189341818 2.811221396317978 6.067960140648678 5.9191096523751545
13.299493767453015 2.392441353148035 5.422957345039871 5.48409506926512
11.421706222150684 2.036818222704011 4.58367109222818 4.801216907218489
9.352223231286843 1.7067650428225334 3.6442820766265154 4.001176111837796
7.3554977931209855 1.4208124809715326 2.744377826818036 3.1903074853314175
5.538267293571944 1.1771288064224343 1.9378270702900975 2.4233114168594123
3.9614455612401898 0.9751736243687379 1.2639836383656147 1.722288298505837
2.6425149016832243 0.8109924853715118 0.7364949645506892 1.0950274517610228
1.5569863649452171 0.6621626776775027 0.31736028477035566 0.5774634024973592
0.8554574532018099 0.5262328052777406 0.0980476545854698 0.23117699333859937
0.5028903714410499 0.4182769419400749 0.0188035908335242 0.06580983866745073
0.3600073384972222 0.3469424030430863 0.0015978856890853741 0.01146704976505031
0.28101347280359773 0.281345397231872 -0.001130670524075191 0.000798746095801015
0.24192781548035625 0.2416728423213542 -0.00015581172213689767 0.0004107848811390008
0.23240346875226975 0.23200383160064245 3.8735440604097e-05 0.0003609017110232834
0.22680326711972823 0.22659548775576302 6.271207516645667e-06 0.0002015081564484114
0.1776144709543112 0.17766977075428278 1.0336841452681612e-05 -6.563664142416261e-05
0.40560366256895536 0.4063775564251499 -0.0002106520161897072 -0.0005632418400048872
0.262401392601137 0.26238065347101475 1.3476233019465938e-06 1.9391506820260498e-05
0.16383675859588653 0.1638857537072113 -2.6962980335594046e-06 -4.629881329123321e-05
0.22369004541459456 0.22412499332740032 -5.8982720164303794e-05 -0.00037596519264152434
0.24208656182520968 0.24131155549993671 6.457479156227751e-05 0.0007104315337107643
0.26322732839426294 0.2653125840222203 -0.0005436267969513492 -0.001541628831005924
0.32256363560043994 0.3252847095484842 -0.0014003969448368662 -0.00132067700320765
0.4697358145107603 0.4276926867584956 0.004580990807647437 0.03746213694461723
0.914487796932565 0.5941304460855323 0.09494536604061263 0.22541198480641986
1.889728055673761 0.7953796479850953 0.39661496465443136 0.6977334430342335
3.4986525241145614 1.010004852195736 1.0314332465196976 1.4572144253991273
5.603538075414148 1.2194709738634286 1.9409167845625113 2.443150316988206
8.161200415299822 1.4507839231504938 3.1368417254665486 3.573574766682779
11.097596941323038 1.7201461393262574 4.561602974434252 4.8158478275625365
14.418639812015325 2.032127243363443 6.217636363910187 6.16887620474169
18.13085154093132 2.3936170652365756 8.116673656915236 7.62056081877951
22.08559207475528 2.7946026035352203 10.178763513130777 9.112225958089274
25.95763873274577 3.2380187781749834 12.197361098885004 10.522258855685788
29.254643562188374 3.7483844571977167 13.831148587034095 11.675110517956545
30.867417029624285 3.9728401965126596 14.67939583458132 12.2151809985303
28.648790200304084 3.8820939024221444 13.508530554396726 11.258165743485222
35.27018031261762 8.464198943333493 14.574491189214559 12.23149018006956
28.648790200328875 3.8820939024395122 13.508530554401247 11.258165743488114
30.867417029617723 3.972840196508601 14.679395834579804 12.215180998529316
29.254643562176117 3.7483844572023237 13.831148587023975 11.675110517949822
25.957638732722295 3.238018778172765 12.197361098872385 10.522258855677133
22.08559207473804 2.7946026035420335 10.178763513116817 9.112225958079193
18.130851540908548 2.3936170652342814 8.116673656903556 7.620560818770715
14.418639811995021 2.032127243361152 6.217636363900192 6.168876204733668
11.097596941302966 1.7201461393266289 4.561602974423161 4.815847827553178
8.161200415273747 1.4507839231434838 3.136841725456498 3.573574766673766
5.6035380753953055 1.2194709738620642 1.9409167845537791 2.4431503169794606
3.4986525241018236 1.0100048521949563 1.0314332465139957 1.4572144253928736
1.8897280556671612 0.7953796479844066 0.3966149646518988 0.6977334430308554
0.9144877969289371 0.5941304460840825 0.09494536603981316 0.2254119848050414
0.4697358145092496 0.427692686757652 0.004580990807431906 0.03746213694416604
0.3225636355994221 0.3252847095472856 -0.0014003969448180187 -0.0013206770030455726
0.26322732839382906 0.2653125840215637 -0.0005436267969107046 -0.0015416288308239701
0.24208656182489469 0.24131155549946393 6.45747915746239e-05 0.0007104315338560983
0.22369004541422544 0.22412499332696972 -5.898272016010979e-05 -0.0003759651925841315
0.16383675859559485 0.16388575370694775 -2.69629803506616e-06 -4.629881331786895e-05
0.2624013926005696 0.26238065347046047 1.3476233008971399e-06 1.9391506808273514e-05
0.16250937030683965 0.16250937030683965 0.0 0.0
0.14493950258455945 0.14494380681631003 -1.4328105404036436e-07 -4.160950696500454e-06
0.2137288306960056 0.21401493381022152 -3.638569753573047e-05 -0.00024971741668023073
0.24798165862607302 0.2487928065708361 -0.00015559866005582877 -0.0006555492847073142
0.2881794926054445 0.2892935654769887 -0.00046311942456465113 -0.0006509534469795544
0.38360534766960375 0.3750985181118208 -0.0013909177223015848 0.00989774728008478
0.7032930628449864 0.5475249318164607 0.04018990882237815 0.11557822220614739
1.5631322175112197 0.7768502151461192 0.2689224882026853 0.5173595141624151
3.2418189332454106 1.046288419969461 0.8882770581289117 1.3072534551470358
5.819462202845377 1.307582761961507 2.0382098442796805 2.473669596604192
9.008726664386215 1.5521569122756453 3.533607054179191 3.922962697931381
12.839536536013425 1.8256799697981791 5.453015289338065 5.560841276877186
17.259202961151743 2.1476852570126646 7.754162674983941 7.357355029155139
22.277900519293834 2.5246990161288583 10.429151709744316 9.324049793420658
27.94488427647463 2.954837855750876 13.530925583045764 11.459120837677988
34.03763925837036 3.42055913093407 16.908298329831112 13.70878179760517
40.30648957434747 3.914298777436347 20.47209734777585 15.920093449135269
45.621350330531506 4.291797012324549 23.51004665373428 17.819506664472684
48.30619732096379 4.375762075880265 25.135997667630377 18.794437577453134
44.994984907187565 3.868728792979603 23.403826846604264 17.722429267603694
50.453040387215864 11.441585704677797 22.060146749603376 16.951307932934704
44.99498490718658 3.868728792970627 23.403826846609228 17.722429267606692
48.306197320953935 4.375762075877084 25.135997667626214 18.794437577450648
45.62135033050293 4.291797012319109 23.51004665371985 17.819506664463987
40.30648957430457 3.9142987774261266 20.472097347755703 15.920093449122731
34.0376392583322 3.420559130929352 16.908298329810812 13.708781797592028
27.944884276439524 2.9548378557472326 13.530925583027015 11.45912083766527
22.277900519260754 2.5246990161238463 10.42915170972793 9.324049793408982
17.259202961121026 2.147685257011337 7.754162674967217 7.357355029142477
12.8395365359874 1.8256799698009765 5.453015289322163 5.560841276864255
9.008726664362042 1.5521569122754555 3.5336070541664872 3.9229626979201027
5.819462202827077 1.3075827619608853 2.038209844270723 2.473669596595468
3.2418189332337244 1.0462884199682816 0.8882770581239892 1.3072534551414536
1.5631322175049052 0.7768502151441227 0.2689224882009222 0.5173595141598598
0.7032930628418914 0.5475249318149321 0.04018990882183233 0.11557822220512709
0.3836053476684792 0.37509851811101386 -0.0013909177224065775 0.009897747279871884
0.2881794926048613 0.28929356547614027 -0.0004631194245287767 -0.0006509534467501096
0.24798165862582316 0.24879280657041192 -0.00015559866003258494 -0.0006555492845560463
0.21372883069565762 0.21401493380991146 -3.638569754099639e-05 -0.0002497174167128549
0.14493950258450783 0.14494380681624838 -1.432810533475878e-07 -4.1609506871892085e-06
0.16250937030643692 0.16250937030643692 0.0 0.0
0.09521122791816289 0.09521122791816289 0.0 0.0
0.12155756016139797 0.12155333408767059 2.3276924337965782e-07 3.99330448403657e-06
0.19791684821498112 0.19804456735094572 -1.566255569609802e-05 -0.00011205658026853548
0.2504300033146462 0.25075681512975534 -9.995603575295392e-05 -0.00022685577935620645
0.31595296467797596 0.3203943954643844 -0.001317048169872308 -0.003124382616536076
0.49002542908738383 0.4557187739458203 0.0059942502217438945 0.02831240491981968
1.0557158550237584 0.6733669976126125 0.11777137461542042 0.2645774827957255
2.409727778251622 0.9687760664720526 0.5494400026682777 0.8915117091112921
4.877546120035586 1.2860212288855626 1.5873647133153614 2.004160177834661
8.240722775221633 1.5684903829330348 3.1075433624608264 3.5646890298277727
12.638482052649575 1.8621984801262133 5.3251222319558655 5.451161340567495
17.825929422352555 2.188537712135341 8.053879919887363 7.583511790329858
23.807553736599154 2.571681348705914 11.297139501891792 9.938732886001475
30.651777006508773 3.022527414292105 15.10156894251903 12.527680649697619
38.36593198860095 3.5332214204591397 19.472779738610978 15.35993082953084
46.93468638570353 4.078104088833221 24.476099248069072 18.380483048801253
55.40134189594157 4.542902822633222 29.448612425356387 21.40982664795198
62.81167758633669 4.751945759665073 34.070099887536564 23.98963193913504
66.32201365862088 4.459834004745107 36.539570733338195 25.32260892053757
62.0754645321051 3.951096624389213 34.14059432015796 23.983773587557934
67.43085864656673 14.350062259549494 30.876427630983287 22.20436875603394
62.07546453209552 3.9510966243798915 34.14059432015782 23.983773587557796
66.32201365859927 4.459834004738318 36.53957073332863 25.322608920532335
62.811677586306594 4.751945759666863 34.0700998875161 23.9896319391236
55.40134189590568 4.542902822639253 29.448612425329898 21.409826647936526
46.9346863856611 4.078104088834092 24.47609924804207 18.380483048784964
38.365931988555175 3.5332214204553543 19.47277973858529 15.359930829514521
30.651777006464297 3.022527414287681 15.101568942494975 12.527680649681635
23.807553736557775 2.571681348703626 11.297139501868847 9.938732885985296
17.82592942231385 2.188537712132332 8.053879919867097 7.583511790314435
12.638482052616332 1.862198480123548 5.325122231939167 5.451161340553616
8.240722775197352 1.5684903829308767 3.107543362449304 3.5646890298171714
4.877546120019055 1.2860212288843178 1.5873647133077273 2.0041601778270106
2.4097277782418978 0.9687760664704642 0.5494400026646341 0.8915117091068002
1.0557158550187888 0.6733669976109169 0.11777137461414289 0.2645774827937287
0.4900254290858934 0.45571877394493915 0.005994250221570404 0.02831240491938398
0.31595296467737977 0.320394395463456 -0.0013170481698144608 -0.003124382616261712
0.25043000331446313 0.2507568151293198 -9.99560357330905e-05 -0.00022685577912369238
0.197916848214766 0.19804456735076845 -1.5662555700292555e-05 -0.00011205658030218373
0.12155756016120213 0.1215533340874748 2.3276924336996675e-07 3.9933044839934034e-06
0.09521122791783153 0.09521122791783153 0.0 0.0
0.05247139229656775 0.05247139229656775 0.0 0.0
0.09636962649317327 0.09636962649317327 0.0 0.0
0.17773777912459085 0.17773983558978854 -7.278509637657546e-07 -1.3286142339091981e-06
0.25028842149873837 0.2513235380457867 -0.00017838799974565295 -0.0008567285473026925
0.3508531499893207 0.35177994369329546 -0.0015715005556246465 0.0006447068516498649
0.6515269150859453 0.5452477625684691 0.027233644293934232 0.07904550822354187
1.5270042254278797 0.8158493003668779 0.24577210499952507 0.4653828200614764
3.462278964495177 1.1619591975148187 0.9670149623932127 1.3333048045871458
6.526538992509461 1.4938230685971117 2.2647458968692966 2.7679700270430554
10.930188660262434 1.8289898942103058 4.41250358951824 4.688695176533887
16.454081297867898 2.178040395005426 7.279668893296454 6.996372009566018
23.040601585699378 2.566256181944141 10.850939578999999 9.623405824755237
30.678809612187656 3.017634122142934 15.12164548207842 12.539530007966295
39.46678037215483 3.5487098397498196 20.16324875092689 15.754821781478139
49.36823922364654 4.1622105958805085 25.924500024409337 19.281528603356694
60.21662382083185 4.766185131037915 32.38247487706048 23.067963812733456
71.37169436859006 5.177405921667547 39.32552020667576 26.86876824024675
80.518376786841 5.108454503387399 45.2851808894301 30.12474139402347
84.49559081947292 4.4506204722690885 48.27726617086592 31.7677041763379
79.76147336999318 4.156419155783032 45.4285896963699 30.17646451784023
85.94890784496503 17.279835646225045 40.92661181655364 27.74246038218636
79.76147336998862 4.156419155784202 45.428589696366195 30.176464517838244
84.49559081945276 4.4506204722720595 48.27726617085075 31.767704176329946
80.51837678679865 5.108454503385768 45.2851808894036 30.1247413940093
71.37169436853611 5.177405921663516 39.325520206643546 26.868768240229105
60.21662382077633 4.766185131033586 32.38247487702789 23.067963812714854
49.36823922358938 4.162210595876199 25.924500024376258 19.281528603336906
39.46678037210523 3.548709839749264 20.163248750896777 15.754821781459206
30.678809612135915 3.0176341221419856 15.121645482047956 12.539530007945995
23.04060158565292 2.566256181942668 10.850939578973742 9.623405824736503
16.45408129782806 2.178040395003966 7.279668893274828 6.996372009549267
10.930188660230886 1.828989894206689 4.412503589503184 4.688695176521014
6.526538992488949 1.4938230685951641 2.2647458968600485 2.7679700270337353
3.4622789644822536 1.1619591975138888 0.9670149623875041 1.3333048045808613
1.5270042254211003 0.8158493003652248 0.24577210499743013 0.4653828200584462
0.651526915083355 0.5452477625670511 0.027233644293527356 0.07904550822277645
0.35085314998865313 0.35177994369244686 -0.0015715005556042458 0.0006447068518106991
0.2502884214982669 0.2513235380452661 -0.00017838799974028653 -0.0008567285472588715
0.17773777912451652 0.177739835589736 -7.278509658320295e-07 -1.3286142536898238e-06
0.09636962649305593 0.09636962649305593 0.0 0.0
0.05247139229630781 0.05247139229630781 0.0 0.0
0.027114424072689155 0.027114424072689155 0.0 0.0
0.07225384420968031 0.07225384420968031 0.0 0.0
0.15559631370899693 0.155589496945329 3.960330448053176e-07 6.420730623111643e-06
0.24982049768613798 0.2506643672397829 -0.0001544627011793179 -0.000689406852465492
0.4055113232198773 0.402498586875957 -0.0005131481156506409 0.00352588445957097
0.869952626614225 0.6312124840002931 0.0670609451716162 0.17167919744231538
2.139217626271449 0.9667291908045188 0.45533557541408626 0.7171528600528427
4.543779803195107 1.3283232534335268 1.373060089931218 1.8423964598303622
8.398881945949402 1.7019316624638279 3.1335778139837407 3.5633724695018327
13.713819451064108 2.092992171138714 5.7939598997094235 5.8268673802159725
20.43179462695027 2.508591215125463 9.370267539808944 8.552935872015862
28.48308038148607 2.9678631660202974 13.84172371914331 11.673493496322468
37.88150911708802 3.4969298728226335 19.229558849126178 15.155020395139221
48.525216551358966 4.114273156656482 25.41172959516343 18.99921379953907
60.71280785721582 4.812796358536655 32.69235710577522 23.207654392903954
74.08201735965272 5.491555850016166 40.86336777469002 27.72709373494653
87.4161516712837 5.818394382702158 49.313393358591085 32.28436392999046
98.38693094056603 5.414050061835583 56.81188238197233 36.16099849675815
103.25916964121718 4.4512299205161945 60.68904240644746 38.11889731425356
98.24991153377117 4.407218961521519 57.39804415991724 36.44464841233243
105.60604745490855 20.200827405957014 51.80568141555797 33.59953863339356
98.2499115337501 4.407218961511105 57.39804415991008 36.44464841232886
103.25916964117717 4.451229920509027 60.68904240642572 38.118897314242474
98.38693094052198 5.41405006184011 56.81188238194006 36.16099849674178
87.4161516712233 5.818394382702552 49.31339335855119 32.28436392996957
74.08201735957847 5.4915558500058825 40.863367774648545 27.727093734924015
60.71280785714745 4.812796358532698 32.69235710573413 23.207654392880606
48.525216551289596 4.114273156647149 25.411729595125877 18.999213799516554
37.88150911703083 3.496929872825149 19.229558849089685 15.155020395115978
28.483080381429552 2.9678631660180494 13.841723719111002 11.673493496300491
20.431794626902363 2.5085912151226175 9.370267539783006 8.55293587199673
13.713819451025914 2.0929921711360695 5.793959899689794 5.826867380200055
8.39888194592427 1.7019316624621588 3.1335778139716632 3.5633724694904467
4.543779803178642 1.3283232534317069 1.3730600899241316 1.8423964598228035
2.139217626262561 0.9667291908026323 0.4553355754109837 0.7171528600489427
0.8699526266108608 0.6312124839989759 0.0670609451708542 0.17167919744103108
0.4055113232190032 0.4024985868751079 -0.0005131481156725962 0.0035258844595677705
0.24982049768577153 0.2506643672394043 -0.00015446270118031594 -0.000689406852452322
0.15559631370892654 0.15558949694525953 3.960330447626668e-07 6.4207306222634735e-06
0.07225384420960557 0.07225384420960557 0.0 0.0
0.02711442407257066 0.02711442407257066 0.0 0.0
0.01328622898752446 0.01328622898752446 0.0 0.0
0.05149812056728242 0.05149812056728242 0.0 0.0
0.1342614934921123 0.13425899116744058 1.22441077168008e-07 2.379883594554421e-06
0.2528825725058276 0.25411478747744665 -0.00022268051694739646 -0.0010095344546717522
0.48717841324918915 0.4606528071697409 0.005326667513037534 0.02119893856641078
1.1758528585934 0.746072077054879 0.14247296104720383 0.2873078204913178
2.8105428184388166 1.1017854775277485 0.6790791097514748 1.0296782311595933
5.7640705099937515 1.4840743092809103 1.89649270106352 2.38350349964932
10.337209330432866 1.9089694579960828 4.052244128485559 4.375995743951229
16.612787874705848 2.365159067919735 7.271943059682579 6.975685747103528
24.534841245950403 2.8548712197327464 11.563907391187911 10.11606263502976
34.10412762629029 3.3989279903665848 16.973891580788532 13.731308055135184
45.18840976387932 4.013584010187486 23.391533357421324 17.783292396270507
58.04140347733676 4.712707455293582 31.07547616654748 22.253219855495686
72.36158258233463 5.486577655648105 39.74058811622928 27.134416810457235
87.92447447277534 6.2046171157869905 49.378219263072346 32.341638093915996
103.63443491251361 6.467906235957969 59.593504841076026 37.573023835479646
116.50419677273064 5.763154047732558 68.65834803139569 42.08269469360235
122.54392588957167 4.486790633270426 73.56658169034564 44.49055356595558
117.82610554642507 4.642586082152171 70.30924351530172 42.87427594897122
126.93783392221829 23.06597960903084 64.06957427080958 39.80228004237786
117.82610554640524 4.642586082149245 70.30924351529038 42.87427594896572
122.54392588952602 4.486790633270212 73.56658169031493 44.490553565940814
116.50419677267135 5.763154047730735 68.65834803135706 42.082694693583505
103.63443491244261 6.467906235958064 59.59350484102879 37.573023835455764
87.92447447270098 6.2046171157888175 49.378219263022274 32.34163809388985
72.36158258226007 5.486577655649156 39.7405881161804 27.134416810430537
58.04140347726367 4.712707455292556 31.07547616650176 22.25321985546936
45.18840976380594 4.013584010182938 23.391533357378535 17.783292396244455
34.10412762622506 3.3989279903643594 16.973891580750482 13.731308055110212
24.53484124589448 2.8548712197293096 11.563907391157148 10.116062635008031
16.612787874664214 2.365159067919641 7.271943059659147 6.975685747085418
10.337209330402722 1.9089694579941217 4.0522441284705515 4.37599574393805
5.764070509973812 1.4840743092777504 1.8964927010554722 2.383503499640589
2.810542818427483 1.1017854775255467 0.6790791097473218 1.029678231154616
1.1758528585887977 0.7460720770531069 0.1424729610460762 0.2873078204896143
0.4871784132479685 0.4606528071689665 0.005326667512891421 0.0211989385661104
0.25288257250555435 0.25411478747696287 -0.00022268051693478475 -0.0010095344544735303
0.13426149349214725 0.13425899116747872 1.2244107697319608e-07 2.3798835915387224e-06
0.051498120567110825 0.051498120567110825 0.0 0.0
0.013286228987496039 0.013286228987496039 0.0 0.0
0.006426713967084182 0.006426713967084182 0.0 0.0
0.03551467045153449 0.03551467045153449 0.0 0.0
0.11682265499834417 0.11682265499834417 0.0 0.0
0.2658377263351102 0.2682999259060532 -0.000475832948218091 -0.0019863666227248646
0.6055897848472086 0.528130995566818 0.0186406715281296 0.0588181177522612
1.562593112146075 0.8616953540307052 0.25458917077219834 0.4463085873431717
3.5516537295575636 1.216928500366037 0.952199707902344 1.3825255212891807
7.062980249894361 1.6378741782592345 2.4785885034606427 2.9465175681744857
12.345477402802636 2.115846273908068 5.0295893142017745 5.2000418146927965
19.58811691934489 2.644797810688866 8.812829099407772 8.13049000924826
28.78129897181566 3.2218798305737293 13.876910733260043 11.682508407981874
39.848099510077276 3.856823269136669 20.19690948162871 15.794366759311906
52.90851571289899 4.572521200455673 27.919828270680984 20.416166241762298
67.64755458327721 5.3612194138818845 36.759938923242316 25.526396246153006
84.19937972468142 6.1587708996431445 46.981415523547554 31.05919330149072
101.9730048354032 6.84240074372686 58.24193977061696 36.88866432105939
119.77037062390805 7.104644395517876 69.94713371787051 42.718592510519656
134.7294870759173 6.294289458956422 80.58819112631437 47.84700649064651
142.3926873765784 4.541575113007934 87.01967998059199 50.83143228297844
138.73462792418215 4.797016521572945 84.36802408074213 49.56958732186703
150.14594946044318 25.754743436051697 77.85265756476862 46.538548459622845
138.7346279241482 4.797016521562629 84.36802408072592 49.56958732185967
142.392687376546 4.5415751130261715 87.01967998055764 50.83143228296221
134.72948707584328 6.294289458951532 80.58819112626757 47.84700649062418
119.7703706238187 7.104644395512883 69.94713371781386 42.71859251049205
101.97300483531454 6.842400743725356 58.24193977055903 36.88866432103014
84.19937972459368 6.158770899639829 46.98141552349236 31.05919330146152
67.64755458318263 5.361219413872863 36.759938923187356 25.526396246122452
52.90851571281689 4.572521200454116 27.919828270630273 20.416166241732512
39.84809950999876 3.8568232691302944 20.196909481584367 15.794366759284118
28.78129897175347 3.221879830570608 13.87691073322497 11.682508407957897
19.58811691929658 2.644797810685378 8.812829099382139 8.130490009229069
12.345477402766594 2.1158462739042223 5.029589314184317 5.200041814678054
7.062980249870353 1.6378741782555364 2.4785885034503705 2.9465175681644453
3.5516537295439634 1.2169285003637444 0.9521997078973676 1.382525521282851
1.5625931121400929 0.8616953540290412 0.2545891707704333 0.4463085873406188
0.605589784845337 0.528130995565738 0.018640671527845334 0.05881811775175376
0.26583772633470487 0.2682999259055094 -0.00047583294819875533 -0.0019863666226057554
0.11682265499811198 0.11682265499811198 0.0 0.0
0.035514670451455066 0.035514670451455066 0.0 0.0
0.00642671396704983 0.00642671396704983 0.0 0.0
0.003050295134458182 0.003050295134458182 0.0 0.0
0.02455948136224652 0.02455948136224652 0.0 0.0
0.10747016395776346 0.10747016395776346 0.0 0.0
0.2989399983240358 0.30077723904647796 -0.0007436041078801416 -0.0010936366145622098
0.7848925761967506 0.6198139755157657 0.050066351233656756 0.115012249447328
2.0012504761058834 0.9633734402825932 0.38851654854709106 0.6493604872761999
4.386029141321531 1.3331473681447141 1.2962773532966203 1.7566044198801956
8.40970607880992 1.7870401932540618 3.0976161678012697 3.5250497177545874
14.425533874532587 2.322882865694033 6.07209255325927 6.030558455579288
22.627563041664615 2.93354291308179 10.407518774373694 9.28650135420914
33.09285981480614 3.605521963075794 16.23666202856995 13.250675823160385
45.84650780256001 4.349184803302498 23.63849955942937 17.858823439828132
60.61854277338345 5.173491679877466 32.38332539126151 23.061725702244523
77.59454346689803 6.039010653507217 42.75525824957644 28.800274563814362
96.3364750292588 6.854956785564526 54.50035670944718 34.981161534247086
116.11186011774657 7.43256842271699 67.27631185647783 41.4029798385517
135.62841943801618 7.55818512614774 80.36589129295052 47.70434301891797
152.68359107373016 6.972060554917421 92.40241028471033 53.309120234102345
162.6026733010916 4.866439273297727 100.66092196312565 57.07531206466822
161.16814800330377 4.669324819175093 99.83610726334598 56.662715920782674
175.55941856049603 27.36209517231687 94.10264135594066 54.094682032238495
161.16814800326182 4.669324819165533 99.83610726332368 56.66271592077251
162.60267330101337 4.866439273282013 100.66092196308294 57.07531206464838
152.68359107365043 6.972060554918401 92.40241028465518 53.309120234076886
135.6284194379155 7.558185126147199 80.36589129288245 47.7043430188858
116.11186011764204 7.432568422712903 67.27631185641063 41.40297983851855
96.33647502915352 6.8549567855582785 54.50035670938178 34.98116153421346
77.59454346680579 6.039010653509462 42.755258249514995 28.800274563781315
60.618542773290855 5.173491679877133 32.383325391202725 23.061725702210982
45.84650780247622 4.34918480329949 23.63849955937916 17.85882343979758
33.09285981473661 3.605521963072929 16.236662028529665 13.250675823134024
22.627563041607978 2.9335429130752018 10.407518774344599 9.286501354188168
14.42553387449213 2.3228828656904694 6.0720925532388605 6.030558455562794
8.409706078783149 1.7870401932519828 3.097616167788499 3.5250497177426676
4.386029141305727 1.3331473681429247 1.296277353290054 1.7566044198727473
2.0012504760978542 0.9633734402805924 0.38851654854449996 0.6493604872727622
0.7848925761943352 0.6198139755145979 0.050066351233199094 0.11501224944653811
0.2989399983235794 0.30077723904591747 -0.0007436041078690552 -0.001093636614469025
0.10747016395754734 0.10747016395754734 0.0 0.0
0.02455948136219003 0.02455948136219003 0.0 0.0
0.0030502951344544256 0.0030502951344544256 0.0 0.0
0.0009482355351262087 0.0009482355351262087 0.0 0.0
0.017981267120536507 0.017981267120536507 0.0 0.0
0.11276370329386709 0.11276370329386709 0.0 0.0
0.37044788446675875 0.3626821113715387 0.0010781285294900961 0.006687644565729957
1.0416059345160797 0.7598097181664772 0.09498896820827189 0.18680724814133082
2.552084246294015 1.1937378457791143 0.5289070787809677 0.8294393217339319
5.3492571309729495 1.7013919929258594 1.5870825828087853 2.0607825552383057
9.948699680046403 2.370585652875012 3.604485004770135 3.97362902240126
16.766883452487072 3.2317262073845185 6.870489303747741 6.66466794135482
26.136572766898535 4.312736645831562 11.660042987523353 10.163793133543601
38.17862233460921 5.626921477927754 18.11406866017245 14.437632196509027
52.76083524712057 7.173834310607468 26.16141831136791 19.425582625145182
69.92640246015694 8.922925997645288 35.94197283761017 25.06150362490147
89.45607198616227 10.80135407798599 47.38187921907817 31.272838689098126
110.7842539600494 12.54788249825327 60.30986033264869 37.926511129147386
132.78476039967398 13.735524293039848 74.27963212235704 44.7696039842771
153.65308035563157 13.911025067713332 88.32858293572474 51.413472352193494
171.3383225977648 13.025798605248012 101.05964124455657 57.252882747960264
183.62156433837774 11.691580593877685 110.45736031404681 61.472623430453325
179.48072790814786 4.778997039360543 112.32133178943697 62.38039907935027
248.9067965943377 78.39966290151096 109.53203146870764 60.9751022241192
179.48072790812785 4.778997039378972 112.32133178941044 62.38039907933841
183.62156433834423 11.691580593921191 110.45736031399323 61.47262343042974
171.33832259766277 13.025798605236709 101.05964124449463 57.2528827479316
153.6530803555254 13.911025067719073 88.3285829356487 51.41347235215769
132.78476039955746 13.735524293033407 74.27963212228255 44.76960398424138
110.7842539599499 12.547882498265306 60.309860332574516 37.926511129110125
89.4560719860338 10.80135407795542 47.381879219013996 31.27283868906443
69.92640246005178 8.922925997640649 35.94197283754562 25.06150362486554
52.760835247022044 7.173834310595766 26.16141831131348 19.42558262511279
38.17862233452979 5.626921477920965 18.114068660128165 14.437632196480678
26.136572766836085 4.312736645823553 11.66004298749127 10.163793133521267
16.766883452444873 3.231726207383651 6.870489303724526 6.664667941336701
9.948699680015755 2.3705856528720104 3.604485004755567 3.973629022388179
5.349257130955577 1.7013919929243513 1.587082582801157 2.06078255523007
2.552084246284203 1.1937378457766585 0.5289070787779079 0.8294393217296362
1.0416059345123394 0.7598097181647168 0.09498896820751558 0.18680724814010738
0.37044788446630655 0.36268211137116735 0.0010781285294726752 0.006687644565666326
0.11276370329377733 0.11276370329377733 0.0 0.0
0.017981267120452258 0.017981267120452258 0.0 0.0
0.0009482355351584509 0.0009482355351584509 0.0 0.0
CELL_DATA 800
SCALARS Stress float 6
LOOKUP_TABLE default
166.77987476195813 -518.9185364121009 -181.85677448620882 -109.71537976045207 0.0 0.0
402.2484033030403 -71.4810726684177 115.92485474339958 55.57453044048934 0.0 0.0
410.783747013546 9.04201508628903 125.7515426250458 -2.9944992252704075 0.0 0.0
469.9593051780431 -13.89913905609997 145.93197176759935 -15.06366855514511 0.0 0.0
546.7996623343316 -19.801772006814264 201.99636968736047 -11.643229563654089 0.0 0.0
620.5705038086676 -15.271677899592959 273.9685797905122 -10.20524594978137 0.0 0.0
692.0238350198149 -8.97377386991348 330.795568175786 -10.772027746133345 0.0 0.0
764.1383163074156 5.23397243784936 379.82576472705915 -12.438753284534737 0.0 0.0
838.8500020349761 27.5101957976468 429.9010858386853 -14.146567123942944 0.0 0.0
915.9737392860042 56.8827341104065 483.78297240324275 -15.297465770687772 0.0 0.0
993.8415028304139 91.05432551702847 540.2197469212825 -15.776986704537146 0.0 0.0
1071.0751988996724 128.72361156143785 597.9831404159352 -15.720887617945841 0.0 0.0
1147.7366009253144 168.71979616978916 656.5287012704748 -15.51759881050892 0.0 0.0
1224.670809184897 211.62569546338753 716.5955876832286 -15.213668543313236 0.0 0.0
1302.464458767324 258.0863139216257 778.8290406275094 -14.675329873957292 0.0 0.0
1380.4272558455586 307.6073740404986 842.6536866454459 -13.71017046610415 0.0 0.0
1456.187137455449 358.3647792249389 905.9832278469027 -12.177876387090404 0.0 0.0
1527.1086142271938 408.43023647139717 966.524543069752 -10.320364510256308 0.0 0.0
1592.1880516093338 457.7232758306461 1023.6769817487332 -9.58180086034101 0.0 0.0
1683.754259849155 540.6096989313653 1110.3794831307152 -15.038952821127491 0.0 0.0
1683.7542598499767 540.6096989322106 1110.379483131291 15.038952821221432 0.0 0.0
1592.1880516105014 457.72327583186404 1023.6769817495801 9.581800860299179 0.0 0.0
1527.1086142279485 408.4302364722369 966.5245430702057 10.320364510268252 0.0 0.0
1456.1871374557516 358.36477922534436 905.9832278469842 12.177876387158891 0.0 0.0
1380.4272558446469 307.6073740397096 842.6536866447129 13.710170466108854 0.0 0.0
1302.4644587665616 258.08631392101466 778.829040626866 14.675329873967202 0.0 0.0
1224.6708091845333 211.62569546319332 716.5955876828849 15.213668543417723 0.0 0.0
1147.7366009257871 168.71979617046657 656.5287012706299 15.517598810554691 0.0 0.0
1071.0751988995776 128.72361156157078 597.9831404158812 15.720887617861974 0.0 0.0
993.841502829868 91.05432551671134 540.2197469209827 15.77698670448553 0.0 0.0
915.9737392857742 56.88273411042138 483.7829724030522 15.297465770517494 0.0 0.0
838.8500020350332 27.510195797966645 429.9010858386983 14.146567124053878 0.0 0.0
764.1383163068498 5.2339724375673455 379.82576472668575 12.438753284671682 0.0 0.0
692.0238350195999 -8.973773869835924 330.7955681756172 10.772027746160326 0.0 0.0
620.5705038083264 -15.271677899637517 273.96857979021866 10.205245949913152 0.0 0.0
546.799662333876 -19.801772007013433 201.996369687019 11.643229563667392 0.0 0.0
469.9593051779423 -13.899139055968776 145.9319717675827 15.063668555061883 0.0 0.0
410.7837470131661 9.0420150860434 125.75154262486123 2.9944992251671945 0.0 0.0
402.2484033029053 -71.48107266851592 115.92485474329463 -55.5745304404461 0.0 0.0
166.77987476244516 -518.9185364115925 -181.85677448570087 109.71537976016208 0.0 0.0
66.33199347323449 -546.7879705526905 -242.8718135679091 -158.0758971095968 0.0 0.0
269.87562895986787 -61.43264389474368 62.655954005166976 9.59565215526038 0.0 0.0
360.0259941379387 31.64091154193228 117.50166577985989 -9.797998521118632 0.0 0.0
434.36691285145844 -11.93794926548556 130.03930652519705 -35.22164315870824 0.0 0.0
518.7559506810322 -20.151261248910174 179.51501792017046 -33.19417673277282 0.0 0.0
596.9679699748328 -16.152032426184455 253.55749334959117 -30.20821427559057 0.0 0.0
672.1000587631596 -9.515390070299858 316.89064225550646 -31.144061112887677 0.0 0.0
745.2009893915806 4.4298863120433865 368.7028879074763 -33.6620014210359 0.0 0.0
818.614193061878 25.342439634201398 418.1897983783149 -36.25639093136236 0.0 0.0
892.6612378458055 52.094150717795074 469.45537174312074 -37.67024221924867 0.0 0.0
966.0648693769592 82.5564997581611 521.9049538237714 -37.792608732789155 0.0 0.0
1038.3618020732779 115.47376123899798 574.8605571514179 -37.17248226835792 0.0 0.0
1109.840736415471 151.1471131239001 628.675930921114 -36.30871305126395 0.0 0.0
1181.415930000619 189.43090277772876 683.7800590163894 -35.293709078877264 0.0 0.0
1253.3110576775366 230.47372617855694 740.3807889555302 -33.88815315179441 0.0 0.0
1325.043293177117 274.0953515988905 798.1577862774136 -31.69608545180661 0.0 0.0
1395.5137950033093 319.66387574872203 856.242796902697 -28.575141006131968 0.0 0.0
1463.8456027398086 367.1240839817035 914.1445068544732 -25.27854718695678 0.0 0.0
1535.8406943319594 423.5559395623531 978.2072154459922 -23.376773527714803 0.0 0.0
1589.5056157412357 468.3264738132834 1027.2908444189509 -22.697752994364183 0.0 0.0
1589.5056157409197 468.32647381296704 1027.2908444187215 22.69775299436272 0.0 0.0
1535.8406943315829 423.5559395620242 978.207215445657 23.376773527759205 0.0 0.0
1463.8456027398013 367.12408398177206 914.1445068543711 25.27854718701457 0.0 0.0
1395.513795002917 319.663875748446 856.2427969023959 28.575141006317768 0.0 0.0
1325.0432931765472 274.09535159844506 798.1577862769702 31.696085451753117 0.0 0.0
1253.311057677593 230.47372617873071 740.380788955528 33.88815315164196 0.0 0.0
1181.4159300001245 189.4309027773997 683.7800590160393 35.293709078851236 0.0 0.0
1109.8407364145773 151.14711312318303 628.6759309204595 36.30871305128492 0.0 0.0
1038.3618020728914 115.47376123882233 574.8605571510567 37.17248226834046 0.0 0.0
966.0648693763225 82.5564997577626 521.9049538232498 37.792608732863094 0.0 0.0
892.6612378448953 52.0941507171361 469.45537174250165 37.67024221921844 0.0 0.0
818.6141930611573 25.342439633724837 418.1897983778357 36.256390931288266 0.0 0.0
745.2009893908516 4.4298863115607645 368.7028879069875 33.66200142100706 0.0 0.0
672.1000587624 -9.515390070816352 316.8906422549677 31.14406111275268 0.0 0.0
596.9679699749562 -16.152032425707404 253.55749334956704 30.208214275417824 0.0 0.0
518.7559506808428 -20.151261248837287 179.51501792000937 33.19417673267257 0.0 0.0
434.3669128511888 -11.937949265473522 130.03930652510752 35.22164315866061 0.0 0.0
360.02599413772725 31.640911541682385 117.5016657797246 9.797998521172484 0.0 0.0
269.87562895997866 -61.432643894429795 62.65595400529736 -9.595652155437309 0.0 0.0
66.33199347368603 -546.7879705523287 -242.8718135675316 158.0758971092264 0.0 0.0
13.842641367807062 -554.9814106984619 -266.6207604380931 -173.01965172023228 0.0 0.0
152.3449193779744 -51.39809615506073 30.284046966874108 -44.90045140799801 0.0 0.0
292.64238702133855 35.40196216384063 98.41330475555374 -33.75342631910783 0.0 0.0
388.4022667638501 -3.0559291223238993 116.40397333992485 -55.17099053130949 0.0 0.0
481.7275107544665 -18.914943319153668 156.80621106333683 -56.89190946108436 0.0 0.0
569.8598732715811 -18.48041229802956 228.58497937265963 -51.95124962169811 0.0 0.0
648.0784223636025 -9.218485947718207 299.80716861066674 -51.86134013448917 0.0 0.0
721.8732452821108 3.712843769162326 354.7915021687278 -54.78124724061417 0.0 0.0
794.3087395412263 23.235394250739844 404.2981298523933 -57.85566175696214 0.0 0.0
865.1992843830704 47.04954536959973 452.86370027908606 -59.26969071688164 0.0 0.0
934.3102579214247 73.6257019505429 501.3411762543997 -59.00115878267176 0.0 0.0
1001.6614037720972 102.43952551024464 549.824534209591 -57.83709237221941 0.0 0.0
1068.218520607964 133.32982960867463 598.819303324351 -56.46539925419724 0.0 0.0
1134.2446093818423 166.72140661797624 648.7364706134301 -54.78969598543583 0.0 0.0
1200.0550911592818 202.1497064908071 699.5192613148301 -52.559069447040855 0.0 0.0
1265.6535207307452 239.75901228251936 751.2386341231091 -49.38143655275839 0.0 0.0
1331.1416401548086 280.2563700635018 804.2826999199518 -45.17775687861877 0.0 0.0
1398.1437501101236 326.22449896453196 860.7329415875773 -40.69023674751725 0.0 0.0
1461.3030218798503 373.4142851443374 915.8359190691375 -35.895562491427256 0.0 0.0
1506.1799903265023 408.4479672130927 955.7045435290543 -29.216305067971096 0.0 0.0
1506.1799903262763 408.44796721289674 955.7045435289043 29.216305068036448 0.0 0.0
1461.3030218791782 373.41428514370716 915.8359190687308 35.895562491492115 0.0 0.0
1398.1437501100115 326.2244989645116 860.7329415874735 40.69023674762973 0.0 0.0
1331.1416401542822 280.25637006307915 804.2826999194483 45.17775687873656 0.0 0.0
1265.6535207296797 239.75901228157176 751.2386341223944 49.381436552824795 0.0 0.0
1200.0550911575936 202.14970648921235 699.5192613135501 52.55906944682333 0.0 0.0
1134.2446093811534 166.72140661745323 648.7364706128591 54.789695985494845 0.0 0.0
1068.2185206076224 133.3298296085418 598.819303324111 56.46539925430155 0.0 0.0
1001.661403771707 102.43952551006655 549.8245342093691 57.837092372230444 0.0 0.0
934.3102579214692 73.62570195078823 501.3411762543717 59.00115878253269 0.0 0.0
865.199284383399 47.049545370183495 452.86370027923573 59.269690716847094 0.0 0.0
794.3087395408431 23.235394250594197 404.29812985208395 57.85566175692189 0.0 0.0
721.8732452827295 3.712843770132963 354.79150216911637 54.78124724078215 0.0 0.0
648.0784223635338 -9.218485947447022 299.80716861057186 51.86134013450482 0.0 0.0
569.8598732710064 -18.480412298388497 228.58497937219235 51.95124962142559 0.0 0.0
481.72751075408735 -18.914943319414785 156.80621106305415 56.89190946074217 0.0 0.0
388.40226676354257 -3.0559291224026435 116.40397333981846 55.17099053119624 0.0 0.0
292.6423870212729 35.401962163666084 98.41330475548169 33.75342631902244 0.0 0.0
152.34491937805956 -51.39809615478024 30.284046966983794 44.900451407754616 0.0 0.0
13.842641367973869 -554.9814106982558 -266.6207604378526 173.0196517200257 0.0 0.0
-6.033957529006955 -543.139002460475 -263.11670625697155 -175.1058453132511 0.0 0.0
88.13625614345194 -49.070968114269725 11.719586408754662 -91.02585024934628 0.0 0.0
228.8565934362638 32.263825895342265 78.3361257994818 -65.82958465368887 0.0 0.0
335.42028201941486 5.488863698590903 102.32319030520515 -76.85586122470225 0.0 0.0
434.98648739740185 -16.721041962147645 134.19554080901008 -82.90687817267222 0.0 0.0
532.5829336116808 -18.98972102052928 200.2679342893037 -75.59035510599762 0.0 0.0
617.32034171538 -10.17911141197126 276.52758186944584 -73.30623622707769 0.0 0.0
693.9509209732732 3.5983006677518787 337.83806345312905 -75.89532422672596 0.0 0.0
765.1328266468649 20.969427528869886 387.5427220832942 -78.91200234081613 0.0 0.0
833.0855872380093 41.78286451913273 433.7117752492313 -80.1048297821378 0.0 0.0
898.107239451816 64.57836639052638 478.4383949340703 -79.4110675396796 0.0 0.0
960.8882180478943 89.16056259432548 522.5926738015817 -77.79270507883945 0.0 0.0
1022.1597147868302 115.49193995335969 566.7076721308246 -75.90711513169397 0.0 0.0
1082.8977108761082 143.78190584749566 611.4700855858321 -73.67444362203587 0.0 0.0
1142.7327928883603 173.3941416631369 656.3929846322064 -70.74708023574469 0.0 0.0
1201.939583808559 204.98413465078443 701.9259161119523 -66.81741209746875 0.0 0.0
1262.5280236419212 240.37397546715195 749.9603940444522 -61.905157045548094 0.0 0.0
1324.3080171414706 280.54544403466656 800.9131294052771 -56.066919781675246 0.0 0.0
1381.8696624616857 321.03679834471666 849.8898124196909 -48.14147674574028 0.0 0.0
1423.6857412980671 351.3170896747831 885.86292922311 -36.08977548051111 0.0 0.0
1423.6857412983832 351.31708967512566 885.8629292232608 36.08977548053679 0.0 0.0
1381.8696624618324 321.0367983449133 849.8898124196954 48.14147674585372 0.0 0.0
1324.3080171419463 280.54544403526904 800.9131294056644 56.066919781906286 0.0 0.0
1262.5280236421918 240.37397546752942 749.960394044609 61.90515704561561 0.0 0.0
1201.9395838084529 204.98413465082814 701.9259161118437 66.81741209760801 0.0 0.0
1142.7327928892284 173.39414166415548 656.3929846328188 70.74708023572974 0.0 0.0
1082.8977108759384 143.7819058475246 611.4700855856447 73.67444362219295 0.0 0.0
1022.1597147858088 115.49193995253103 566.7076721300214 75.90711513174601 0.0 0.0
960.8882180465199 89.16056259315653 522.5926738006394 77.79270507892153 0.0 0.0
898.1072394500623 64.57836638890413 478.438394932985 79.41106753947565 0.0 0.0
833.0855872377376 41.78286451911504 433.7117752490714 80.10482978217362 0.0 0.0
765.132826646784 20.969427529098184 387.54272208319196 78.91200234092017 0.0 0.0
693.9509209723182 3.5983006670727633 337.83806345247325 75.89532422672595 0.0 0.0
617.3203417150879 -10.179111411969856 276.5275818691594 73.30623622701516 0.0 0.0
532.5829336112658 -18.989721020534546 200.26793428898154 75.59035510604059 0.0 0.0
434.9864873972979 -16.72104196189742 134.19554080899582 82.90687817253698 0.0 0.0
335.42028201926337 5.48886369863879 102.32319030518383 76.85586122445542 0.0 0.0
228.8565934362718 32.2638258954677 78.33612579952184 65.82958465355222 0.0 0.0
88.13625614353734 -49.07096811401352 11.71958640885715 91.02585024918402 0.0 0.0
-6.033957529029323 -543.1390024603442 -263.11670625679557 175.10584531311088 0.0 0.0
-10.572454136921792 -519.6285628306387 -244.61019572587207 -172.59876729432764 0.0 0.0
52.30302983307598 -47.950570132032524 1.305737910313037 -126.95039233074229 0.0 0.0
174.1179588724812 26.2009620261641 60.09567626959358 -98.16594936983536 0.0 0.0
279.19314926881344 10.853222457229645 87.02233963131299 -100.00110497041696 0.0 0.0
377.6333599174722 -12.033975615377848 112.93593817835976 -109.04854256026904 0.0 0.0
484.22109840670606 -18.914925326507063 169.28694924563385 -102.4156938920369 0.0 0.0
579.1917851390498 -11.508095323507035 247.1126354906828 -96.4214351173085 0.0 0.0
659.7105401786962 3.0146975895001447 315.72069149676753 -97.04302529856889 0.0 0.0
730.4667278497925 18.796946054598166 367.40339441911215 -99.4549602938022 0.0 0.0
795.6620330651738 36.32396370446186 411.5787399313152 -100.228901975322 0.0 0.0
856.929149512456 55.41025945328137 452.8793259521105 -99.04662546822188 0.0 0.0
915.019827193325 75.76566023562233 492.69226003623055 -96.98116019966919 0.0 0.0
971.244420536272 97.45829487505107 532.0384257153278 -94.72748164459094 0.0 0.0
1026.2498787614913 120.67139399175383 571.435755235657 -91.93635242209572 0.0 0.0
1080.3370185401282 144.80342927628766 610.7806163016706 -88.39644348396112 0.0 0.0
1133.8120506483112 170.2566501289833 650.4174197763871 -84.00861536942311 0.0 0.0
1187.6678291258386 198.8921847226332 691.7339558403155 -78.56308760127312 0.0 0.0
1243.2855446788092 232.09857898986925 736.1326355875449 -71.53786934194251 0.0 0.0
1296.82459322029 266.7625212370676 780.1832885157035 -60.809736843195765 0.0 0.0
1338.8477104310864 294.69179958131826 815.0654453905016 -43.90937510182275 0.0 0.0
1338.8477104306578 294.6917995809392 815.0654453903121 43.909375102040705 0.0 0.0
1296.8245932201587 266.7625212370188 780.1832885156765 60.80973684335686 0.0 0.0
1243.2855446779965 232.09857898915436 736.1326355869713 71.53786934211911 0.0 0.0
1187.6678291266492 198.89218472358 691.7339558407805 78.56308760140094 0.0 0.0
1133.8120506480561 170.2566501288528 650.4174197761838 84.00861536945237 0.0 0.0
1080.3370185408191 144.80342927712212 610.7806163021198 88.39644348397533 0.0 0.0
1026.2498787625912 120.67139399303707 571.4357552364241 91.93635242215137 0.0 0.0
971.2444205369202 97.45829487592903 532.038425715775 94.72748164467293 0.0 0.0
915.019827193901 75.76566023643633 492.6922600365558 96.98116019970581 0.0 0.0
856.929149512283 55.41025945324125 452.87932595182883 99.0466254680223 0.0 0.0
795.6620330642974 36.32396370375005 411.57873993067284 100.22890197519314 0.0 0.0
730.4667278489584 18.79694605382828 367.4033944185471 99.45496029345884 0.0 0.0
659.7105401780487 3.0146975891398426 315.7206914963326 97.04302529859922 0.0 0.0
579.1917851387883 -11.508095323357296 247.11263549044074 96.4214351174063 0.0 0.0
484.2210984061781 -18.91492532669527 169.2869492452672 102.41569389198646 0.0 0.0
377.6333599169394 -12.033975615732373 112.93593817808829 109.04854256008406 0.0 0.0
279.193149268796 10.853222457562815 87.02233963141367 100.00110497025705 0.0 0.0
174.117958872549 26.200962026315153 60.095676269659236 98.16594936960477 0.0 0.0
52.30302983316725 -47.9505701317982 1.3057379104107172 126.95039233049462 0.0 0.0
-10.572454136932464 -519.628562830452 -244.610195725668 172.59876729424576 0.0 0.0
-8.183669247303953 -488.2830832831761 -217.45595094417178 -168.87045192468472 0.0 0.0
30.96904906351695 -46.35669598417954 -4.616294076198777 -153.73695211453511 0.0 0.0
127.58652447363338 19.43538754491208 44.106573605563625 -126.65230576432471 0.0 0.0
222.42617590334333 12.931445202844845 70.60330987327289 -123.28830268516515 0.0 0.0
313.017280445108 -5.634903994675495 93.27939574172838 -133.12502605407482 0.0 0.0
419.7278923157643 -17.839724254922793 136.5393825431592 -131.90869938593985 0.0 0.0
526.7295387251888 -11.790842008320512 210.7272389958753 -122.22140090829868 0.0 0.0
615.2493287546528 1.1329102027045224 285.0821180022056 -119.07249047395047 0.0 0.0
688.6815391540397 16.283192915874334 342.1509919515318 -119.7472737666551 0.0 0.0
751.8205433917357 30.845023246514593 385.70890311039295 -119.64945437055032 0.0 0.0
809.2844569608774 46.04054732368566 423.77331359575555 -117.93107222920426 0.0 0.0
862.9920546086619 62.325602171606036 459.5867050981942 -115.44383693319423 0.0 0.0
913.9582852798724 79.45633685902962 494.14069275307907 -112.8071260672204 0.0 0.0
963.3543956314363 97.38119916831995 528.1513613523907 -109.69884586763371 0.0 0.0
1012.0610075378931 116.27080851234716 562.2158244344562 -105.67095239963123 0.0 0.0
1059.26314609469 135.97915009045195 595.8986913507649 -100.7154969329221 0.0 0.0
1105.908699762241 156.74393029648095 629.7392371379415 -94.98903279172815 0.0 0.0
1154.1970332382878 181.36723811317057 666.2006517153981 -87.30410864809926 0.0 0.0
1204.060144680606 210.13030475472527 705.4361617557057 -74.43807636107375 0.0 0.0
1248.8220840801785 237.14093034258332 741.1733107237192 -53.31291556993526 0.0 0.0
1248.8220840798317 237.1409303422906 741.1733107234211 53.31291557015167 0.0 0.0
1204.0601446801288 210.13030475434653 705.4361617552842 74.43807636129459 0.0 0.0
1154.1970332378887 181.3672381129149 666.2006517150722 87.30410864839024 0.0 0.0
1105.908699762948 156.743930297362 629.7392371384157 94.98903279191217 0.0 0.0
1059.2631460953025 135.9791500912338 595.898691351161 100.71549693300912 0.0 0.0
1012.0610075374236 116.27080851199867 562.215824434099 105.67095239954867 0.0 0.0
963.3543956307876 97.3811991676873 528.1513613518281 109.6988458674314 0.0 0.0
913.958285278493 79.4563368577781 494.14069275214734 112.80712606716514 0.0 0.0
862.9920546077396 62.325602170880614 459.58670509756774 115.44383693326265 0.0 0.0
809.2844569616977 46.04054732481234 423.7733135962477 117.93107222933554 0.0 0.0
751.8205433927079 30.845023248007138 385.7089031110077 119.64945437089597 0.0 0.0
688.6815391546907 16.28319291694467 342.1509919519005 119.7472737667745 0.0 0.0
615.2493287543965 1.1329102027403195 285.08211800196887 119.0724904738669 0.0 0.0
526.7295387245123 -11.790842008757473 210.7272389953787 122.22140090824124 0.0 0.0
419.7278923150962 -17.839724255347754 136.53938254273967 131.90869938580477 0.0 0.0
313.01728044475794 -5.634903994902757 93.27939574156325 133.125026053961 0.0 0.0
222.42617590337323 12.931445203107467 70.60330987336206 123.28830268509967 0.0 0.0
127.58652447352338 19.435387544840566 44.10657360550918 126.6523057641966 0.0 0.0
30.969049063559112 -46.35669598408827 -4.616294076158745 153.73695211435148 0.0 0.0
-8.183669247233894 -488.2830832828835 -217.45595094390902 168.87045192458677 0.0 0.0
-2.6360102489413606 -450.69138933571 -185.1930236090958 -165.3285664953233 0.0 0.0
16.272283613693425 -44.872355119757486 -8.579961088180452 -172.55084146571573 0.0 0.0
86.75109994722388 13.112429439668595 29.95905881606773 -149.61374641465375 0.0 0.0
165.9842815493766 13.944224012356262 53.97542809083267 -144.7333826528565 0.0 0.0
244.5432950440724 -0.1463807116716569 73.83225462024592 -154.26962489732705 0.0 0.0
341.55073320238535 -13.81779093879761 105.00277042836282 -161.27571501521373 0.0 0.0
455.63409109438794 -12.155295700062466 167.5167939941252 -151.82800425470435 0.0 0.0
556.1738897893 -0.5020124843104874 244.20052002298587 -143.09659667600064 0.0 0.0
635.1079537567829 12.694867984451818 307.6249207510615 -140.32803864245156 0.0 0.0
698.8119170026072 25.168136420419962 353.8749067278918 -138.59002915471137 0.0 0.0
752.8490679812145 36.48199811625509 389.6412491083502 -136.0929443976713 0.0 0.0
802.3476232446683 48.91955940665545 421.94010460260733 -133.17627162714388 0.0 0.0
848.0945226060084 61.46571344996569 451.83503194004936 -130.21137142304957 0.0 0.0
891.5341244612548 74.26138778624171 480.4398305281488 -126.88944830805742 0.0 0.0
934.2018038124015 87.60451821936093 508.74776461013204 -122.60960537529192 0.0 0.0
976.6599397611925 102.1482969122992 537.5247427521149 -117.13248746312962 0.0 0.0
1015.7225821237779 115.26355177125198 563.8723638802669 -110.9085686976865 0.0 0.0
1054.4986777594995 129.35573732462456 590.3722783695114 -103.23352239923193 0.0 0.0
1099.926921773505 150.12618458313108 623.3350813448553 -89.56952432605445 0.0 0.0
1149.9629409488248 177.09666558815897 661.5710709399575 -65.24706011210411 0.0 0.0
1149.962940948675 177.0966655880281 661.5710709398148 65.24706011219914 0.0 0.0
1099.9269217726905 150.12618458240064 623.3350813443506 89.56952432625206 0.0 0.0
1054.4986777574143 129.3557373226356 590.3722783680496 103.23352239948468 0.0 0.0
1015.7225821221062 115.2635517696898 563.8723638790359 110.90856869775129 0.0 0.0
976.6599397603153 102.14829691149347 537.5247427514779 117.13248746315507 0.0 0.0
934.2018038121016 87.60451821929703 508.7477646099783 122.60960537540811 0.0 0.0
891.5341244606522 74.26138778570109 480.4398305277214 126.88944830800509 0.0 0.0
848.0945226061751 61.46571345038723 451.83503194011786 130.2113714232427 0.0 0.0
802.3476232445663 48.919559406877966 421.94010460248546 133.17627162732583 0.0 0.0
752.8490679795433 36.4819981146796 389.64124910722023 136.0929443975947 0.0 0.0
698.811917001289 25.168136419196998 353.87490672701773 138.5900291545681 0.0 0.0
635.1079537561619 12.694867983993646 307.624920750616 140.328038642332 0.0 0.0
556.1738897889765 -0.502012484272484 244.2005200226816 143.09659667601608 0.0 0.0
455.6340910938973 -12.155295700119126 167.5167939938049 151.82800425475392 0.0 0.0
341.55073320186926 -13.817790939118545 105.0027704280618 161.27571501500233 0.0 0.0
244.54329504374664 -0.14638071184046098 73.83225462010213 154.26962489715956 0.0 0.0
165.98428154946834 13.944224012765492 53.975428090983954 144.733382652701 0.0 0.0
86.7510999473477 13.112429440185277 29.959058816259883 149.6137464143591 0.0 0.0
16.2722836138169 -44.87235511942188 -8.579961088042781 172.5508414654922 0.0 0.0
-2.63601024890157 -450.69138933543377 -185.19302360884797 165.32856649521398 0.0 0.0
2.536829618069511 -408.29175390501206 -152.23643487376592 -162.78732983192603 0.0 0.0
2.70951773866149 -44.11934134386968 -12.422389221787597 -183.60252153850698 0.0 0.0
49.43128424095639 8.045753305344551 17.242708192642734 -167.0187389869559 0.0 0.0
110.72436473785439 15.077845738357917 37.740957183051236 -162.591187772906 0.0 0.0
173.8472670197442 3.3236502466103786 53.45732766169206 -172.8699094096466 0.0 0.0
249.56169613138263 -7.081539621163372 75.42868687184492 -185.08516674716458 0.0 0.0
357.2421924225179 -10.451040097636584 119.93018433694526 -184.4348745833542 0.0 0.0
472.11793154349095 -2.197185717858652 189.8743056312386 -171.45024037197774 0.0 0.0
562.4950213221027 8.567841492087627 258.2847829100955 -162.48466048140057 0.0 0.0
629.2424153079115 18.722308152707242 309.8802768104685 -157.47115831525616 0.0 0.0
682.2244289283967 26.665571978400983 346.5701519078167 -153.8234629175074 0.0 0.0
727.3628143934671 35.33948387705911 376.2420481710978 -150.25833799903504 0.0 0.0
767.8953269009426 43.75206692607014 402.1496693922686 -146.890725203906 0.0 0.0
805.2177795781083 51.43641951542635 425.48428377298757 -143.47878980174582 0.0 0.0
841.5095810545697 59.05121810174552 447.9047200049008 -139.31431289595469 0.0 0.0
878.5118177170355 67.95495450341913 471.1402859452347 -133.4555514509504 0.0 0.0
913.6526903490801 76.02806364074932 493.11954892135003 -126.32101778247635 0.0 0.0
941.4603001043854 78.16137865755896 508.40083793858196 -118.79078963212027 0.0 0.0
976.8449081602158 85.58469180401258 529.582503792729 -106.33026425764174 0.0 0.0
1033.9308168498146 112.07659545858964 570.828300736768 -81.08489025938992 0.0 0.0
1033.930816850196 112.07659545902067 570.8283007370329 81.0848902595144 0.0 0.0
976.8449081612424 85.58469180526959 529.5825037934442 106.33026425801681 0.0 0.0
941.4603001047432 78.16137865813118 508.4008379388133 118.79078963245081 0.0 0.0
913.6526903499756 76.02806364190809 493.11954892199293 126.32101778273542 0.0 0.0
878.511817716362 67.95495450284548 471.1402859447599 133.45555145091592 0.0 0.0
841.5095810539101 59.05121810110717 447.90472000436677 139.31431289586322 0.0 0.0
805.2177795780489 51.43641951546323 425.4842837728679 143.47878980172786 0.0 0.0
767.8953269002252 43.75206692551359 402.14966939180727 146.89072520390263 0.0 0.0
727.3628143923239 35.339483875847066 376.24204817030727 150.25833799881508 0.0 0.0
682.2244289276613 26.6655719775934 346.5701519072344 153.8234629172909 0.0 0.0
629.2424153075461 18.7223081524822 309.88027681016894 157.47115831508302 0.0 0.0
562.4950213219872 8.56784149228644 258.28478290997185 162.48466048142367 0.0 0.0
472.11793154335624 -2.1971857175234533 189.87430563110735 171.45024037201514 0.0 0.0
357.24219242230157 -10.451040097229383 119.93018433690708 184.43487458336318 0.0 0.0
249.56169613098257 -7.081539621440038 75.42868687163346 185.08516674690972 0.0 0.0
173.84726701951314 3.323650246625114 53.457327661630785 172.86990940955724 0.0 0.0
110.72436473775305 15.077845738328616 37.74095718301533 162.59118777268498 0.0 0.0
49.431284240840924 8.045753305150038 17.242708192550257 167.01873898676723 0.0 0.0
2.7095177385504394 -44.11934134399242 -12.422389221859113 183.60252153825763 0.0 0.0
2.536829618041075 -408.29175390477405 -152.23643487358285 162.78732983184875 0.0 0.0
3.451978346260205 -361.84053936834437 -122.91347373264557 -159.52534838793744 0.0 0.0
-13.55822720760855 -45.306260245796345 -17.658662797957003 -189.16203478027543 0.0 0.0
14.38358394009001 5.053048644084321 5.830750152038868 -179.1154803792621 0.0 0.0
56.98238386423954 16.190060763860515 21.95554408737093 -176.19381307446878 0.0 0.0
101.0451568106039 6.972359571079862 32.60460752522175 -186.87837447551018 0.0 0.0
150.6942510420814 -1.9531595247097977 45.83745123963516 -202.8082752432777 0.0 0.0
227.80107176178583 -4.511199336044029 72.2886070222996 -211.99896922445745 0.0 0.0
339.6107674697096 -2.067628803897817 120.92488203578483 -205.1548954432161 0.0 0.0
448.0148668326687 4.815603739572396 184.0741128814962 -189.63082962292745 0.0 0.0
524.9003436667183 11.083251103336217 239.71809317705024 -177.99316999416388 0.0 0.0
579.3332738989195 17.005145913485173 281.2890086862536 -171.449929717199 0.0 0.0
621.0950123093983 21.438491857890504 311.0561227177726 -166.93757146397712 0.0 0.0
656.5405457147832 26.07391774427694 335.01713661375595 -162.9940198761022 0.0 0.0
687.5416332863667 29.254832555582198 354.38736109839977 -159.3516678208438 0.0 0.0
716.468794693843 31.03522858376614 370.985430924204 -155.38866672043417 0.0 0.0
746.5360167478658 32.9649717042864 387.55763294369984 -149.99421825687122 0.0 0.0
780.2764525303583 36.74735170884145 406.5987063179237 -141.8687066110565 0.0 0.0
807.1812221561983 34.308882683962366 419.5245900304117 -132.8711006460023 0.0 0.0
822.1249075567459 16.86424116692723 418.3856641335583 -123.62704126182332 0.0 0.0
883.6766176043983 36.004386992754974 457.36257930129136 -103.17354001348434 0.0 0.0
883.676617605152 36.00438699355527 457.3625793018724 103.1735400137012 0.0 0.0
822.1249075556659 16.864241165867156 418.3856641329246 123.62704126199381 0.0 0.0
807.1812221557801 34.30888268371149 419.52459003018816 132.87110064617832 0.0 0.0
780.2764525292438 36.747351707720554 406.59870631722333 141.86870661106985 0.0 0.0
746.5360167463368 32.96497170235625 387.5576329426726 149.9942182564323 0.0 0.0
716.4687946936 31.03522858345238 370.9854309240808 155.3886667203551 0.0 0.0
687.5416332874634 29.254832556981228 354.38736109914214 159.35166782103332 0.0 0.0
656.5405457146072 26.07391774432908 335.0171366136863 162.99401987615414 0.0 0.0
621.0950123091361 21.438491857506293 311.056122717462 166.93757146388836 0.0 0.0
579.3332738989337 17.005145913899398 281.28900868631126 171.44992971725836 0.0 0.0
524.9003436663755 11.083251102852529 239.71809317665577 177.99316999384953 0.0 0.0
448.0148668322091 4.815603739260347 184.07411288117163 189.6308296228206 0.0 0.0
339.61076746970934 -2.0676288033207797 120.92488203583252 205.15489544320508 0.0 0.0
227.80107176174272 -4.5111993354296915 72.28860702243617 211.99896922440033 0.0 0.0
150.6942510421879 -1.953159524151454 45.83745123983077 202.8082752430298 0.0 0.0
101.04515681056738 6.972359571360876 32.60460752529645 186.8783744753241 0.0 0.0
56.98238386427969 16.190060764106214 21.9555440874598 176.19381307421727 0.0 0.0
14.38358394022764 5.053048644362783 5.830750152164012 179.1154803790012 0.0 0.0
-13.55822720760305 -45.30626024560854 -17.658662797900508 189.16203478013057 0.0 0.0
3.4519783462562685 -361.84053936795465 -122.91347373244655 159.52534838786482 0.0 0.0
-1.2369565706179877 -312.1395614007856 -98.85020041282499 -153.13901170174216 0.0 0.0
-32.57462969369203 -48.760486804582435 -24.399313354319688 -191.6140709395238 0.0 0.0
-19.120054665661684 4.104126316700412 -4.505675169685015 -186.50730934811352 0.0 0.0
4.73247465186968 17.187750988158612 6.581209845522317 -184.99444054506597 0.0 0.0
27.71675080265139 11.01400228596413 11.685524982698018 -195.2131863821446 0.0 0.0
48.58454975677588 2.76703055283919 15.79755832551852 -212.7941739702859 0.0 0.0
76.14514562968884 -0.5828484618202072 23.986314429561677 -227.94064016824163 0.0 0.0
125.07718359379086 0.685821123029978 41.21427009329686 -231.80972800983824 0.0 0.0
201.6705472456103 4.324802207792295 70.6331253430643 -220.515108547178 0.0 0.0
280.2012096350336 6.569334556264728 106.46379055052532 -204.51787210339603 0.0 0.0
345.44645010852753 8.573995535644762 144.0748180777228 -191.88460621509384 0.0 0.0
390.808262744019 8.680342761197323 174.80731915720185 -183.94998616422825 0.0 0.0
421.91393023701244 9.336265314880578 198.90046824603488 -178.1506525324852 0.0 0.0
446.1817642206234 7.782705976886575 217.18356472663407 -173.6436382017615 0.0 0.0
468.8256360232831 3.8592945032626176 231.53148633947444 -169.6127673079304 0.0 0.0
495.99048347483574 -1.9341838497560957 244.92875264728335 -165.23711456575973 0.0 0.0
532.7704430636702 -6.247990631651135 261.9027257426851 -158.3603401156108 0.0 0.0
579.636938797105 -6.410446842258295 285.40933559568975 -147.1026932838896 0.0 0.0
603.4083999548316 -33.44659669037236 285.42647403311247 -135.7632985172306 0.0 0.0
635.5977919127663 -72.60836917865589 279.0508716675462 -131.01379261974432 0.0 0.0
635.5977919127877 -72.60836917857688 279.0508716675578 131.01379262002138 0.0 0.0
603.4083999545437 -33.44659669079425 285.426474032869 135.76329851750552 0.0 0.0
579.6369387981465 -6.410446840671426 285.4093355964743 147.10269328438432 0.0 0.0
532.7704430640244 -6.247990630816048 261.9027257429938 158.36034011593432 0.0 0.0
495.99048347480846 -1.9341838500492372 244.92875264704998 165.23711456564774 0.0 0.0
468.8256360237443 3.859294503876299 231.53148633976028 169.61276730804371 0.0 0.0
446.18176422104597 7.782705977649243 217.183564727003 173.64363820193057 0.0 0.0
421.91393023735924 9.336265315410614 198.90046824625531 178.15065253257518 0.0 0.0
390.80826274437703 8.680342761777666 174.80731915744323 183.9499861642732 0.0 0.0
345.446450107582 8.573995534336284 144.07481807702098 191.88460621501173 0.0 0.0
280.20120963410005 6.56933455467334 106.4637905497058 204.51787210324824 0.0 0.0
201.67054724527824 4.324802207310455 70.63312534279568 220.5151085471805 0.0 0.0
125.0771835930399 0.6858211216769838 41.21427009265305 231.80972800978333 0.0 0.0
76.14514562878266 -0.5828484636797961 23.986314428733113 227.94064016806152 0.0 0.0
48.584549756364375 2.767030551779029 15.797558325075054 212.79417397010963 0.0 0.0
27.716750802433644 11.014002285626953 11.685524982531298 195.21318638195527 0.0 0.0
4.732474651751978 17.18775098793439 6.58120984542016 184.99444054493176 0.0 0.0
-19.12005466561396 4.10412631673863 -4.505675169659935 186.50730934781654 0.0 0.0
-32.57462969374966 -48.76048680471572 -24.399313354378585 191.61407093933806 0.0 0.0
-1.2369565707405172 -312.13956140056257 -98.85020041276343 153.139011701584 0.0 0.0
-13.169625219368488 -262.13985288417877 -83.03502026925062 -142.76660984952963 0.0 0.0
-50.9014382439519 -51.42732825319503 -30.700960508912353 -191.61340836075433 0.0 0.0
-51.522171928962635 3.886693057595977 -14.304054813934581 -189.75998218020874 0.0 0.0
-45.95174578781982 18.059901742186945 -8.392801511985905 -188.78729426047522 0.0 0.0
-44.73136967340698 14.997923150310465 -9.009085283024792 -197.39018248464956 0.0 0.0
-54.54593312989854 7.494467118998937 -14.544094919067138 -213.77819727440982 0.0 0.0
-78.57343413906563 2.6367138870849143 -24.150099220896934 -228.05175980745634 0.0 0.0
-125.85403977674306 -0.28004651155824867 -41.34961375131815 -231.97752004104566 0.0 0.0
-201.522607889445 -4.1363297492131395 -70.52821067342379 -220.6010313601269 0.0 0.0
-279.9690650813968 -6.359062028219505 -106.31184975928898 -204.4946100580074 0.0 0.0
-345.63605552114655 -7.294540243005386 -143.59210881202193 -191.76085703019118 0.0 0.0
-392.35125568221014 -7.024694260077069 -174.80336767515266 -183.49099599142264 0.0 0.0
-426.2077945403329 -9.056009807519786 -200.59815505632855 -177.6470057504849 0.0 0.0
-452.51368421108214 -13.896156974601567 -222.7784710408027 -174.01612451883133 0.0 0.0
-470.65611913720824 -22.372110434697817 -241.93583588651478 -172.50070153629113 0.0 0.0
-477.79725861965574 -33.68139915640202 -257.2256071981027 -172.66139198721706 0.0 0.0
-464.8099044730278 -45.42133302850539 -265.06799881024926 -173.10828937623018 0.0 0.0
-402.46393976358576 -40.29408998050519 -249.80435741820415 -173.04847741150235 0.0 0.0
-219.87313760628024 -36.47845662413323 -187.58230267070167 -175.88971139590092 0.0 0.0
-10.912076450250908 -175.5601304271504 -68.50084167371051 -162.31270134898995 0.0 0.0
-10.912076450517645 -175.56013042769194 -68.50084167391827 162.31270134940954 0.0 0.0
-219.8731376066243 -36.478456624463206 -187.58230267097133 175.88971139635112 0.0 0.0
-402.4639397639141 -40.29408998109167 -249.80435741853773 173.04847741189315 0.0 0.0
-464.8099044737313 -45.42133302951433 -265.0679988107569 173.10828937631487 0.0 0.0
-477.7972586191993 -33.68139915642985 -257.22560719788055 172.66139198723604 0.0 0.0
-470.6561191371592 -22.37211043465041 -241.9358358864024 172.50070153623508 0.0 0.0
-452.51368421117064 -13.896156975094058 -222.7784710408891 174.0161245189252 0.0 0.0
-426.20779454004844 -9.056009807621692 -200.59815505619258 177.64700575051108 0.0 0.0
-392.3512556814785 -7.0246942597032955 -174.80336767469015 183.49099599132865 0.0 0.0
-345.63605552017367 -7.294540242611724 -143.59210881145998 191.7608570301536 0.0 0.0
-279.9690650803031 -6.359062027450399 -106.31184975862587 204.49461005791647 0.0 0.0
-201.5226078887435 -4.136329749117078 -70.52821067313891 220.60103136024225 0.0 0.0
-125.85403977625653 -0.2800465113078179 -41.34961375108371 231.9775200410367 0.0 0.0
-78.57343413836671 2.6367138881720686 -24.15009922035155 228.05175980729638 0.0 0.0
-54.54593312935688 7.494467119864831 -14.544094918642836 213.77819727419757 0.0 0.0
-44.73136967320145 14.997923150639147 -9.00908528286511 197.3901824843883 0.0 0.0
-45.951745787661 18.059901742392007 -8.392801511877941 188.78729426033692 0.0 0.0
-51.52217192879138 3.886693057896538 -14.304054813795773 189.75998218003957 0.0 0.0
-50.901438244005234 -51.42732825326758 -30.70096050895301 191.61340836071685 0.0 0.0
-13.16962521952652 -262.1398528840209 -83.03502026926861 142.7666098493952 0.0 0.0
-23.82380806728055 -214.2585624146161 -71.42155352660065 -129.73142146095486 0.0 0.0
-66.34515724670032 -51.215838756832 -35.27311358585135 -187.9847859966271 0.0 0.0
-82.64863593921663 3.5482845918545993 -23.759363287319502 -189.11983739609698 0.0 0.0
-95.02716326177311 18.74912551190712 -22.941975208182377 -187.6815198025244 0.0 0.0
-115.55627875520688 18.13209843970386 -29.550251216406288 -193.15210255199338 0.0 0.0
-155.6518346186491 11.722652727290736 -44.58702431749679 -205.17045461681082 0.0 0.0
-229.34430160164612 6.479076766071689 -72.34599092295122 -212.9509574908549 0.0 0.0
-339.3871122596304 2.3775112103334486 -120.88339089986603 -205.58840492808207 0.0 0.0
-447.65720696942407 -4.679360615724562 -183.9030023759677 -189.7851947350784 0.0 0.0
-524.5794911739814 -10.74135244132519 -239.4500064115415 -177.95801160487147 0.0 0.0
-578.9117484351109 -16.035766858049328 -280.7067359188237 -171.1915949785631 0.0 0.0
-621.076689764447 -19.964105289013716 -310.38482429626924 -166.1872007308062 0.0 0.0
-658.1826035167492 -25.77671983644389 -335.5564611964093 -161.9112875746621 0.0 0.0
-692.6763179174034 -34.368234181554044 -359.13572215847324 -159.31529991674645 0.0 0.0
-725.4750922857218 -46.87419472784535 -383.02736124395824 -159.12653322909463 0.0 0.0
-754.771235409012 -62.474268902568525 -406.4798473518331 -161.35778659742243 0.0 0.0
-775.6253973200978 -78.0891393456038 -425.8376519039799 -166.38896279068763 0.0 0.0
-784.3516094999808 -91.2853255104585 -437.9031061972571 -174.33554998273215 0.0 0.0
-818.9900467344369 -145.44994405321373 -483.449185456716 -183.43499854097576 0.0 0.0
-824.8014559652192 -232.98538158044136 -531.924873281072 -202.50971226470529 0.0 0.0
-824.801455966516 -232.9853815823361 -531.9248732821737 202.50971226509003 0.0 0.0
-818.99004673588 -145.44994405531259 -483.44918545790614 183.43499854150423 0.0 0.0
-784.351609499167 -91.28532550968617 -437.9031061966961 174.3355499829273 0.0 0.0
-775.625397320353 -78.089139346243 -425.83765190412555 166.38896279097315 0.0 0.0
-754.771235409883 -62.474268903807115 -406.4798473524595 161.35778659766717 0.0 0.0
-725.4750922860457 -46.87419472854063 -383.02736124425036 159.12653322924263 0.0 0.0
-692.6763179170375 -34.36823418152247 -359.1357221583262 159.31529991691673 0.0 0.0
-658.1826035167644 -25.77671983670156 -335.55646119638453 161.91128757479447 0.0 0.0
-621.0766897634034 -19.964105288344683 -310.3848242956491 166.18720073083387 0.0 0.0
-578.9117484342956 -16.035766857250813 -280.70673591817666 171.19159497837265 0.0 0.0
-524.5794911737603 -10.741352441487223 -239.45000641132296 177.958011604828 0.0 0.0
-447.65720696934454 -4.679360616410914 -183.903002375972 189.78519473528655 0.0 0.0
-339.3871122589229 2.3775112104936014 -120.88339089949856 205.58840492815204 0.0 0.0
-229.34430160104824 6.479076766253161 -72.34599092267584 212.95095749072348 0.0 0.0
-155.65183461821135 11.722652727502288 -44.58702431729959 205.17045461664293 0.0 0.0
-115.55627875501227 18.132098439786294 -29.55025121632251 193.15210255177794 0.0 0.0
-95.02716326178907 18.749125511497603 -22.941975208311987 187.68151980240387 0.0 0.0
-82.64863593923477 3.5482845916831587 -23.759363287379735 189.11983739585628 0.0 0.0
-66.3451572467325 -51.21583875693407 -35.273113585897505 187.9847859963018 0.0 0.0
-23.82380806726991 -214.25856241440837 -71.42155352653711 129.73142146079712 0.0 0.0
-27.962545879298972 -169.38357092053357 -59.20383503994976 -115.164480219425 0.0 0.0
-79.08159883955229 -48.518292650570324 -38.27719497612301 -180.36901290238555 0.0 0.0
-112.12620258688456 3.152172616072888 -32.712894813370056 -184.40276263219536 0.0 0.0
-142.38264297088543 18.914332295535033 -37.14059267374607 -181.56922030697802 0.0 0.0
-184.214708703142 19.963932611463882 -49.90148926179236 -183.05596374866616 0.0 0.0
-251.96152710470977 15.827167734057346 -74.10449696213428 -188.6181890014086 0.0 0.0
-356.6454888909096 12.109827655428417 -119.62892895962281 -185.74995948533018 0.0 0.0
-471.361733101234 2.5143109120945155 -189.53959708840856 -172.02182403506083 0.0 0.0
-562.2580972918147 -8.480030611250065 -258.1420745186008 -162.54122647914613 0.0 0.0
-629.0197731257932 -18.47214322229587 -309.6885048717626 -157.4476557768744 0.0 0.0
-681.8981715251787 -25.96617006151851 -346.11318304920735 -153.57273566412687 0.0 0.0
-727.1941735935745 -34.13869946878354 -375.5790837904392 -149.3770601856768 0.0 0.0
-768.908704753115 -43.273218615706185 -402.3189202686357 -145.3701028918868 0.0 0.0
-809.342690931145 -55.181501372177706 -429.16576332655325 -142.693263175564 0.0 0.0
-849.9190989646897 -71.58657360820678 -458.08600047595905 -142.5499655885793 0.0 0.0
-888.6753278299918 -91.67947306560859 -487.95899644081896 -145.53592976933007 0.0 0.0
-922.9251085918606 -113.24024899963163 -516.3193757705042 -151.36837285660184 0.0 0.0
-961.3541101292495 -146.3577313205629 -552.4982412909812 -157.7876674930215 0.0 0.0
-1004.411657777076 -195.5420737110489 -598.9317029952504 -163.5978855948067 0.0 0.0
-1101.1341341273828 -330.19874734762027 -713.7994506292305 -171.1063949161592 0.0 0.0
-1101.13413412639 -330.1987473468474 -713.799450628627 171.10639491647478 0.0 0.0
-1004.4116577767494 -195.54207371088054 -598.9317029950018 163.59788559505694 0.0 0.0
-961.354110127927 -146.35773131924043 -552.4982412900291 157.78766749312322 0.0 0.0
-922.925108590523 -113.24024899830053 -516.3193757695786 151.36837285645686 0.0 0.0
-888.6753278296378 -91.67947306523405 -487.95899644043584 145.53592976920726 0.0 0.0
-849.919098964112 -71.58657360775243 -458.08600047554114 142.54996558860537 0.0 0.0
-809.3426909306816 -55.18150137186473 -429.16576332619366 142.69326317553612 0.0 0.0
-768.9087047524529 -43.27321861512699 -402.3189202681507 145.3701028917881 0.0 0.0
-727.1941735943844 -34.138699469967875 -375.5790837909049 149.3770601858535 0.0 0.0
-681.8981715258841 -25.966170062669647 -346.1131830496651 153.57273566415006 0.0 0.0
-629.0197731262974 -18.47214322320778 -309.68850487211006 157.44765577688182 0.0 0.0
-562.2580972917781 -8.480030611646598 -258.1420745185605 162.54122647917958 0.0 0.0
-471.3617331006939 2.5143109121758735 -189.53959708803077 172.02182403510153 0.0 0.0
-356.6454888899016 12.109827656225479 -119.62892895897136 185.7499594851938 0.0 0.0
-251.96152710434046 15.827167733737316 -74.10449696209334 188.6181890012471 0.0 0.0
-184.21470870318694 19.963932610934325 -49.90148926196032 183.0559637485039 0.0 0.0
-142.3826429707818 18.914332295355237 -37.140592673773966 181.56922030684203 0.0 0.0
-112.12620258681791 3.1521726159998025 -32.7128948133775 184.4027626319968 0.0 0.0
-79.08159883943107 -48.51829265039713 -38.27719497603578 180.36901290231265 0.0 0.0
-27.9625458792883 -169.38357092037342 -59.203835039898514 115.16448021930115 0.0 0.0
-29.464698825588606 -128.48366169779138 -47.38450815701399 -99.96720398685301 0.0 0.0
-89.66625534988415 -43.582858142567275 -39.974207016459744 -168.3588893881333 0.0 0.0
-139.7550091435422 2.683062695877285 -41.13206469034348 -175.4310093133274 0.0 0.0
-187.8577321423418 18.043418129257443 -51.102644841412925 -170.65236427624046 0.0 0.0
-249.51482781990524 21.12442767857677 -69.56957184008391 -167.71812433687796 0.0 0.0
-339.9805891763889 20.597853810290353 -103.67259986307076 -165.36398313340953 0.0 0.0
-453.82664027571275 13.882742165808843 -166.5209810070012 -153.50966386239125 0.0 0.0
-555.7011270871269 0.6606961623606864 -243.89344088194497 -143.37556112607388 0.0 0.0
-635.0389582170462 -12.698773343989828 -307.59789274319894 -140.3307252820665 0.0 0.0
-698.6805323990764 -25.010726892760857 -353.7566122790151 -138.57803068517342 0.0 0.0
-752.708611569097 -36.068268612167984 -389.383727826571 -135.85254627439016 0.0 0.0
-802.3066631371137 -48.13922270642182 -421.53695760501057 -132.25325406623165 0.0 0.0
-848.567540480477 -60.796173993462105 -451.69303414111823 -128.44176877002423 0.0 0.0
-893.7323021748632 -76.01446374136151 -482.2774272118991 -125.58805842171033 0.0 0.0
-939.5672263254592 -95.69341171422838 -515.2713957032028 -125.3533776800895 0.0 0.0
-986.7708441354304 -121.27371735097447 -551.8996243791424 -128.4933925077151 0.0 0.0
-1036.2043937065964 -154.45158613443806 -593.453014579534 -133.93163973592812 0.0 0.0
-1089.7586792319084 -198.2288642342087 -642.3133480109544 -139.0033903619297 0.0 0.0
-1160.6683776472787 -269.4131657990543 -713.2117164994816 -140.4003862566385 0.0 0.0
-1256.7628570427537 -393.5086358007021 -823.1677703843905 -142.38595693726916 0.0 0.0
-1256.762857042203 -393.50863580015806 -823.1677703840603 142.3859569373467 0.0 0.0
-1160.6683776467858 -269.4131657986636 -713.2117164991512 140.40038625692154 0.0 0.0
-1089.7586792315794 -198.22886423409716 -642.3133480107243 139.0033903622112 0.0 0.0
-1036.2043937069002 -154.4515861348498 -593.4530145796507 133.9316397359647 0.0 0.0
-986.7708441359152 -121.27371735166085 -551.8996243794768 128.49339250783092 0.0 0.0
-939.5672263252354 -95.69341171424443 -515.2713957031286 125.3533776802376 0.0 0.0
-893.7323021744876 -76.0144637411048 -482.2774272116342 125.58805842164902 0.0 0.0
-848.5675404801916 -60.796173993390504 -451.6930341409079 128.4417687700628 0.0 0.0
-802.3066631364555 -48.13922270600385 -421.5369576045964 132.2532540662728 0.0 0.0
-752.7086115684883 -36.06826861179321 -389.38372782621474 135.85254627433602 0.0 0.0
-698.6805323985582 -25.010726892543026 -353.75661227868017 138.57803068515378 0.0 0.0
-635.0389582171098 -12.698773344368146 -307.59789274316734 140.33072528202376 0.0 0.0
-555.7011270867808 0.6606961622600807 -243.89344088165566 143.37556112616025 0.0 0.0
-453.8266402748704 13.88274216629163 -166.52098100643198 153.50966386235046 0.0 0.0
-339.98058917596086 20.597853810136314 -103.67259986291455 165.36398313328655 0.0 0.0
-249.51482781979664 21.124427678086008 -69.56957184020132 167.71812433673875 0.0 0.0
-187.85773214208007 18.043418129521022 -51.10264484126519 170.65236427606803 0.0 0.0
-139.75500914329362 2.6830626961462585 -41.132064690194895 175.4310093132039 0.0 0.0
-89.66625534980206 -43.58285814265457 -39.97420701646148 168.35888938805437 0.0 0.0
-29.46469882562417 -128.48366169769642 -47.384508156996176 99.9672039867676 0.0 0.0
-30.335702232398212 -92.21268171695922 -36.76451518480722 -84.370300975403 0.0 0.0
-99.00362396687737 -36.96085607138939 -40.789344011480026 -152.30077575311395 0.0 0.0
-165.60003796259252 2.262870943137772 -49.00399376941829 -161.98033174823792 0.0 0.0
-231.65610131706387 16.38896923984682 -64.70287923274026 -155.42484057803114 0.0 0.0
-311.49847952447215 22.62490209728501 -88.6386787345539 -148.10877883577115 0.0 0.0
-416.46996380562985 23.021341761885846 -134.8627511848186 -136.64542568130926 0.0 0.0
-525.0701186808951 13.24006882999867 -209.50665199464623 -123.19347177954278 0.0 0.0
-615.1530234413775 -1.2013981091374148 -284.9983767402589 -119.11643552775497 0.0 0.0
-688.7050345719138 -16.334223607778256 -342.2003644763245 -119.74869273715044 0.0 0.0
-751.8026789935114 -30.770210295094728 -385.67186272805094 -119.637950554194 0.0 0.0
-809.3633608842024 -45.92070634341091 -423.7502871498309 -117.68894367688537 0.0 0.0
-863.1670049169785 -62.03939507375489 -459.53239913637816 -114.56949003814634 0.0 0.0
-913.8528568536261 -78.65484932021965 -493.69291451939716 -111.08185267170596 0.0 0.0
-962.9848099599322 -96.72448556687306 -527.5954648462663 -108.20941679932325 0.0 0.0
-1013.910205588565 -119.72008141473924 -564.6931989534747 -107.59148775086132 0.0 0.0
-1069.7879396786234 -152.0825799278689 -608.9125583080538 -110.16620464324578 0.0 0.0
-1132.6836425073593 -196.00184594091272 -662.4446261327364 -115.01211524395211 0.0 0.0
-1204.7473893426752 -255.80920013120007 -728.4177642704907 -118.69656118518805 0.0 0.0
-1287.5847029279905 -337.97990479349374 -810.8856037333896 -119.0159436459484 0.0 0.0
-1372.4920176877085 -448.6101702261482 -908.7335241517983 -122.0090867732282 0.0 0.0
-1372.492017687201 -448.6101702256524 -908.7335241514652 122.00908677332569 0.0 0.0
-1287.5847029283168 -337.97990479398953 -810.8856037337401 119.01594364628687 0.0 0.0
-1204.7473893423216 -255.8092001310263 -728.4177642703253 118.69656118542439 0.0 0.0
-1132.6836425063025 -196.00184593989502 -662.4446261319667 115.01211524384655 0.0 0.0
-1069.7879396778533 -152.08257992720422 -608.9125583075079 110.16620464323256 0.0 0.0
-1013.9102055881178 -119.7200814144682 -564.6931989531364 107.59148775091826 0.0 0.0
-962.9848099601161 -96.7244855672515 -527.5954648463389 108.20941679940495 0.0 0.0
-913.8528568537853 -78.65484932062549 -493.69291451955235 111.08185267178268 0.0 0.0
-863.1670049166444 -62.03939507360507 -459.5323991361597 114.5694900380768 0.0 0.0
-809.3633608843179 -45.920706343831945 -423.75028714985535 117.68894367694257 0.0 0.0
-751.8026789932757 -30.77021029518255 -385.67186272789604 119.63795055422935 0.0 0.0
-688.7050345713745 -16.33422360749731 -342.200364475951 119.74869273706928 0.0 0.0
-615.1530234413137 -1.2013981093823851 -284.9983767401203 119.11643552767057 0.0 0.0
-525.0701186805925 13.240068829788123 -209.50665199435713 123.19347177959153 0.0 0.0
-416.4699638049489 23.021341762224658 -134.8627511843951 136.6454256811962 0.0 0.0
-311.49847952391826 22.624902097709963 -88.63867873426287 148.10877883557723 0.0 0.0
-231.65610131689752 16.38896923969081 -64.70287923274368 155.4248405779774 0.0 0.0
-165.60003796256217 2.2628709429562353 -49.003993769468366 161.980331748123 0.0 0.0
-99.00362396687152 -36.96085607149667 -40.789344011510444 152.30077575292609 0.0 0.0
-30.33570223239474 -92.21268171692266 -36.764515184795215 84.37030097521938 0.0 0.0
-31.103522970842114 -61.09947513856773 -27.66089943282295 -68.3414050120683 0.0 0.0
-107.53109203827914 -29.229656565750744 -41.02822458120896 -132.6146332580581 0.0 0.0
-189.92704218479062 1.7840708196405952 -56.440704303724516 -144.15522416907618 0.0 0.0
-272.71543123157323 14.104218340752979 -77.7851949971141 -135.84365779094261 0.0 0.0
-368.92873572296145 24.266044544332544 -107.83316370270056 -124.20277703431988 0.0 0.0
-479.59691329059956 22.811492526620366 -167.0075605191847 -106.69795984848155 0.0 0.0
-578.2547279195903 12.333845281268232 -246.2151210088904 -96.71544174917392 0.0 0.0
-659.7968332743123 -3.1680790789755093 -315.80292387769003 -96.97164190049037 0.0 0.0
-730.5515620007238 -18.87729392348436 -367.4946163910961 -99.46736876323095 0.0 0.0
-795.7384456231348 -36.33409672504416 -411.6184343182015 -100.20195266716173 0.0 0.0
-857.189461273013 -55.53663548189401 -453.05883367392556 -98.79619395602514 0.0 0.0
-915.3402000510893 -75.88529452282137 -492.9120488106988 -96.23892958968057 0.0 0.0
-970.6460050733926 -96.63667879483745 -531.3638452397978 -93.33936229760752 0.0 0.0
-1023.7592680337397 -118.14043558875795 -568.9410371842259 -90.51855071996135 0.0 0.0
-1078.9636481038533 -144.21187170509265 -609.6605213268828 -89.19473453175057 0.0 0.0
-1143.0100777324042 -182.5034164055445 -660.8248074498931 -90.77570425609694 0.0 0.0
-1218.9850354771493 -238.09040019254235 -726.6194488781891 -94.65026587998437 0.0 0.0
-1306.017453862879 -312.0401023786276 -807.1369228107021 -98.18824211559351 0.0 0.0
-1395.2377900438123 -400.80945884491257 -896.1815158009199 -100.30409942471438 0.0 0.0
-1473.5067476689244 -503.5066545737817 -986.8353593676017 -106.82906758322594 0.0 0.0
-1473.506747668799 -503.506654573748 -986.8353593674992 106.82906758342075 0.0 0.0
-1395.2377900431982 -400.8094588444261 -896.1815158005252 100.3040994249354 0.0 0.0
-1306.0174538625786 -312.0401023784477 -807.1369228104103 98.18824211574952 0.0 0.0
-1218.9850354775315 -238.0904001930533 -726.6194488783419 94.65026588005813 0.0 0.0
-1143.0100777311518 -182.50341640436903 -660.8248074489827 90.7757042560013 0.0 0.0
-1078.9636481025136 -144.21187170384917 -609.6605213258829 89.19473453165682 0.0 0.0
-1023.7592680326181 -118.14043558779193 -568.9410371834617 90.51855071996049 0.0 0.0
-970.6460050732617 -96.63667879489145 -531.3638452396593 93.33936229759922 0.0 0.0
-915.3402000510214 -75.88529452298214 -492.9120488107326 96.23892958971592 0.0 0.0
-857.1894612722319 -55.53663548138003 -453.0588336734863 98.79619395606068 0.0 0.0
-795.7384456227612 -36.33409672499294 -411.6184343179938 100.20195266721609 0.0 0.0
-730.5515620007882 -18.87729392382795 -367.49461639110507 99.46736876316736 0.0 0.0
-659.7968332740191 -3.1680790790242135 -315.8029238774209 96.97164190049212 0.0 0.0
-578.2547279191501 12.33384528123866 -246.2151210085239 96.71544174926888 0.0 0.0
-479.5969132903431 22.81149252642423 -167.00756051898102 106.6979598484341 0.0 0.0
-368.92873572276045 24.26604454399609 -107.83316370270386 124.20277703423005 0.0 0.0
-272.7154312313492 14.104218340755608 -77.78519499705627 135.8436577907686 0.0 0.0
-189.92704218456407 1.7840708198310438 -56.44070430360026 144.15522416888342 0.0 0.0
-107.53109203820068 -29.229656565717118 -41.02822458117534 132.61463325800256 0.0 0.0
-31.1035229708285 -61.09947513853597 -27.660899432809337 68.34140501202987 0.0 0.0
-31.65191936770595 -35.62009199522029 -20.18160340887787 -51.82359203330911 0.0 0.0
-115.11116158288915 -20.94105302400479 -40.81566438206818 -109.6969855519701 0.0 0.0
-212.9741145874635 1.1505438042036573 -63.546310750888836 -121.94502983270132 0.0 0.0
-312.7440961307884 12.095591068379454 -90.45825640301163 -112.66763410103748 0.0 0.0
-423.0219916555787 24.751561373105055 -128.45315733815184 -96.607858934848 0.0 0.0
-529.3528427611247 21.75463339250783 -197.9110797716712 -78.40757765495374 0.0 0.0
-617.1249301171226 10.33037717588752 -276.2441181431787 -73.12774587011404 0.0 0.0
-694.1002322098263 -3.736685069860073 -337.98124190902547 -75.80165376630053 0.0 0.0
-765.2601208308917 -21.06329442685052 -387.65328528884226 -78.92542650131756 0.0 0.0
-833.2494492135124 -41.88343491752673 -433.83339960405715 -80.05915830087424 0.0 0.0
-898.4539018736555 -64.86020775294216 -478.7371661808554 -79.1629513145558 0.0 0.0
-961.171388320513 -89.4555125605975 -522.8837414530807 -77.23562448809568 0.0 0.0
-1021.3036714297868 -114.784130965972 -565.9628258097463 -74.99507980769496 0.0 0.0
-1079.6598732252437 -140.78245100834596 -608.3893861189545 -72.55983949298309 0.0 0.0
-1138.9328776767316 -169.99657998842343 -652.7156464904577 -70.47924246175894 0.0 0.0
-1207.5186044312886 -211.97697918399035 -707.9122359791696 -70.37173356440911 0.0 0.0
-1294.7212862095284 -277.2664179043274 -784.0819922900255 -73.30782090008641 0.0 0.0
-1394.5498707956613 -363.2847235011528 -877.0463007758959 -77.88795970232833 0.0 0.0
-1492.5180327956696 -460.9097223669562 -974.9387333579598 -83.41141413598405 0.0 0.0
-1569.7813366575886 -561.7280011126536 -1064.1891081854033 -94.59373264235175 0.0 0.0
-1569.7813366580476 -561.7280011131201 -1064.1891081857661 94.5937326424006 0.0 0.0
-1492.5180327957219 -460.9097223670822 -974.9387333579642 83.4114141360617 0.0 0.0
-1394.5498707956754 -363.28472350125696 -877.0463007758152 77.8879597024465 0.0 0.0
-1294.7212862088059 -277.26641790373986 -784.0819922895575 73.30782090023392 0.0 0.0
-1207.5186044311104 -211.97697918392092 -707.9122359790288 70.37173356432594 0.0 0.0
-1138.9328776770005 -169.99657998881312 -652.7156464906295 70.47924246167078 0.0 0.0
-1079.6598732250045 -140.78245100827917 -608.3893861187976 72.55983949296278 0.0 0.0
-1021.3036714293851 -114.78413096575201 -565.9628258094508 74.99507980764884 0.0 0.0
-961.1713883202467 -89.45551256058218 -522.8837414528821 77.23562448815034 0.0 0.0
-898.4539018735503 -64.86020775309007 -478.73716618072797 79.16295131452735 0.0 0.0
-833.24944921371 -41.88343491801391 -433.8333996041199 80.0591583008811 0.0 0.0
-765.2601208314935 -21.06329442784019 -387.6532852892168 78.92542650149815 0.0 0.0
-694.1002322094982 -3.7366850698134897 -337.9812419087578 75.80165376615855 0.0 0.0
-617.1249301166062 10.330377176104388 -276.244118142742 73.12774587004387 0.0 0.0
-529.3528427605426 21.754633392724763 -197.9110797712314 78.40757765494868 0.0 0.0
-423.0219916551339 24.751561373042982 -128.45315733797239 96.6078589348898 0.0 0.0
-312.74409613054945 12.09559106837343 -90.4582564029566 112.66763410100582 0.0 0.0
-212.97411458728584 1.150543804056015 -63.54631075088071 121.94502983279597 0.0 0.0
-115.11116158285446 -20.941053024087527 -40.81566438208259 109.69698555197438 0.0 0.0
-31.651919367700877 -35.62009199520135 -20.181603408870664 51.8235920332835 0.0 0.0
-31.361007030279183 -16.225484398696416 -14.275947428692678 -34.93879194591628 0.0 0.0
-120.91503478510562 -12.561224462257139 -40.042877774208826 -83.76477132241091 0.0 0.0
-235.11368604292588 0.09244522575440861 -70.50637224515144 -95.28466051514148 0.0 0.0
-352.5341835929502 11.468616120009283 -102.7815881678064 -85.85081743334563 0.0 0.0
-470.3851320656243 24.017687257030524 -150.54849458586045 -67.15403404075877 0.0 0.0
-568.2359108859459 19.35152800076441 -227.11454187863893 -53.21516407564892 0.0 0.0
-648.2834761060435 9.035566452324332 -299.9819993901614 -51.578686203157666 0.0 0.0
-722.0601055507097 -3.8288148842559764 -354.9483824350139 -54.68582699406901 0.0 0.0
-794.4579603982525 -23.3331778261701 -404.4145431863658 -57.864570013745436 0.0 0.0
-865.424282610418 -47.22866521072402 -453.05370831471873 -59.21231963167407 0.0 0.0
-934.632733913458 -73.95701232345888 -501.6572378547562 -58.785972914561995 0.0 0.0
-1001.7557550672035 -102.6911706883896 -550.001338109917 -57.47676155863476 0.0 0.0
-1067.330762665617 -132.79910870301254 -598.1324587532802 -55.98081900508909 0.0 0.0
-1131.5797681602498 -164.53385776755 -646.336168579702 -54.10179502814462 0.0 0.0
-1196.0897124901019 -198.6478464291683 -695.7563772921874 -51.70433285971892 0.0 0.0
-1266.6991697347985 -241.61132414840606 -752.4749241406358 -49.82884268427941 0.0 0.0
-1355.5065346566844 -307.5404636998975 -829.6631845373206 -51.197033259716335 0.0 0.0
-1470.6515196601883 -407.9232326452285 -937.4182759971243 -57.155657807507154 0.0 0.0
-1582.8768342034978 -519.0332946352773 -1049.2376726191214 -67.14717713087632 0.0 0.0
-1669.6944851437065 -627.8432174675199 -1147.279848843912 -83.91418413680206 0.0 0.0
-1669.69448514362 -627.8432174674715 -1147.2798488438184 83.91418413687478 0.0 0.0
-1582.8768342045414 -519.0332946364083 -1049.2376726197663 67.14717713100723 0.0 0.0
-1470.6515196602713 -407.923232645413 -937.4182759971843 57.1556578076556 0.0 0.0
-1355.5065346556175 -307.54046369892126 -829.6631845364705 51.19703325972037 0.0 0.0
-1266.6991697342569 -241.61132414798783 -752.4749241402207 49.82884268432842 0.0 0.0
-1196.0897124894184 -198.64784642864873 -695.756377291694 51.70433285977843 0.0 0.0
-1131.5797681592023 -164.53385776666724 -646.336168578989 54.10179502814276 0.0 0.0
-1067.3307626645674 -132.79910870213257 -598.1324587525469 55.980819005013856 0.0 0.0
-1001.7557550663165 -102.69117068773318 -550.0013381092948 57.47676155865975 0.0 0.0
-934.6327339130951 -73.95701232334119 -501.6572378545615 58.785972914538945 0.0 0.0
-865.4242826102472 -47.22866521079767 -453.0537083146362 59.212319631501146 0.0 0.0
-794.4579603977731 -23.333177825968427 -404.4145431860613 57.86457001378106 0.0 0.0
-722.0601055500147 -3.8288148838368343 -354.9483824345647 54.68582699404841 0.0 0.0
-648.2834761055103 9.035566452524584 -299.9819993897594 51.57868620316009 0.0 0.0
-568.235910885714 19.351528000642624 -227.1145418783709 53.21516407561269 0.0 0.0
-470.3851320654116 24.017687256722546 -150.54849458576197 67.15403404084911 0.0 0.0
-352.5341835926072 11.46861611993062 -102.78158816774817 85.85081743331429 0.0 0.0
-235.1136860426219 0.09244522593348181 -70.50637224500652 95.28466051515856 0.0 0.0
-120.91503478512352 -12.5612244622526 -40.04287777421282 83.76477132225719 0.0 0.0
-31.361007030279318 -16.225484398700285 -14.275947428693877 34.93879194574548 0.0 0.0
-28.924528566074073 -3.292878167121108 -9.665222019958552 -18.203572967514 0.0 0.0
-123.22810582291967 -4.696785005514187 -38.37746724853015 -54.78366961441362 0.0 0.0
-256.74746257872476 -1.2354498025510097 -77.39487371438273 -63.66654503628602 0.0 0.0
-393.78401178755246 12.200310719807543 -115.64078944779037 -55.49201209997022 0.0 0.0
-509.50567194486285 22.837187294450356 -173.36071348809935 -38.85078604186816 0.0 0.0
-596.7351710546137 15.76457052109982 -253.14333442006912 -30.548845764659944 0.0 0.0
-672.5829042282359 9.122656883530865 -317.3809162425339 -30.913996364286028 0.0 0.0
-745.3329290060386 -4.514576692476609 -368.814589496026 -33.5768176967372 0.0 0.0
-818.7720270066889 -25.43858030509908 -418.3061464241065 -36.25934929820728 0.0 0.0
-892.9174263593989 -52.331855984890524 -469.69231025809523 -37.61627562842248 0.0 0.0
-966.2770505790747 -82.84365696148782 -522.1502354672064 -37.64531435666244 0.0 0.0
-1038.2300706444994 -115.58009121533826 -574.8505714464847 -36.987485635357665 0.0 0.0
-1109.07261782953 -150.8147969786697 -628.1302304429273 -36.10453202784034 0.0 0.0
-1179.9628381715017 -188.59297135520356 -682.6323133020968 -34.92719207147726 0.0 0.0
-1251.5529863294382 -229.4940905337076 -738.9886543266919 -33.00993084202362 0.0 0.0
-1324.8144596370316 -275.0230195362301 -798.4022704056121 -30.2650095836631 0.0 0.0
-1406.6568931610636 -333.4555494902079 -868.3862753376923 -29.076615307879543 0.0 0.0
-1514.8596370871774 -425.4733830576141 -968.2759993011957 -34.66730637569826 0.0 0.0
-1674.1400598044477 -581.3188153561857 -1125.9892681084661 -49.721920662677974 0.0 0.0
-1782.6456792358103 -709.3146367491934 -1244.5598254348986 -73.81333430101385 0.0 0.0
-1782.6456792362123 -709.3146367496404 -1244.5598254351814 73.8133343010825 0.0 0.0
-1674.1400598033888 -581.3188153551813 -1125.9892681076851 49.72192066275201 0.0 0.0
-1514.8596370853518 -425.4733830558599 -968.2759992998156 34.66730637572678 0.0 0.0
-1406.656893160664 -333.45554948990093 -868.3862753372772 29.076615307913546 0.0 0.0
-1324.8144596369968 -275.02301953634094 -798.402270405526 30.26500958374602 0.0 0.0
-1251.5529863285813 -229.49409053299254 -738.9886543259008 33.00993084201555 0.0 0.0
-1179.9628381712068 -188.59297135508947 -682.6323133017594 34.92719207153512 0.0 0.0
-1109.0726178305583 -150.81479697993666 -628.1302304435618 36.104532027978294 0.0 0.0
-1038.230070644137 -115.58009121519669 -574.8505714462007 36.987485635275185 0.0 0.0
-966.2770505789545 -82.84365696162004 -522.1502354669959 37.64531435660754 0.0 0.0
-892.917426358399 -52.33185598411471 -469.69231025737474 37.61627562830685 0.0 0.0
-818.7720270058353 -25.438580304519405 -418.30614642352054 36.25934929814436 0.0 0.0
-745.3329290056673 -4.514576692394762 -368.81458949573386 33.57681769668182 0.0 0.0
-672.5829042278733 9.122656883560069 -317.3809162422358 30.913996364218484 0.0 0.0
-596.7351710542056 15.764570521223856 -253.14333441968114 30.54884576454745 0.0 0.0
-509.50567194457324 22.837187294334143 -173.36071348788923 38.85078604199305 0.0 0.0
-393.78401178728984 12.20031071947363 -115.64078944782312 55.49201209999116 0.0 0.0
-256.74746257869367 -1.235449802903716 -77.39487371447922 63.66654503604263 0.0 0.0
-123.22810582287777 -4.69678500556943 -38.377467248534145 54.783669614306866 0.0 0.0
-28.924528566071537 -3.2928781670902834 -9.665222019948544 18.20357296739871 0.0 0.0
-21.842141088562318 2.9194638647871267 -5.676803167132558 -2.895315482830652 0.0 0.0
-118.95081642941139 1.8040156435126864 -35.14404023576961 -22.190554077855104 0.0 0.0
-279.0132628144998 -2.3646314005753872 -84.41336826452255 -26.022479303517294 0.0 0.0
-433.9665373954589 14.355309344476428 -129.80088242417344 -22.357046227988015 0.0 0.0
-542.3939371734983 20.384125402066587 -197.08922135176738 -13.216040663117091 0.0 0.0
-621.5152156960294 13.867783761867273 -274.8261356613591 -10.169471103105227 0.0 0.0
-692.5230641765493 8.55839962813593 -331.29464410986907 -10.660090680140634 0.0 0.0
-764.3114312454433 -5.272768419102519 -379.93772424066685 -12.38521257500505 0.0 0.0
-839.0163367666473 -27.61342969763703 -430.02398430278186 -14.135685983688841 0.0 0.0
-916.2221017938314 -57.140265264116834 -484.0286988416167 -15.268002363304987 0.0 0.0
-993.9271040922813 -91.26035007677228 -540.3660035699878 -15.723044182429556 0.0 0.0
-1070.7714510195751 -128.69221665980584 -597.8149223428817 -15.66936779616831 0.0 0.0
-1147.201765708954 -168.63494270465824 -656.2068582611689 -15.438152409300585 0.0 0.0
-1224.535599334073 -212.17712890328195 -716.7759532591355 -14.946962855352579 0.0 0.0
-1303.5816513037405 -260.3207625348716 -780.4614841621985 -13.913286409072002 0.0 0.0
-1383.4092045540933 -312.5912943509875 -846.5695791055929 -12.015777414395817 0.0 0.0
-1461.7028263437815 -367.66171419889673 -913.2418101130211 -9.498659927524864 0.0 0.0
-1543.827946611057 -432.663246116099 -986.6181805833041 -10.66123957953435 0.0 0.0
-1665.1142141513697 -546.7674725691588 -1103.9904046536944 -26.526216348118346 0.0 0.0
-1985.1587369064764 -880.146468978274 -1431.242082732034 -61.0012655741431 0.0 0.0
-1985.1587369064332 -880.1464689782501 -1431.2420827320345 61.00126557412896 0.0 0.0
-1665.114214153869 -546.7674725717391 -1103.9904046555032 26.526216348243814 0.0 0.0
-1543.8279466118042 -432.66324611693074 -986.6181805838257 10.66123957954312 0.0 0.0
-1461.7028263427028 -367.6617141979151 -913.2418101122756 9.498659927530035 0.0 0.0
-1383.409204554732 -312.5912943517703 -846.569579106023 12.01577741432112 0.0 0.0
-1303.5816513048374 -260.3207625361281 -780.461484162986 13.913286409006234 0.0 0.0
-1224.535599332827 -212.1771289021981 -716.7759532582166 14.94696285533982 0.0 0.0
-1147.2017657076815 -168.63494270359354 -656.206858260229 15.43815240940554 0.0 0.0
-1070.7714510190087 -128.69221665946645 -597.8149223424116 15.669367795944288 0.0 0.0
-993.9271040917827 -91.26035007651504 -540.3660035696037 15.723044182347753 0.0 0.0
-916.2221017931292 -57.14026526369234 -484.02869884112454 15.268002363401633 0.0 0.0
-839.016336766594 -27.613429697888236 -430.0239843027044 14.135685983648585 0.0 0.0
-764.3114312452473 -5.2727684192107915 -379.9377242405306 12.38521257497899 0.0 0.0
-692.5230641768627 8.558399627486168 -331.29464411004074 10.66009068026991 0.0 0.0
-621.5152156958246 13.867783761718147 -274.82613566115157 10.169471103126575 0.0 0.0
-542.393937173165 20.3841254020501 -197.08922135149143 13.216040663186545 0.0 0.0
-433.9665373953122 14.355309344183478 -129.8008824241936 22.357046228097413 0.0 0.0
-279.0132628143877 -2.3646314005273528 -84.41336826447451 26.022479303641127 0.0 0.0
-118.95081642909194 1.8040156437349975 -35.14404023560708 22.190554077966123 0.0 0.0
-21.842141088603356 2.919463864760772 -5.676803167152774 2.8953154830185364 0.0 0.0
SCALARS Strain float 6
LOOKUP_TABLE default
0.012235001085744221 -0.01330299195801693 0.0 -0.007381532987022599 0.0 0.0
0.0025049543561328595 -0.001611569985376815 0.0 0.0012370595253803907 0.0 0.0
0.001846974323444727 -0.0007558197139949652 0.0 -3.836645671490002e-05 0.0 0.0
0.0023676926476023097 -0.0011637083718232244 0.0 -0.00022628573247607253 0.0 0.0
0.0037580266256770287 -0.002300038105647273 0.0 -0.00029177183289047504 0.0 0.0
0.006621557678614691 -0.004863022867215516 0.0 -0.00045329555566420154 0.0 0.0
0.011281778287500264 -0.00925408702884889 0.0 -0.000731764338856522 0.0 0.0
0.018049975636032774 -0.015751579529088122 0.0 -0.001164184686783587 0.0 0.0
0.027085610230728162 -0.024493087663385538 0.0 -0.0017673267013901817 0.0 0.0
0.038363189908164015 -0.035449911016564695 0.0 -0.002489759209444553 0.0 0.0
0.05174220691354814 -0.048491975763010675 0.0 -0.00323984745116096 0.0 0.0
0.06705229619916747 -0.06345673229741333 0.0 -0.00397240928841891 0.0 0.0
0.08412353466233342 -0.0801775644656022 0.0 -0.004694036415020558 0.0 0.0
0.10275438758541766 -0.09844860340075456 0.0 -0.00539884362064072 0.0 0.0
0.12259107551337373 -0.11791231588674078 0.0 -0.00605500150783439 0.0 0.0
0.14298902131371305 -0.1379276446806501 0.0 -0.006531712685599156 0.0 0.0
0.162953577818538 -0.15751250752948343 0.0 -0.0065958690032904 0.0 0.0
0.18117793214035757 -0.17537380535282088 0.0 -0.006025242392637242 0.0 0.0
0.19610273356880445 -0.18995555695042698 0.0 -0.005110717471281667 0.0 0.0
0.20547106348919833 -0.1988015766053759 0.0 -0.005867330487888234 0.0 0.0
0.205471063489186 -0.19880157660535902 0.0 0.00586733048789867 0.0 0.0
0.19610273356876123 -0.18995555695037725 0.0 0.005110717471301651 0.0 0.0
0.18117793214028793 -0.17537380535274716 0.0 0.006025242392649455 0.0 0.0
0.1629535778184499 -0.15751250752939372 0.0 0.006595869003298005 0.0 0.0
0.1429890213136158 -0.13792764468055774 0.0 0.006531712685589608 0.0 0.0
0.12259107551327511 -0.11791231588664619 0.0 0.006055001507833779 0.0 0.0
0.10275438758531946 -0.0984486034006582 0.0 0.005398843620642357 0.0 0.0
0.08412353466223693 -0.08017756446550317 0.0 0.0046940364150205305 0.0 0.0
0.06705229619907238 -0.0634567322973183 0.0 0.003972409288409473 0.0 0.0
0.051742206913464095 -0.04849197576292896 0.0 0.003239847451155131 0.0 0.0
0.03836318990809612 -0.03544991101649764 0.0 0.0024897592094331733 0.0 0.0
0.027085610230675405 -0.024493087663332025 0.0 0.001767326701389238 0.0 0.0
0.018049975635992366 -0.015751579529050153 0.0 0.0011641846867818106 0.0 0.0
0.011281778287473232 -0.009254087028822466 0.0 0.0007317643388551343 0.0 0.0
0.006621557678598455 -0.004863022867200639 0.0 0.0004532955556644236 0.0 0.0
0.00375802662566993 -0.002300038105642166 0.0 0.00029177183288997544 0.0 0.0
0.002367692647600894 -0.001163708371821781 0.0 0.00022628573247479578 0.0 0.0
0.001846974323443551 -0.0007558197139954093 0.0 3.8366456713567754e-05 0.0 0.0
0.0025049543561310728 -0.0016115699853757048 0.0 -0.0012370595253779482 0.0 0.0
0.01223500108573311 -0.013302991958002811 0.0 0.0073815329869891255 0.0 0.0
0.008723082456060703 -0.010169738037355436 0.0 -0.00894195260997066 0.0 0.0
0.001352422076784432 -0.0008102241986438496 0.0 0.00012794822623629631 0.0 0.0
0.0015764448878134163 -0.0005581077448939542 0.0 -0.00012738062024286734 0.0 0.0
0.002071239373804129 -0.0009663028335817891 0.0 -0.0004851935910833438 0.0 0.0
0.0031815847055349233 -0.001825345290830338 0.0 -0.0006517848857032216 0.0 0.0
0.005636503087239245 -0.0039677562254427645 0.0 -0.0010473082085562524 0.0 0.0
0.00979636338880304 -0.007837412766906304 0.0 -0.0017491063603639057 0.0 0.0
0.015919227928083667 -0.013682560400861465 0.0 -0.00277609722458666 0.0 0.0
0.024107804747528792 -0.02158351188537999 0.0 -0.0041350236928296424 0.0 0.0
0.034289114068459664 -0.031460692547846225 0.0 -0.00570458912647831 0.0 0.0
0.04630444986337921 -0.04316339721746143 0.0 -0.007309711564807142 0.0 0.0
0.060008552712267856 -0.056551160471340456 0.0 -0.008849723912810914 0.0 0.0
0.07529121784132736 -0.07151189028040639 0.0 -0.010383140246393585 0.0 0.0
0.0919984150059504 -0.0878891612223609 0.0 -0.01192350816701132 0.0 0.0
0.10982843632974854 -0.10538010518412522 0.0 -0.013362076942926515 0.0 0.0
0.1282355731584185 -0.12344098029631168 0.0 -0.014438166314104994 0.0 0.0
0.14636179082001038 -0.14121894988470096 0.0 -0.014702018888589519 0.0 0.0
0.1630129327676439 -0.15752270438049187 0.0 -0.013808906836934143 0.0 0.0
0.1765427048154651 -0.17066749711678453 0.0 -0.012002855869019502 0.0 0.0
0.1847041162565826 -0.17853387038863566 0.0 -0.009094598410869348 0.0 0.0
0.1847041162565706 -0.17853387038862545 0.0 0.009094598410893884 0.0 0.0
0.17654270481542528 -0.17066749711674678 0.0 0.012002855869060247 0.0 0.0
0.1630129327675825 -0.1575227043804306 0.0 0.013808906836961565 0.0 0.0
0.146361790819934 -0.14121894988462635 0.0 0.01470201888860545 0.0 0.0
0.1282355731583322 -0.12344098029622819 0.0 0.01443816631409367 0.0 0.0
0.10982843632966013 -0.1053801051840364 0.0 0.013362076942919243 0.0 0.0
0.09199841500586192 -0.08788916122227475 0.0 0.011923508167006935 0.0 0.0
0.07529121784124115 -0.07151189028032467 0.0 0.010383140246388867 0.0 0.0
0.060008552712183416 -0.056551160471257855 0.0 0.008849723912798146 0.0 0.0
0.046304449863304176 -0.04316339721738949 0.0 0.007309711564797761 0.0 0.0
0.03428911406839846 -0.03146069254778938 0.0 0.005704589126464321 0.0 0.0
0.024107804747480144 -0.021583511885334694 0.0 0.004135023692822093 0.0 0.0
0.01591922792804784 -0.013682560400829047 0.0 0.002776097224579388 0.0 0.0
0.00979636338877854 -0.007837412766885432 0.0 0.0017491063603580215 0.0 0.0
0.0056365030872255195 -0.0039677562254278875 0.0 0.0010473082085509233 0.0 0.0
0.0031815847055294832 -0.001825345290825453 0.0 0.000651784885700557 0.0 0.0
0.002071239373802547 -0.000966302833580901 0.0 0.00048519359108256666 0.0 0.0
0.001576444887813 -0.0005581077448947314 0.0 0.00012738062024358898 0.0 0.0
0.0013524220767843764 -0.0008102241986426839 0.0 -0.00012794822623862778 0.0 0.0
0.00872308245604736 -0.010169738037339712 0.0 0.008941952609939907 0.0 0.0
0.006477781069783195 -0.00809330012932069 0.0 -0.00829990324546065 0.0 0.0
0.000793395670672152 -0.0005309339302925764 0.0 -0.0005837058683039742 0.0 0.0
0.0012624890347276013 -0.00040957372684613524 0.0 -0.00043879454214840186 0.0 0.0
0.0017902482853909135 -0.0007867476634280113 0.0 -0.0007292892698403941 0.0 0.0
0.0026689803272251927 -0.001429742770227893 0.0 -0.0009608471835670929 0.0 0.0
0.004691465498724651 -0.003131536618032227 0.0 -0.0014867296862531298 0.0 0.0
0.008323131542265834 -0.006445797332212733 0.0 -0.002500380660715007 0.0 0.0
0.013764354476732896 -0.011603599294292888 0.0 -0.004011827305125448 0.0 0.0
0.021072664372088774 -0.018628979844800053 0.0 -0.005965356811690414 0.0 0.0
0.030136219492776943 -0.02740599443271341 0.0 -0.008187710786274005 0.0 0.0
0.04078393701324036 -0.03776538274098762 0.0 -0.010458456000111083 0.0 0.0
0.05288644034346341 -0.049578589416479524 0.0 -0.012647814567465776 0.0 0.0
0.0663675916063005 -0.06276685629921852 0.0 -0.014805124113024759 0.0 0.0
0.081128807781976 -0.07722940280874946 0.0 -0.016987130482382817 0.0 0.0
0.09693932273884356 -0.0927358746209137 0.0 -0.019062287870372008 0.0 0.0
0.11336010169370589 -0.10884679935943309 0.0 -0.02064840950505875 0.0 0.0
0.1296721166316987 -0.12484075521142213 0.0 -0.021198476759627216 0.0 0.0
0.14477350049225834 -0.13960329811093386 0.0 -0.020235009537936333 0.0 0.0
0.15706506130500916 -0.15156395485282248 0.0 -0.017270957261010245 0.0 0.0
0.1647166138475986 -0.15897594884546118 0.0 -0.011387659601081679 0.0 0.0
0.16471661384758718 -0.15897594884545097 0.0 0.011387659601121092 0.0 0.0
0.15706506130497322 -0.15156395485279006 0.0 0.017270957261066422 0.0 0.0
0.14477350049220375 -0.13960329811087968 0.0 0.020235009537975968 0.0 0.0
0.12967211663163264 -0.12484075521135907 0.0 0.02119847675964659 0.0 0.0
0.11336010169362984 -0.10884679935936248 0.0 0.02064840950504998 0.0 0.0
0.09693932273876513 -0.09273587462084443 0.0 0.019062287870363126 0.0 0.0
0.08112880778189777 -0.07722940280867485 0.0 0.016987130482378987 0.0 0.0
0.06636759160622405 -0.06276685629914347 0.0 0.014805124113020152 0.0 0.0
0.05288644034338985 -0.04957858941640758 0.0 0.012647814567449234 0.0 0.0
0.04078393701317429 -0.037765382740921005 0.0 0.01045845600009343 0.0 0.0
0.03013621949272266 -0.02740599443265701 0.0 0.008187710786254798 0.0 0.0
0.021072664372045136 -0.018628979844758087 0.0 0.005965356811678479 0.0 0.0
0.013764354476701324 -0.01160359929425736 0.0 0.004011827305117177 0.0 0.0
0.008323131542244289 -0.006445797332190972 0.0 0.0025003806607085677 0.0 0.0
0.00469146549871341 -0.003131536618023789 0.0 0.0014867296862455803 0.0 0.0
0.0026689803272215706 -0.0014297427702261167 0.0 0.0009608471835614862 0.0 0.0
0.0017902482853898172 -0.0007867476634279003 0.0 0.0007292892698389508 0.0 0.0
0.001262489034727643 -0.0004095737268468014 0.0 0.00043879454214729163 0.0 0.0
0.0007933956706719925 -0.0005309339302914662 0.0 0.0005837058683008101 0.0 0.0
0.006477781069770261 -0.008093300129306532 0.0 0.008299903245436724 0.0 0.0
0.004901876329188287 -0.006526455661681196 0.0 -0.007059790870075633 0.0 0.0
0.0004967083532755323 -0.00039513860439965853 0.0 -0.0011833360532415016 0.0 0.0
0.000978383039639083 -0.0002994699493769071 0.0 -0.0008557846004979552 0.0 0.0
0.0015164999394955136 -0.0006300352674490917 0.0 -0.0010002551305465235 0.0 0.0
0.002216961462470482 -0.001112039489981953 0.0 -0.0012439875929716737 0.0 0.0
0.003821091199897972 -0.002393368906137061 0.0 -0.001800134299004441 0.0 0.0
0.006875434988101545 -0.005108097363755837 0.0 -0.0029959141216846508 0.0 0.0
0.011610790919444808 -0.009540016349256497 0.0 -0.004865689270092399 0.0 0.0
0.018010055487587898 -0.015662765535069845 0.0 -0.007249532975335038 0.0 0.0
0.02593822341927482 -0.02332106296526204 0.0 -0.00994285703377934 0.0 0.0
0.03521190118474464 -0.03232965318319181 0.0 -0.012686139838443744 0.0 0.0
0.04571125656330931 -0.04256597365442172 0.0 -0.01534797367664098 0.0 0.0
0.05738899362901405 -0.053980274975272025 0.0 -0.01798538564812241 0.0 0.0
0.07019210658867747 -0.06651580718405858 0.0 -0.020613776210214818 0.0 0.0
0.08396284342909896 -0.08001780359073152 0.0 -0.023112420899387864 0.0 0.0
0.09837785867777829 -0.09416015940863565 0.0 -0.02512762129376872 0.0 0.0
0.11285762332754345 -0.10835189854123639 0.0 -0.02603840959796494 0.0 0.0
0.12643983327139086 -0.12162830009022807 0.0 -0.025087846084840604 0.0 0.0
0.13773403356558495 -0.13262844101913274 0.0 -0.021246190847792445 0.0 0.0
0.1451743153741767 -0.13985258385378474 0.0 -0.01325879976590194 0.0 0.0
0.1451743153741658 -0.1398525838537723 0.0 0.013258799765951124 0.0 0.0
0.13773403356555328 -0.13262844101910032 0.0 0.021246190847857838 0.0 0.0
0.1264398332713424 -0.12162830009017656 0.0 0.025087846084887566 0.0 0.0
0.11285762332748647 -0.10835189854117777 0.0 0.026038409597985424 0.0 0.0
0.09837785867771218 -0.09416015940856992 0.0 0.02512762129376056 0.0 0.0
0.08396284342903021 -0.0800178035906578 0.0 0.023112420899377373 0.0 0.0
0.07019210658861019 -0.06651580718399197 0.0 0.02061377621020888 0.0 0.0
0.05738899362894748 -0.05398027497521074 0.0 0.01798538564811447 0.0 0.0
0.045711256563245956 -0.04256597365436532 0.0 0.01534797367662366 0.0 0.0
0.035211901184687755 -0.03232965318314385 0.0 0.012686139838422483 0.0 0.0
0.025938223419227274 -0.02332106296521541 0.0 0.009942857033758079 0.0 0.0
0.018010055487549803 -0.015662765535031653 0.0 0.007249532975322215 0.0 0.0
0.011610790919417358 -0.009540016349233627 0.0 0.0048656892700813525 0.0 0.0
0.0068754349880835175 -0.0051080973637389615 0.0 0.002995914121676102 0.0 0.0
0.0038210911998889374 -0.0023933689061295116 0.0 0.0018001342990007774 0.0 0.0
0.002216961462467859 -0.0011120394899790664 0.0 0.0012439875929685096 0.0 0.0
0.0015164999394949308 -0.0006300352674487586 0.0 0.0010002551305435259 0.0 0.0
0.0009783830396388749 -0.00029946994937635196 0.0 0.0008557846004961789 0.0 0.0
0.0004967083532754213 -0.00039513860439865933 0.0 0.0011833360532393922 0.0 0.0
0.004901876329176602 -0.006526455661668942 0.0 0.007059790870057148 0.0 0.0
0.0036998750403967606 -0.005249497465783626 0.0 -0.005786595938779948 0.0 0.0
0.00033148239749795916 -0.00032016600227524616 0.0 -0.0016503551002996497 0.0 0.0
0.0007411448369187695 -0.00022031564258229164 0.0 -0.0012761573418078598 0.0 0.0
0.0012493293060487354 -0.000495191883334023 0.0 -0.0013002720382860322 0.0 0.0
0.0018174498257921695 -0.0008603791808312611 0.0 -0.0015128407108305764 0.0 0.0
0.003041866582738084 -0.0017726803380864187 0.0 -0.002047885800627869 0.0 0.0
0.005495322488464391 -0.003865729837851939 0.0 -0.003257814927182745 0.0 0.0
0.009477298155503078 -0.007520406296973148 0.0 -0.0052973163989871175 0.0 0.0
0.014949767315071416 -0.012716433178424413 0.0 -0.007980253018186334 0.0 0.0
0.02172683760670613 -0.019239708133304223 0.0 -0.010965404617038876 0.0 0.0
0.029620460486045802 -0.02689002301621013 0.0 -0.014001306557982374 0.0 0.0
0.038514604908515715 -0.03554764941358535 0.0 -0.016949325411748872 0.0 0.0
0.0483865695383317 -0.04518508725607839 0.0 -0.019870349940309673 0.0 0.0
0.059227950482349745 -0.05579123642637196 0.0 -0.02279630456712506 0.0 0.0
0.07094635413640965 -0.06727451200817347 0.0 -0.02556599241473201 0.0 0.0
0.08331581277135731 -0.07940684053024993 0.0 -0.0278402508397243 0.0 0.0
0.09591197735743588 -0.09175538941805828 0.0 -0.029074759550670737 0.0 0.0
0.10800017293935671 -0.10357713942084423 0.0 -0.028322034455679934 0.0 0.0
0.11844632841015804 -0.11375878760421188 0.0 -0.024097877964906034 0.0 0.0
0.12586841692341597 -0.1209712070126101 0.0 -0.01483900427268936 0.0 0.0
0.12586841692340556 -0.12097120701260167 0.0 0.014839004272743317 0.0 0.0
0.11844632841013006 -0.11375878760418434 0.0 0.024097877964974757 0.0 0.0
0.10800017293931474 -0.10357713942080649 0.0 0.028322034455731226 0.0 0.0
0.09591197735738746 -0.09175538941800543 0.0 0.029074759550693607 0.0 0.0
0.08331581277130054 -0.07940684053019442 0.0 0.02784025083971642 0.0 0.0
0.07094635413635053 -0.06727451200811041 0.0 0.025565992414720684 0.0 0.0
0.05922795048229301 -0.0557912364263089 0.0 0.02279630456711501 0.0 0.0
0.048386569538275276 -0.045185087256018 0.0 0.01987034994029957 0.0 0.0
0.03851460490846231 -0.035547649413528504 0.0 0.016949325411729443 0.0 0.0
0.029620460485997757 -0.026890023016163056 0.0 0.014001306557956394 0.0 0.0
0.021726837606666133 -0.019239708133268696 0.0 0.010965404617012564 0.0 0.0
0.014949767315038887 -0.012716433178396214 0.0 0.00798025301816635 0.0 0.0
0.009477298155479985 -0.007520406296952942 0.0 0.005297316398975183 0.0 0.0
0.00549532248845036 -0.0038657298378386162 0.0 0.00325781492717625 0.0 0.0
0.0030418665827312563 -0.0017726803380817557 0.0 0.0020478858006229284 0.0 0.0
0.001817449825790296 -0.0008603791808317052 0.0 0.0015128407108279673 0.0 0.0
0.0012493293060481248 -0.0004951918833325797 0.0 0.0013002720382841448 0.0 0.0
0.0007411448369187834 -0.00022031564258173653 0.0 0.0012761573418048622 0.0 0.0
0.0003314823974979175 -0.000320166002274358 0.0 0.00165035510029643 0.0 0.0
0.003699875040387185 -0.005249497465773292 0.0 0.005786595938765959 0.0 0.0
0.0027522384435900576 -0.004180083850539362 0.0 -0.0046700755214768574 0.0 0.0
0.00023130473040815225 -0.000271312612401875 0.0 -0.0019985803774889566 0.0 0.0
0.0005426196806424533 -0.00016036270939423503 0.0 -0.0016464799749362213 0.0 0.0
0.0009867416351472397 -0.0003748197731883174 0.0 -0.0016025436135070348 0.0 0.0
0.001459722406388017 -0.0006583988620036951 0.0 -0.0017763259729193792 0.0 0.0
0.002349755758751154 -0.0012729006575431523 0.0 -0.002257480925863309 0.0 0.0
0.004225263850543948 -0.0027739319791184602 0.0 -0.0033943461534138297 0.0 0.0
0.007407342224696023 -0.0056044135107768955 0.0 -0.005382476162158256 0.0 0.0
0.011917590405499903 -0.009823358957457007 0.0 -0.008127508583336995 0.0 0.0
0.01753391116798983 -0.015197162228492545 0.0 -0.011242994548234908 0.0 0.0
0.024040646374885913 -0.021482449739125276 0.0 -0.014386453274537692 0.0 0.0
0.031330171872913135 -0.02856036314915622 0.0 -0.017441131314020142 0.0 0.0
0.03939731298701889 -0.03642220235723492 0.0 -0.020469156007527578 0.0 0.0
0.04827181279443976 -0.04509403888213548 0.0 -0.023487808097294505 0.0 0.0
0.05792706292950184 -0.05454596764853248 0.0 -0.02636578372644538 0.0 0.0
0.06821552892958124 -0.06463324695450945 0.0 -0.028788400520188717 0.0 0.0
0.07886000108165757 -0.07507521734726419 0.0 -0.030243333570652564 0.0 0.0
0.08941204596458582 -0.08540851611845213 0.0 -0.029826684325187758 0.0 0.0
0.099068779790432 -0.09482952656804988 0.0 -0.025806354897125017 0.0 0.0
0.10661094837864887 -0.10215667572835585 0.0 -0.016164453434244108 0.0 0.0
0.10661094837863941 -0.1021566757283483 0.0 0.016164453434298398 0.0 0.0
0.09906877979040804 -0.09482952656802857 0.0 0.025806354897195294 0.0 0.0
0.08941204596455099 -0.08540851611841926 0.0 0.02982668432524116 0.0 0.0
0.07886000108161681 -0.07507521734721934 0.0 0.03024333357067488 0.0 0.0
0.06821552892953381 -0.06463324695445838 0.0 0.028788400520179058 0.0 0.0
0.05792706292945246 -0.054545967648485405 0.0 0.02636578372643128 0.0 0.0
0.04827181279439388 -0.04509403888209329 0.0 0.023487808097281015 0.0 0.0
0.039397312986973104 -0.03642220235719629 0.0 0.020469156007516753 0.0 0.0
0.03133017187286996 -0.028560363149117585 0.0 0.0174411313140036 0.0 0.0
0.024040646374846375 -0.021482449739080867 0.0 0.014386453274516264 0.0 0.0
0.017533911167957356 -0.015197162228453909 0.0 0.011242994548212315 0.0 0.0
0.011917590405473216 -0.009823358957426143 0.0 0.008127508583320064 0.0 0.0
0.0074073422246775655 -0.005604413510759354 0.0 0.005382476162143712 0.0 0.0
0.004225263850533401 -0.0027739319791111328 0.0 0.0033943461534055586 0.0 0.0
0.0023497557587463525 -0.001272900657541376 0.0 0.0022574809258582573 0.0 0.0
0.0014597224063869763 -0.0006583988620041392 0.0 0.0017763259729179914 0.0 0.0
0.0009867416351468927 -0.00037481977318720716 0.0 0.0016025436135062576 0.0 0.0
0.0005426196806420924 -0.00016036270939434605 0.0 0.001646479974934556 0.0 0.0
0.00023130473040816613 -0.0002713126124015419 0.0 0.0019985803774865696 0.0 0.0
0.0027522384435826053 -0.004180083850530657 0.0 0.004670075521465311 0.0 0.0
0.001999860911002488 -0.003276901757389983 0.0 -0.003744970669002312 0.0 0.0
0.00016153185522024827 -0.0002358919204087373 0.0 -0.0022430492890673226 0.0 0.0
0.0003691482673525148 -0.00010950309094659438 0.0 -0.0019449787033904986 0.0 0.0
0.0007279744750859629 -0.0002601666077808318 0.0 -0.001881283292280267 0.0 0.0
0.0011244876678156157 -0.0004880293299103222 0.0 -0.0020373508684403685 0.0 0.0
0.0017444809290744767 -0.0008790095036905754 0.0 -0.0024293487685798643 0.0 0.0
0.0030747287914053983 -0.0018527376126284967 0.0 -0.003403710924289649 0.0 0.0
0.005460540530577526 -0.003860795735921574 0.0 -0.005196344161159772 0.0 0.0
0.008959885649626798 -0.0070490301646422004 0.0 -0.007739545831310979 0.0 0.0
0.0133893862287367 -0.011233676308434859 0.0 -0.010740776064319946 0.0 0.0
0.018502727187339058 -0.016144782556927417 0.0 -0.013827036194134001 0.0 0.0
0.02419122990461285 -0.021644815330104983 0.0 -0.01680933966255227 0.0 0.0
0.030458174081703537 -0.02773538354571148 0.0 -0.019748650380509436 0.0 0.0
0.03736420448872013 -0.034471733803168814 0.0 -0.022687917852802553 0.0 0.0
0.04494001738746824 -0.04187890921418447 0.0 -0.02550363856593496 0.0 0.0
0.05312022158223628 -0.049887555623385094 0.0 -0.027890181554331206 0.0 0.0
0.06174004326217711 -0.05835032626662651 0.0 -0.02946046895507115 0.0 0.0
0.0706403845464896 -0.06709193115958234 0.0 -0.029513722345869797 0.0 0.0
0.07945265474208474 -0.07570587836668174 0.0 -0.026280010768086615 0.0 0.0
0.08720107180498746 -0.08322381045003358 0.0 -0.017219831861405632 0.0 0.0
0.08720107180498085 -0.0832238104500278 0.0 0.017219831861455703 0.0 0.0
0.079452654742065 -0.0757058783666662 0.0 0.026280010768156115 0.0 0.0
0.07064038454646215 -0.06709193115956591 0.0 0.029513722345923754 0.0 0.0
0.06174004326214372 -0.05835032626660208 0.0 0.029460468955094132 0.0 0.0
0.05312022158219837 -0.04988755562335179 0.0 0.027890181554322213 0.0 0.0
0.04494001738742903 -0.041878909214146276 0.0 0.025503638565921638 0.0 0.0
0.03736420448868499 -0.03447173380313684 0.0 0.02268791785279234 0.0 0.0
0.030458174081669315 -0.02773538354567595 0.0 0.01974865038050111 0.0 0.0
0.024191229904579975 -0.02164481533007212 0.0 0.01680933966253617 0.0 0.0
0.018502727187308554 -0.016144782556905657 0.0 0.01382703619411263 0.0 0.0
0.01338938622871122 -0.011233676308416207 0.0 0.010740776064295021 0.0 0.0
0.008959885649606647 -0.007049030164625103 0.0 0.0077395458312941035 0.0 0.0
0.00546054053056369 -0.0038607957359089173 0.0 0.005196344161148503 0.0 0.0
0.0030747287913981125 -0.0018527376126229456 0.0 0.00340371092428432 0.0 0.0
0.0017444809290715346 -0.0008790095036899093 0.0 0.0024293487685747572 0.0 0.0
0.001124487667814561 -0.00048802932991054426 0.0 0.002037350868438481 0.0 0.0
0.0007279744750856021 -0.00026016660777916645 0.0 0.001881283292278324 0.0 0.0
0.00036914826735207074 -0.00010950309094448496 0.0 0.0019449787033866683 0.0 0.0
0.000161531855220165 -0.00023589192040746054 0.0 0.002243049289064547 0.0 0.0
0.0019998609109969923 -0.0032769017573833596 0.0 0.0037449706689935414 0.0 0.0
0.001413691688263552 -0.0025296744065849697 0.0 -0.003015488059981475 0.0 0.0
9.837101503010204e-05 -0.00020603544068409363 0.0 -0.0023871448658329686 0.0 0.0
0.0002092166390656458 -5.977714758775843e-05 0.0 -0.002171114859794099 0.0 0.0
0.0004744110784854483 -0.00014732474316692112 0.0 -0.002113856015008686 0.0 0.0
0.0007912991076380049 -0.0003300426177819116 0.0 -0.0022766595751607666 0.0 0.0
0.0012132526759672801 -0.0005774349892031516 0.0 -0.002615880566794848 0.0 0.0
0.0020559420664707784 -0.001122499393147125 0.0 -0.0033545534499221374 0.0 0.0
0.0036701122893259275 -0.002350522186412185 0.0 -0.004785476168743641 0.0 0.0
0.006142339555393894 -0.004483644263945319 0.0 -0.006912579226070914 0.0 0.0
0.009339804472493524 -0.0074241144719513485 0.0 -0.00950821606443808 0.0 0.0
0.013041430933138948 -0.010930510627509715 0.0 -0.012277434672381737 0.0 0.0
0.017129133676560326 -0.01485124498367707 0.0 -0.015002417957762026 0.0 0.0
0.021605192241819338 -0.01917759811538078 0.0 -0.017686905352889082 0.0 0.0
0.02654261434567487 -0.023978337379941816 0.0 -0.020352369489245015 0.0 0.0
0.03202338297618887 -0.029326451937866427 0.0 -0.022936394446163244 0.0 0.0
0.03806918478341928 -0.03523397066708789 0.0 -0.02516794219810936 0.0 0.0
0.044612388969600236 -0.04164678836377789 0.0 -0.02665098090209639 0.0 0.0
0.051679091928512055 -0.04862304689511099 0.0 -0.02710234982141857 0.0 0.0
0.0594351889284509 -0.05625116472093694 0.0 -0.02523826468144541 0.0 0.0
0.06739825358076978 -0.06396458215467948 0.0 -0.017930988472307563 0.0 0.0
0.0673982535807662 -0.06396458215467371 0.0 0.01793098847235164 0.0 0.0
0.05943518892843597 -0.05625116472091607 0.0 0.025238264681509692 0.0 0.0
0.05167909192849174 -0.04862304689508834 0.0 0.027102349821466754 0.0 0.0
0.044612388969574535 -0.0416467883637468 0.0 0.02665098090211282 0.0 0.0
0.03806918478339141 -0.03523397066706346 0.0 0.025167942198096926 0.0 0.0
0.03202338297616075 -0.029326451937842002 0.0 0.022936394446148478 0.0 0.0
0.026542614345650584 -0.023978337379917836 0.0 0.020352369489235023 0.0 0.0
0.021605192241796328 -0.01917759811536124 0.0 0.017686905352880755 0.0 0.0
0.017129133676537595 -0.014851244983660639 0.0 0.015002417957744485 0.0 0.0
0.013041430933117382 -0.010930510627492396 0.0 0.012277434672360976 0.0 0.0
0.009339804472475316 -0.007424114471934917 0.0 0.009508216064414321 0.0 0.0
0.00614233955538071 -0.004483644263932218 0.0 0.006912579226057536 0.0 0.0
0.0036701122893167404 -0.002350522186402859 0.0 0.004785476168733704 0.0 0.0
0.0020559420664659767 -0.001122499393142018 0.0 0.0033545534499162533 0.0 0.0
0.0012132526759657258 -0.0005774349892033737 0.0 0.0026158805667904628 0.0 0.0
0.0007912991076370057 -0.0003300426177814675 0.0 0.0022766595751599894 0.0 0.0
0.0004744110784851152 -0.00014732474316692112 0.0 0.0021138560150063546 0.0 0.0
0.00020921663906550703 -5.977714758842456e-05 0.0 0.0021711148597917673 0.0 0.0
9.837101502988e-05 -0.0002060354406844822 0.0 0.002387144865830748 0.0 0.0
0.001413691688259694 -0.002529674406580326 0.0 0.0030154880599754796 0.0 0.0
0.0009797682538467967 -0.0019423723233562562 0.0 -0.002479843154316985 0.0 0.0
2.6655366569761085e-05 -0.00017970166707248492 0.0 -0.0024590989739263214 0.0 0.0
5.5591412719241395e-05 -5.0566472468149826e-06 0.0 -0.0023284328912133723 0.0 0.0
0.00022775764889715333 -3.7501671466211306e-05 0.0 -0.0022913996685717253 0.0 0.0
0.00045028763067719857 -0.0001690433828633875 0.0 -0.002463250492173774 0.0 0.0
0.0007182856348683098 -0.00032912854935429614 0.0 -0.002809616238145296 0.0 0.0
0.0011751557108490018 -0.0005839987519529188 0.0 -0.0033370303009140345 0.0 0.0
0.002064585493425364 -0.0011476494520221703 0.0 -0.004265214869401568 0.0 0.0
0.00352089007574366 -0.0022470809088361854 0.0 -0.0057388046172218155 0.0 0.0
0.005451321809750387 -0.0038999184338561754 0.0 -0.007648000211554207 0.0 0.0
0.00770734502210621 -0.005952090165108892 0.0 -0.009808685952552909 0.0 0.0
0.010175960310444737 -0.008268781056674612 0.0 -0.01203932376425132 0.0 0.0
0.012866130901894646 -0.010830867701749014 0.0 -0.014306186057679637 0.0 0.0
0.01584279955182527 -0.013700431897944565 0.0 -0.016559253074966307 0.0 0.0
0.019208399176846636 -0.016971420268443005 0.0 -0.01876643698059932 0.0 0.0
0.023078681389964772 -0.020744564147173072 0.0 -0.020774685575018048 0.0 0.0
0.02752436584089732 -0.025077120819783083 0.0 -0.022179906764302038 0.0 0.0
0.032632803370525126 -0.03011077398078399 0.0 -0.02270573029600298 0.0 0.0
0.038890145486650984 -0.03637539586093652 0.0 -0.02223295936013192 0.0 0.0
0.04686307102251905 -0.04410898385472217 0.0 -0.018037789484468547 0.0 0.0
0.04686307102251755 -0.0441089838547164 0.0 0.018037789484507516 0.0 0.0
0.03889014548664191 -0.03637539586093297 0.0 0.022232959360187765 0.0 0.0
0.03263280337051136 -0.030110773980772 0.0 0.02270573029604217 0.0 0.0
0.027524365840879916 -0.025077120819771537 0.0 0.022179906764311585 0.0 0.0
0.023078681389947814 -0.02074456414716508 0.0 0.02077468557499873 0.0 0.0
0.01920839917683062 -0.01697142026842835 0.0 0.018766436980586 0.0 0.0
0.015842799551812198 -0.013700431897925025 0.0 0.0165592530749602 0.0 0.0
0.012866130901882267 -0.010830867701737024 0.0 0.014306186057674086 0.0 0.0
0.010175960310432164 -0.008268781056663954 0.0 0.01203932376423833 0.0 0.0
0.007707345022093859 -0.005952090165095569 0.0 0.0098086859525367 0.0 0.0
0.005451321809739951 -0.003899918433848182 0.0 0.0076480002115334456 0.0 0.0
0.0035208900757368045 -0.0022470809088315224 0.0 0.005738804617210658 0.0 0.0
0.0020645854934206176 -0.001147649452016175 0.0 0.004265214869393186 0.0 0.0
0.0011751557108466426 -0.0005839987519491441 0.0 0.003337030300909427 0.0 0.0
0.0007182856348675881 -0.00032912854935185365 0.0 0.002809616238141077 0.0 0.0
0.0004502876306765047 -0.00016904338286205522 0.0 0.002463250492171498 0.0 0.0
0.00022775764889690353 -3.7501671465212105e-05 0.0 0.0022913996685692273 0.0 0.0
5.559141271932466e-05 -5.056647245815782e-06 0.0 0.00232843289121043 0.0 0.0
2.665536656942802e-05 -0.00017970166707165225 0.0 0.002459098973924878 0.0 0.0
0.0009797682538443264 -0.0019423723233526168 0.0 0.0024798431543134325 0.0 0.0
0.0006718549675845953 -0.0014963084043530528 0.0 -0.0021032720604528543 0.0 0.0
-5.3133279895700714e-05 -0.00015833557980948765 0.0 -0.0024911557857119626 0.0 0.0
-9.508085575071767e-05 5.603764871342509e-05 0.0 -0.002426888305616881 0.0 0.0
-1.2071438641236831e-05 6.907430961233807e-05 0.0 -0.002411568531792363 0.0 0.0
0.00010554959634839767 -4.717040205770573e-06 0.0 -0.002575980598576777 0.0 0.0
0.00022439280088223934 -9.009452361197212e-05 0.0 -0.00294514823101788 0.0 0.0
0.0003797093862598355 -0.00018061216306497485 0.0 -0.0034419224869733367 0.0 0.0
0.0006548370928126379 -0.0003208825431924023 0.0 -0.003982181206339808 0.0 0.0
0.0011328079206826824 -0.0005795509710897484 0.0 -0.004682656389715656 0.0 0.0
0.0017780762337798184 -0.0009916075642961708 0.0 -0.005710807685125663 0.0 0.0
0.0025385832295672095 -0.0015423927021234185 0.0 -0.007106680095669504 0.0 0.0
0.0033562885043587898 -0.0022076966550339527 0.0 -0.008751935877372774 0.0 0.0
0.004242421002995045 -0.0029821196753991863 0.0 -0.01057681839536917 0.0 0.0
0.005244328995424402 -0.0039020329255761155 0.0 -0.01254840055696671 0.0 0.0
0.006472125744640511 -0.005063692910908468 0.0 -0.01463729895069077 0.0 0.0
0.008120780019715917 -0.006642809915171188 0.0 -0.01669379833779927 0.0 0.0
0.010448043692870057 -0.008871193336520644 0.0 -0.018297771572805654 0.0 0.0
0.013661546705101363 -0.011944275050000286 0.0 -0.01880664547851907 0.0 0.0
0.01807614570118396 -0.016365369146588815 0.0 -0.018429273942594415 0.0 0.0
0.02518276593622437 -0.023498685347421056 0.0 -0.017501160905515678 0.0 0.0
0.025182765936225038 -0.0234986853474215 0.0 0.017501160905546764 0.0 0.0
0.018076145701179824 -0.016365369146586595 0.0 0.0184292739426406 0.0 0.0
0.013661546705094868 -0.011944275049986963 0.0 0.018806645478545936 0.0 0.0
0.010448043692862397 -0.008871193336509986 0.0 0.018297771572808874 0.0 0.0
0.008120780019711699 -0.00664280991516808 0.0 0.016693798337784393 0.0 0.0
0.00647212574463657 -0.005063692910901807 0.0 0.014637298950682442 0.0 0.0
0.005244328995422182 -0.0039020329255707864 0.0 0.012548400556960493 0.0 0.0
0.004242421002993685 -0.0029821196753956336 0.0 0.010576818395362175 0.0 0.0
0.003356288504356708 -0.002207696655029512 0.0 0.008751935877360895 0.0 0.0
0.0025385832295648503 -0.0015423927021269712 0.0 0.007106680095658513 0.0 0.0
0.0017780762337775702 -0.0009916075643006117 0.0 0.005710807685115116 0.0 0.0
0.0011328079206816277 -0.0005795509710908586 0.0 0.0046826563897113815 0.0 0.0
0.0006548370928115832 -0.0003208825431968432 0.0 0.003982181206335922 0.0 0.0
0.00037970938625930817 -0.0001806121630716362 0.0 0.0034419224869698395 0.0 0.0
0.00022439280088240587 -9.009452361596892e-05 0.0 0.0029451482310146604 0.0 0.0
0.0001055495963480646 -4.717040206880796e-06 0.0 0.002575980598574279 0.0 0.0
-1.2071438641347854e-05 6.907430961156091e-05 0.0 0.0024115685317913638 0.0 0.0
-9.508085575060665e-05 5.6037648713536115e-05 0.0 0.002426888305613828 0.0 0.0
-5.3133279895700714e-05 -0.00015833557980998725 0.0 0.002491155785709964 0.0 0.0
0.000671854967583152 -0.001496308404351285 0.0 0.0021032720604502453 0.0 0.0
0.00045683512685307237 -0.0011735241235986682 0.0 -0.0018659246363690318 0.0 0.0
-0.00013134530681954693 -0.0001347141471925717 0.0 -0.002491556518330884 0.0 0.0
-0.0002424310373067562 0.00011855196993615369 0.0 -0.002472231459099916 0.0 0.0
-0.00024530434451633387 0.0001727350534010963 0.0 -0.002466800866084473 0.0 0.0
-0.0002359126407089629 0.00015842757709672028 0.0 -0.002613198887105428 0.0 0.0
-0.000274334300325918 0.00015114317846598446 0.0 -0.002962936560869489 0.0 0.0
-0.00039686067616295784 0.0001966870372172025 0.0 -0.0034501038685743057 0.0 0.0
-0.0006597497202985025 0.00032478232021926345 0.0 -0.003987649452318498 0.0 0.0
-0.0011324298487353224 0.0005800555521111583 0.0 -0.0046850526194816 0.0 0.0
-0.0017767672444095883 0.0009914872906717775 0.0 -0.005709430941233107 0.0 0.0
-0.0025449636822517663 0.0015519182730994174 0.0 -0.0071074281200114164 0.0 0.0
-0.0033946912849284194 0.0022463326496935387 0.0 -0.008760552338926586 0.0 0.0
-0.004327561158072757 0.0030558372392643918 0.0 -0.010586757535403168 0.0 0.0
-0.005315794098146448 0.003937417473693472 0.0 -0.012554097419944843 0.0 0.0
-0.00623814879814566 0.004768220667228817 0.0 -0.014655245918054671 0.0 0.0
-0.0068439431709180765 0.005306534640969751 0.0 -0.016842825926328908 0.0 0.0
-0.006737209751961515 0.005186611279337949 0.0 -0.019084065635231018 0.0 0.0
-0.00554521155400553 0.004160086779680938 0.0 -0.021438888230689068 0.0 0.0
-0.0029562243102536634 0.0020683565164514306 0.0 -0.023578386883866598 0.0 0.0
0.0034612983162201905 -0.003971244413322417 0.0 -0.02233488598365141 0.0 0.0
0.0034612983162203848 -0.003971244413324637 0.0 0.022334885983670394 0.0 0.0
-0.0029562243102546626 0.0020683565164505424 0.0 0.023578386883885027 0.0 0.0
-0.005545211554002255 0.004160086779675165 0.0 0.02143888823069484 0.0 0.0
-0.006737209751956186 0.005186611279328179 0.0 0.019084065635221914 0.0 0.0
-0.0068439431709092224 0.005306534640962202 0.0 0.016842825926313365 0.0 0.0
-0.006238148798138138 0.004768220667221712 0.0 0.014655245918042237 0.0 0.0
-0.00531579409813801 0.003937417473683702 0.0 0.012554097419935073 0.0 0.0
-0.004327561158063681 0.003055837239255954 0.0 0.010586757535393398 0.0 0.0
-0.003394691284919066 0.0022463326496873215 0.0 0.008760552338911487 0.0 0.0
-0.0025449636822434674 0.0015519182730949765 0.0 0.007107428119997761 0.0 0.0
-0.0017767672444032045 0.0009914872906704453 0.0 0.005709430941222227 0.0 0.0
-0.001132429848731159 0.0005800555521091599 0.0 0.004685052619478325 0.0 0.0
-0.0006597497202963376 0.0003247823202190414 0.0 0.003987649452315722 0.0 0.0
-0.0003968606761618476 0.0001966870372207552 0.0 0.0034501038685710306 0.0 0.0
-0.00027433430032514083 0.00015114317846887104 0.0 0.002962936560866214 0.0 0.0
-0.00023591264070868534 0.0001584275770978305 0.0 0.0026131988871022638 0.0 0.0
-0.0002453043445160563 0.00017273505340176243 0.0 0.0024668008660831964 0.0 0.0
-0.00024243103730664517 0.00011855196993726391 0.0 0.002472231459098695 0.0 0.0
-0.00013134530681965795 -0.00013471414719279373 0.0 0.002491556518330884 0.0 0.0
0.00045683512685232297 -0.0011735241235979552 0.0 0.0018659246363679771 0.0 0.0
0.00030936828204602973 -0.0009283761300630244 0.0 -0.001686425231879174 0.0 0.0
-0.0002020512675655617 -0.00010361695161320572 0.0 -0.0024449192893268856 0.0 0.0
-0.00038378206788655667 0.00017806263861719351 0.0 -0.002465226085715644 0.0 0.0
-0.00047084193207516667 0.0002724019061590699 0.0 -0.0024532440290322977 0.0 0.0
-0.0005702874451044282 0.0003163385820406095 0.0 -0.002568962428072863 0.0 0.0
-0.0007663083584730224 0.0003892759460553119 0.0 -0.0028644656439802962 0.0 0.0
-0.001191679177671462 0.0006012567461544105 0.0 -0.0033656340489742753 0.0 0.0
-0.0020678070357268707 0.0011520210518285445 0.0 -0.004280822565659814 0.0 0.0
-0.003518841917277915 0.0022463627773556816 0.0 -0.005741939105631144 0.0 0.0
-0.005450195290916698 0.0039006535908630013 0.0 -0.007647344235980347 0.0 0.0
-0.007716420836025278 0.005965112333601308 0.0 -0.009808618054360285 0.0 0.0
-0.010213168848011461 0.008310317609312001 0.0 -0.012027535105760379 0.0 0.0
-0.012943519811088738 0.01090448824198953 0.0 -0.014261778801173963 0.0 0.0
-0.015900507853182394 0.013728147304667537 0.0 -0.01650312808950627 0.0 0.0
-0.018966443780669 0.01665569048415394 0.0 -0.018834826549993133 0.0 0.0
-0.02184483031050863 0.019397379607181797 0.0 -0.021332780208665247 0.0 0.0
-0.02406599117045638 0.021506886793317026 0.0 -0.02408028517354399 0.0 0.0
-0.025074850974485224 0.02244777089206984 0.0 -0.02698666249389703 0.0 0.0
-0.023850311338408287 0.02095453298591954 0.0 -0.028293953274631578 0.0 0.0
-0.017313145737458152 0.014133722315804675 0.0 -0.026062228485138172 0.0 0.0
-0.01731314573745918 0.014133722315797126 0.0 0.026062228485173033 0.0 0.0
-0.02385031133840576 0.020954532985907548 0.0 0.028293953274677763 0.0 0.0
-0.025074850974472512 0.022447770892061403 0.0 0.026986662493926117 0.0 0.0
-0.024065991170438034 0.021506886793296598 0.0 0.02408028517354499 0.0 0.0
-0.021844830310487895 0.019397379607155596 0.0 0.021332780208652924 0.0 0.0
-0.018966443780649406 0.016655690484131735 0.0 0.018834826549978367 0.0 0.0
-0.015900507853163548 0.013728147304649774 0.0 0.0165031280894955 0.0 0.0
-0.01294351981106881 0.010904488241969101 0.0 0.014261778801164193 0.0 0.0
-0.0102131688479917 0.008310317609296902 0.0 0.012027535105744391 0.0 0.0
-0.007716420836006543 0.005965112333587097 0.0 0.009808618054337526 0.0 0.0
-0.005450195290901488 0.0039006535908483464 0.0 0.007647344235959919 0.0 0.0
-0.003518841917268034 0.0022463627773445793 0.0 0.005741939105622096 0.0 0.0
-0.00206780703572107 0.0011520210518252139 0.0 0.004280822565654652 0.0 0.0
-0.0011916791776682423 0.0006012567461533003 0.0 0.003365634048969557 0.0 0.0
-0.0007663083584713293 0.0003892759460553119 0.0 0.0028644656439772986 0.0 0.0
-0.0005702874451037065 0.0003163385820406095 0.0 0.0025689624280700873 0.0 0.0
-0.00047084193207450054 0.00027240190615729354 0.0 0.002453244029031132 0.0 0.0
-0.00038378206788639013 0.00017806263861652738 0.0 0.0024652260857132013 0.0 0.0
-0.00020205126756553393 -0.0001036169516135943 0.0 0.002444919289323444 0.0 0.0
0.00030936828204569666 -0.0009283761300621276 0.0 0.0016864252318771755 0.0 0.0
0.00020306837954423007 -0.0007161682832237948 0.0 -0.0014971382428525248 0.0 0.0
-0.00026519379786357766 -6.656037506891366e-05 0.0 -0.0023444833516493846 0.0 0.0
-0.0005168674796360018 0.00023349363006763824 0.0 -0.0024005216121404938 0.0 0.0
-0.0006874614139559809 0.00036624360725778793 0.0 -0.0023729435310040348 0.0 0.0
-0.0008933564413586559 0.0004650519106517148 0.0 -0.002442667841058177 0.0 0.0
-0.0012579979429299948 0.0006375202302644212 0.0 -0.0027071513256482493 0.0 0.0
-0.0020696648276986584 0.0011413356473084502 0.0 -0.0033991768377714116 0.0 0.0
-0.0036687395182974647 0.0023519654797423684 0.0 -0.004800830966358249 0.0 0.0
-0.006138806539597308 0.004481046134753974 0.0 -0.006910809832205933 0.0 0.0
-0.009340717765400824 0.007426356922961119 0.0 -0.009507839562007736 0.0 0.0
-0.01305177992510359 0.010943824875831787 0.0 -0.012274385646129038 0.0 0.0
-0.017157734103062566 0.014883910189356975 0.0 -0.0149633814667266 0.0 0.0
-0.02165829415329093 0.019229292466016012 0.0 -0.017558707622717273 0.0 0.0
-0.02657096437745063 0.023983584466190866 0.0 -0.020159783348942417 0.0 0.0
-0.0317926366274143 0.029033453281316568 0.0 -0.022986850370940726 0.0 0.0
-0.03699086593839254 0.03405423834371968 0.0 -0.026328580070560603 0.0 0.0
-0.041583271332811256 0.03847830186608725 0.0 -0.03035227511409022 0.0 0.0
-0.044625432086844524 0.04130501192136293 0.0 -0.03430729324146031 0.0 0.0
-0.044289096216163754 0.040691325347196994 0.0 -0.03629037787231437 0.0 0.0
-0.03691399205366566 0.03262372738945718 0.0 -0.03246448150336967 0.0 0.0
-0.03691399205366491 0.03262372738946118 0.0 0.03246448150341641 0.0 0.0
-0.044289096216156926 0.040691325347191665 0.0 0.03629037787237244 0.0 0.0
-0.044625432086824485 0.041305011921350054 0.0 0.03430729324149706 0.0 0.0
-0.041583271332782695 0.038478301866065934 0.0 0.030352275114093663 0.0 0.0
-0.036990865938360984 0.03405423834369037 0.0 0.026328580070544394 0.0 0.0
-0.03179263662738252 0.029033453281287702 0.0 0.022986850370924294 0.0 0.0
-0.026570964377421263 0.023983584466163776 0.0 0.020159783348924876 0.0 0.0
-0.021658294153259955 0.01922929246598848 0.0 0.017558707622703174 0.0 0.0
-0.017157734103032854 0.014883910189322336 0.0 0.014963381466707448 0.0 0.0
-0.013051779925075363 0.010943824875798924 0.0 0.012274385646102004 0.0 0.0
-0.009340717765376816 0.007426356922933586 0.0 0.009507839561982367 0.0 0.0
-0.006138806539581071 0.004481046134737099 0.0 0.006910809832191223 0.0 0.0
-0.0036687395182874727 0.0023519654797343748 0.0 0.0048008309663491455 0.0 0.0
-0.0020696648276928575 0.001141335647307562 0.0 0.0033991768377642506 0.0 0.0
-0.0012579979429271498 0.0006375202302617566 0.0 0.00270715132564453 0.0 0.0
-0.0008933564413576983 0.0004650519106492723 0.0 0.002442667841055568 0.0 0.0
-0.0006874614139553009 0.00036624360725689975 0.0 0.0023729435310029245 0.0 0.0
-0.0005168674796356965 0.00023349363006730517 0.0 0.002400521612138773 0.0 0.0
-0.0002651937978633695 -6.656037506835855e-05 0.0 0.002344483351648552 0.0 0.0
0.0002030683795439664 -0.000716168283223087 0.0 0.001497138242850915 0.0 0.0
0.00011647876065426499 -0.000527144498015053 0.0 -0.001299573651829089 0.0 0.0
-0.00032298715464088024 -2.3459486376942174e-05 0.0 -0.002188589302249244 0.0 0.0
-0.0006413825371903992 0.0002849745149143823 0.0 -0.0022818181674232885 0.0 0.0
-0.000894202384872339 0.00045236846716334433 0.0 -0.0022331875773605736 0.0 0.0
-0.0012032029280641121 0.0006072829841012872 0.0 -0.002252046310731115 0.0 0.0
-0.0017838336476364292 0.0009377229771780904 0.0 -0.0025477380038788633 0.0 0.0
-0.0030805491009547603 0.0018676193427209498 0.0 -0.0034502928474955397 0.0 0.0
-0.005454511850715826 0.0038566441071024027 0.0 -0.0052003426079820225 0.0 0.0
-0.008957028837850572 0.007046357589242103 0.0 -0.007734649953893502 0.0 0.0
-0.013393213555771333 0.011238317812629628 0.0 -0.010741514324804968 0.0 0.0
-0.018512360227423613 0.01615603901140794 0.0 -0.013820970177927827 0.0 0.0
-0.0242031278369719 0.021659162150074796 0.0 -0.016746836280957966 0.0 0.0
-0.030466565414639185 0.02774445191740904 0.0 -0.019545199807182723 0.0 0.0
-0.03734052589627701 0.03443647751002077 0.0 -0.022356627585962574 0.0 0.0
-0.04474676224051938 0.04164569817303354 0.0 -0.02549374805021354 0.0 0.0
-0.05233353608373201 0.049013647712000896 0.0 -0.02941402305554275 0.0 0.0
-0.059301741451480205 0.055733523462639045 0.0 -0.03424719840542845 0.0 0.0
-0.06416877234762017 0.060308170564665975 0.0 -0.03906213932232072 0.0 0.0
-0.0643736834780041 0.06008709695811243 0.0 -0.04131856804853973 0.0 0.0
-0.055259504892387595 0.05031262636593192 0.0 -0.03770102519914664 0.0 0.0
-0.05525950489238435 0.05031262636593148 0.0 0.03770102519919327 0.0 0.0
-0.06437368347799188 0.06008709695810266 0.0 0.04131856804860379 0.0 0.0
-0.0641687723475935 0.06030817056464066 0.0 0.03906213932236646 0.0 0.0
-0.05930174145144368 0.055733523462600854 0.0 0.03424719840543755 0.0 0.0
-0.052333536083690166 0.04901364771195604 0.0 0.029414023055531036 0.0 0.0
-0.044746762240476606 0.04164569817299135 0.0 0.025493748050198606 0.0 0.0
-0.037340525896236584 0.03443647750998213 0.0 0.022356627585943367 0.0 0.0
-0.030466565414597607 0.02774445191736863 0.0 0.019545199807167568 0.0 0.0
-0.024203127836931612 0.021659162150037492 0.0 0.01674683628093765 0.0 0.0
-0.01851236022738674 0.016156039011373746 0.0 0.013820970177900738 0.0 0.0
-0.013393213555739442 0.011238317812599874 0.0 0.010741514324778656 0.0 0.0
-0.008957028837827632 0.007046357589218344 0.0 0.007734649953875017 0.0 0.0
-0.005454511850700991 0.003856644107088636 0.0 0.005200342607971142 0.0 0.0
-0.0030805491009458646 0.0018676193427158427 0.0 0.0034502928474876016 0.0 0.0
-0.001783833647632238 0.0009377229771747597 0.0 0.0025477380038738673 0.0 0.0
-0.0012032029280626688 0.0006072829840988447 0.0 0.0022520463107292277 0.0 0.0
-0.0008942023848718811 0.0004523684671642325 0.0 0.0022331875773590193 0.0 0.0
-0.0006413825371899551 0.0002849745149152705 0.0 0.002281818167422456 0.0 0.0
-0.000322987154640339 -2.3459486377497285e-05 0.0 0.002188589302248245 0.0 0.0
0.00011647876065391805 -0.0005271444980145517 0.0 0.0012995736518279788 0.0 0.0
4.178728419065858e-05 -0.00036041308245898795 0.0 -0.001096813912680239 0.0 0.0
-0.00037839281971008276 2.488517161058912e-05 0.0 -0.0019799100847904816 0.0 0.0
-0.000757964981295961 0.0003332826597182148 0.0 -0.002106011897223481 0.0 0.0
-0.0010890660913000783 0.0005291260686801635 0.0 -0.002028334083061689 0.0 0.0
-0.0015101275528654201 0.0007551030405419379 0.0 -0.0020169138542005527 0.0 0.0
-0.002377587392111802 0.0013209646456546764 0.0 -0.0023721811831586836 0.0 0.0
-0.004222527816178823 0.0027798544124877367 0.0 -0.0034236354883004916 0.0 0.0
-0.007399793599101118 0.005597088002519568 0.0 -0.00537847242349021 0.0 0.0
-0.011917165806731966 0.009822686561419935 0.0 -0.008121331954113797 0.0 0.0
-0.017540349962057333 0.015203860458024021 0.0 -0.011243323773345804 0.0 0.0
-0.0240471986613279 0.021489129952573016 0.0 -0.01437478022586025 0.0 0.0
-0.031319206983435294 0.028549729385181077 0.0 -0.017362047049993223 0.0 0.0
-0.03934641861490415 0.03637401737351764 0.0 -0.0202246160908357 0.0 0.0
-0.048176779358761995 0.04500216983801586 0.0 -0.023074052405833156 0.0 0.0
-0.0577746994218471 0.054378052449933545 0.0 -0.026248444141092286 0.0 0.0
-0.06775371323075693 0.06409214707492783 0.0 -0.030253490951543616 0.0 0.0
-0.0770475843328079 0.07306532410364586 0.0 -0.035297108899493224 0.0 0.0
-0.08360209744310407 0.07922414873561534 0.0 -0.04049669435955261 0.0 0.0
-0.08401764178143312 0.07914474135852334 0.0 -0.04351958306629067 0.0 0.0
-0.07314206848992935 0.06768239706579804 0.0 -0.042322903895898545 0.0 0.0
-0.07314206848992405 0.06768239706579537 0.0 0.04232290389594828 0.0 0.0
-0.08401764178141413 0.07914474135850202 0.0 0.04351958306635351 0.0 0.0
-0.08360209744307123 0.07922414873558381 0.0 0.04049669435959968 0.0 0.0
-0.0770475843327636 0.07306532410360722 0.0 0.03529710889950283 0.0 0.0
-0.06775371323070546 0.06409214707488031 0.0 0.030253490951533568 0.0 0.0
-0.05777469942179435 0.05437805244988292 0.0 0.02624844414107902 0.0 0.0
-0.04817677935870998 0.04500216983796257 0.0 0.023074052405815282 0.0 0.0
-0.03934641861485273 0.036374017373464795 0.0 0.020224616090820102 0.0 0.0
-0.03131920698338417 0.02854972938513134 0.0 0.01736204704997052 0.0 0.0
-0.02404719866128241 0.021489129952526387 0.0 0.014374780225832662 0.0 0.0
-0.017540349962017643 0.015203860457984941 0.0 0.011243323773318492 0.0 0.0
-0.011917165806702934 0.00982268656139329 0.0 0.008121331954095645 0.0 0.0
-0.007399793599080995 0.005597088002499362 0.0 0.0053784724234757775 0.0 0.0
-0.004222527816166291 0.0027798544124759683 0.0 0.00342363548829161 0.0 0.0
-0.0023775873921060287 0.0013209646456517898 0.0 0.0023721811831529105 0.0 0.0
-0.0015101275528637687 0.0007551030405428261 0.0 0.00201691385419811 0.0 0.0
-0.0010890660912991762 0.0005291260686792754 0.0 0.0020283340830614116 0.0 0.0
-0.0007579649812955863 0.00033328265971743765 0.0 0.002106011897222426 0.0 0.0
-0.00037839281970984684 2.4885171610089518e-05 0.0 0.001979910084788039 0.0 0.0
4.178728419060307e-05 -0.00036041308245882836 0.0 0.001096813912677852 0.0 0.0
-2.2377052997124558e-05 -0.00021735074208734106 0.0 -0.0008884382651568878 0.0 0.0
-0.0004322686384709562 7.669069210047841e-05 0.0 -0.0017239902323547551 0.0 0.0
-0.0008675939581603842 0.00037842660682263496 0.0 -0.0018738610996473781 0.0 0.0
-0.0012732155496661401 0.0006004227338902712 0.0 -0.0017754563908018994 0.0 0.0
-0.0018341297247416177 0.0009291380149789585 0.0 -0.0017602448666693138 0.0 0.0
-0.0030518018601107533 0.0018042158975444256 0.0 -0.0021551987597372424 0.0 0.0
-0.005488451957381568 0.003864179950087143 0.0 -0.0032736693673647843 0.0 0.0
-0.009471726125283048 0.00751419045282109 0.0 -0.005286347153095672 0.0 0.0
-0.014952530352989407 0.0127186834083588 0.0 -0.007974949432476897 0.0 0.0
-0.021734587630107494 0.019247205676774737 0.0 -0.01096499096478587 0.0 0.0
-0.0296210045081631 0.02688943464730542 0.0 -0.013982944993502944 0.0 0.0
-0.038477865720129484 0.03550959063336023 0.0 -0.01686227842448529 0.0 0.0
-0.04827484350740677 0.045077550449190706 0.0 -0.019633630872804453 0.0 0.0
-0.05905176739785098 0.055630085916237526 0.0 -0.022386139827523577 0.0 0.0
-0.07079088325252747 0.06712521117025583 0.0 -0.025300517806976508 0.0 0.0
-0.08309054953002173 0.07911787292684602 0.0 -0.028837911056132315 0.0 0.0
-0.0946438875869812 0.09027649781788538 0.0 -0.03348305593051226 0.0 0.0
-0.10280802439617914 0.09795763543807467 0.0 -0.038859609523238414 0.0 0.0
-0.10346251716273638 0.09807805963335703 0.0 -0.043548974775133975 0.0 0.0
-0.0911081056342827 0.08518040811106209 0.0 -0.04666447027428644 0.0 0.0
-0.0911081056342756 0.08518040811105543 0.0 0.04666447027433729 0.0 0.0
-0.1034625171627116 0.09807805963333527 0.0 0.04354897477519615 0.0 0.0
-0.1028080243961394 0.09795763543803648 0.0 0.0388596095232836 0.0 0.0
-0.09464388758692908 0.0902764978178312 0.0 0.03348305593052353 0.0 0.0
-0.08309054952996088 0.07911787292679184 0.0 0.02883791105612482 0.0 0.0
-0.07079088325246485 0.06712521117020032 0.0 0.025300517806966294 0.0 0.0
-0.059051767397788 0.05563008591618024 0.0 0.022386139827508367 0.0 0.0
-0.048274843507345525 0.045077550449129866 0.0 0.019633630872789354 0.0 0.0
-0.03847786572006799 0.035509590633298505 0.0 0.016862278424465582 0.0 0.0
-0.029621004508108548 0.02688943464725435 0.0 0.013982944993477187 0.0 0.0
-0.021734587630060503 0.019247205676728996 0.0 0.010964990964760446 0.0 0.0
-0.01495253035295449 0.01271868340832305 0.0 0.007974949432458522 0.0 0.0
-0.009471726125257152 0.007514190452796221 0.0 0.005286347153082183 0.0 0.0
-0.005488451957365581 0.0038641799500727103 0.0 0.0032736693673570683 0.0 0.0
-0.0030518018601031205 0.0018042158975373201 0.0 0.0021551987597314137 0.0 0.0
-0.0018341297247390087 0.000929138014976072 0.0 0.0017602448666668158 0.0 0.0
-0.0012732155496653491 0.0006004227338900492 0.0 0.0017754563908000676 0.0 0.0
-0.0008675939581597458 0.00037842660682307905 0.0 0.0018738610996449356 0.0 0.0
-0.00043226863847066477 7.669069210047841e-05 0.0 0.0017239902323540335 0.0 0.0
-2.2377052997124558e-05 -0.0002173507420872231 0.0 0.0008884382651563882 0.0 0.0
-7.455705373238253e-05 -0.00010035017581122574 0.0 -0.0006737066964330185 0.0 0.0
-0.00048292073180533635 0.000129184973827412 0.0 -0.0014260608121756113 0.0 0.0
-0.0009712578876798217 0.00042051812461152416 0.0 -0.001585245793311596 0.0 0.0
-0.001452691011912255 0.0006704774889814136 0.0 -0.0014735254057192115 0.0 0.0
-0.002193974942318544 0.0011405277670772929 0.0 -0.0014623520785842503 0.0 0.0
-0.0038135472650627222 0.002402528686782146 0.0 -0.0018794045152984995 0.0 0.0
-0.006869219765762047 0.005103142423593221 0.0 -0.0029967147301262487 0.0 0.0
-0.011610187573300512 0.009538551254923089 0.0 -0.004852376573683259 0.0 0.0
-0.01801599608659965 0.015668042685506478 0.0 -0.00724556887031419 0.0 0.0
-0.025945359256979772 0.0233274266895096 0.0 -0.00994090731077113 0.0 0.0
-0.03520321939542931 0.03231911684381439 0.0 -0.012661375935650976 0.0 0.0
-0.0456492960627041 0.0425022747780357 0.0 -0.015263462232422698 0.0 0.0
-0.05722795584260834 0.05382385458619732 0.0 -0.017796341057884413 0.0 0.0
-0.06993686694346707 0.06627920352276195 0.0 -0.02028780335273539 0.0 0.0
-0.0837227666094697 0.07979947640115848 0.0 -0.022738150620404296 0.0 0.0
-0.09818142259744211 0.09392660695825317 0.0 -0.025364395533041706 0.0 0.0
-0.11189270513119642 0.10718056573838863 0.0 -0.028912505565346636 0.0 0.0
-0.12175233081546247 0.11648256902531706 0.0 -0.034227698806756135 0.0 0.0
-0.12299059445597732 0.11713386147893612 0.0 -0.041487472692773975 0.0 0.0
-0.10958326663810228 0.10319186974619088 0.0 -0.05071263007558713 0.0 0.0
-0.10958326663809229 0.10319186974617844 0.0 0.05071263007563254 0.0 0.0
-0.12299059445594787 0.11713386147890636 0.0 0.041487472692829264 0.0 0.0
-0.12175233081541516 0.11648256902526954 0.0 0.03422769880679477 0.0 0.0
-0.11189270513113597 0.10718056573833179 0.0 0.028912505565358626 0.0 0.0
-0.09818142259737206 0.09392660695818389 0.0 0.02536439553303571 0.0 0.0
-0.0837227666093972 0.07979947640108431 0.0 0.022738150620393638 0.0 0.0
-0.06993686694339381 0.06627920352268957 0.0 0.020287803352721068 0.0 0.0
-0.057227955842536773 0.053823854586127595 0.0 0.017796341057868925 0.0 0.0
-0.04564929606263292 0.04250227477796553 0.0 0.0152634622324061 0.0 0.0
-0.03520321939536564 0.032319116843750884 0.0 0.01266137593562583 0.0 0.0
-0.025945359256925794 0.02332742668945409 0.0 0.009940907310747371 0.0 0.0
-0.018015996086558503 0.015668042685461403 0.0 0.007245568870300589 0.0 0.0
-0.011610187573269697 0.009538551254893557 0.0 0.004852376573669048 0.0 0.0
-0.006869219765742611 0.005103142423576124 0.0 0.0029967147301170893 0.0 0.0
-0.0038135472650526955 0.0024025286867745965 0.0 0.001879404515293781 0.0 0.0
-0.0021939749423147553 0.0011405277670746283 0.0 0.0014623520785834732 0.0 0.0
-0.001452691011911457 0.0006704774889811915 0.0 0.0014735254057192115 0.0 0.0
-0.0009712578876787462 0.00042051812461052496 0.0 0.0015852457933128727 0.0 0.0
-0.00048292073180501716 0.00012918497382696792 0.0 0.0014260608121756668 0.0 0.0
-7.45570537323964e-05 -0.00010035017581114941 0.0 0.0006737066964326854 0.0 0.0
-0.00011105288741031227 -1.2671990305024305e-05 0.0 -0.00045420429529691164 0.0 0.0
-0.0005256690205708292 0.00017863074652768596 0.0 -0.001088942027191342 0.0 0.0
-0.001069947539685534 0.000458892313560888 0.0 -0.0012387005866968392 0.0 0.0
-0.0016372086086993698 0.0007495142974178748 0.0 -0.001127199021332903 0.0 0.0
-0.0026059076066273223 0.0014120757278384133 0.0 -0.001124163999910055 0.0 0.0
-0.004672341995449636 0.003120344145921994 0.0 -0.0015380140859385105 0.0 0.0
-0.008322551110445997 0.006444091292358234 0.0 -0.002493189403095286 0.0 0.0
-0.01377025107374491 0.01160857646800495 0.0 -0.003999182614063346 0.0 0.0
-0.021081199175444154 0.01863678781262257 0.0 -0.005962895998704754 0.0 0.0
-0.03014056533963888 0.027409152027367156 0.0 -0.00818387946801924 0.0 0.0
-0.04076363050222509 0.03774313653404171 0.0 -0.010431116681416164 0.0 0.0
-0.05280244552791946 0.04949354900018843 0.0 -0.012577028363961018 0.0 0.0
-0.06617369028961995 0.0625771656293761 0.0 -0.014679365932027233 0.0 0.0
-0.08080753704202243 0.07692263745300743 0.0 -0.016782533088183005 0.0 0.0
-0.09653751691992479 0.09235652904750191 0.0 -0.018692559190630398 0.0 0.0
-0.11289530747623416 0.10837373664018646 0.0 -0.020157927437596035 0.0 0.0
-0.12855568484743948 0.12357026448165165 0.0 -0.021897573349974664 0.0 0.0
-0.14037265667379392 0.13474067061718875 0.0 -0.02654092827340815 0.0 0.0
-0.1428420369056793 0.13653974130276358 0.0 -0.036880124656304636 0.0 0.0
-0.12903327462866657 0.12214363952575624 0.0 -0.054136130117536596 0.0 0.0
-0.12903327462865363 0.12214363952574381 0.0 0.05413613011757157 0.0 0.0
-0.1428420369056451 0.13653974130272362 0.0 0.03688012465635204 0.0 0.0
-0.14037265667373855 0.1347406706171328 0.0 0.02654092827344401 0.0 0.0
-0.12855568484737012 0.12357026448158814 0.0 0.02189757334998199 0.0 0.0
-0.11289530747615413 0.10837373664010919 0.0 0.02015792743759487 0.0 0.0
-0.0965375169198432 0.09235652904742375 0.0 0.018692559190627733 0.0 0.0
-0.080807537041939 0.07692263745292927 0.0 0.016782533088173457 0.0 0.0
-0.06617369028953773 0.06257716562929927 0.0 0.014679365932016158 0.0 0.0
-0.05280244552783876 0.04949354900011205 0.0 0.01257702836394975 0.0 0.0
-0.040763630502153106 0.0377431365339711 0.0 0.010431116681396568 0.0 0.0
-0.030140565339578117 0.02740915202730676 0.0 0.008183879467997035 0.0 0.0
-0.021081199175396435 0.018636787812576827 0.0 0.005962895998692208 0.0 0.0
-0.013770251073709806 0.011608576467972975 0.0 0.003999182614052632 0.0 0.0
-0.008322551110422849 0.006444091292337362 0.0 0.0024931894030880697 0.0 0.0
-0.004672341995437333 0.0031203441459104475 0.0 0.001538014085933459 0.0 0.0
-0.0026059076066222084 0.0014120757278333063 0.0 0.0011241639999093334 0.0 0.0
-0.0016372086086980583 0.0007495142974172087 0.0 0.0011271990213328476 0.0 0.0
-0.0010699475396845001 0.00045889231356111004 0.0 0.0012387005866970613 0.0 0.0
-0.0005256690205709194 0.00017863074652774147 0.0 0.0010889420271893435 0.0 0.0
-0.00011105288741030533 -1.2671990305041653e-05 0.0 0.0004542042952946912 0.0 0.0
-0.00012518549254975087 4.142023504344339e-05 0.0 -0.00023664644857768202 0.0 0.0
-0.0005515291507335318 0.00021892443457960375 0.0 -0.000712187704987377 0.0 0.0
-0.0011657918276182233 0.0004950362554269061 0.0 -0.0008276650854717182 0.0 0.0
-0.001842535112600463 0.0008480861315693922 0.0 -0.0007385011043562484 0.0 0.0
-0.0030866641837784536 0.0017666057875014296 0.0 -0.0007527969260715528 0.0 0.0
-0.005613499127308241 0.003945271257401073 0.0 -0.0010717791432913182 0.0 0.0
-0.009804657595332389 0.007842975268157915 0.0 -0.0017393027978944708 0.0 0.0
-0.015931666657104604 0.013694342466715526 0.0 -0.0027673266756521597 0.0 0.0
-0.024117887933830406 0.02159285442635861 0.0 -0.004132846915814614 0.0 0.0
-0.03428904983769249 0.03145916665248771 0.0 -0.005699765117275879 0.0 0.0
-0.046271677724174454 0.043129135838158916 0.0 -0.007286567519662612 0.0 0.0
-0.05990664781216387 0.05644932634555122 0.0 -0.00880209764270623 0.0 0.0
-0.07507695140911691 0.07130091611861467 0.0 -0.010316548978263063 0.0 0.0
-0.0916243514904978 0.08752197524484018 0.0 -0.011818703601082725 0.0 0.0
-0.10922460776464141 0.1047845363022617 0.0 -0.013076165813440399 0.0 0.0
-0.1272376931222688 0.122441213623111 0.0 -0.013630699039503757 0.0 0.0
-0.14443167656416261 0.13921467912818475 0.0 -0.013469372809081781 0.0 0.0
-0.15824246225289754 0.1524252442140055 0.0 -0.015601795100204097 0.0 0.0
-0.16321815903954057 0.15645526275300226 0.0 -0.02813442651125586 0.0 0.0
-0.15014672085073907 0.1426736805678992 0.0 -0.05613464311033811 0.0 0.0
-0.15014672085072395 0.14267368056788188 0.0 0.056134643110363425 0.0 0.0
-0.16321815903950107 0.1564552627529685 0.0 0.028134426511293942 0.0 0.0
-0.1582424622528342 0.1524252442139522 0.0 0.015601795100230853 0.0 0.0
-0.14443167656408318 0.13921467912810748 0.0 0.01346937280908539 0.0 0.0
-0.12723769312217859 0.12244121362302085 0.0 0.013630699039502092 0.0 0.0
-0.10922460776455005 0.1047845363021751 0.0 0.013076165813439011 0.0 0.0
-0.0916243514904044 0.08752197524474825 0.0 0.011818703601078118 0.0 0.0
-0.07507695140902418 0.07130091611851608 0.0 0.010316548978256485 0.0 0.0
-0.05990664781207393 0.05644932634546285 0.0 0.008802097642697293 0.0 0.0
-0.04627167772409457 0.043129135838079424 0.0 0.007286567519646958 0.0 0.0
-0.03428904983762487 0.0314591666524251 0.0 0.005699765117259836 0.0 0.0
-0.02411788793377707 0.021592854426309316 0.0 0.004132846915805843 0.0 0.0
-0.015931666657064934 0.013694342466677334 0.0 0.0027673266756447212 0.0 0.0
-0.009804657595305924 0.007842975268132824 0.0 0.0017393027978884201 0.0 0.0
-0.005613499127292632 0.003945271257387306 0.0 0.0010717791432864887 0.0 0.0
-0.0030866641837719137 0.0017666057874956564 0.0 0.0007527969260716638 0.0 0.0
-0.0018425351125987838 0.0008480861315675048 0.0 0.0007385011043565815 0.0 0.0
-0.0011657918276173941 0.0004950362554252408 0.0 0.0008276650854685541 0.0 0.0
-0.0005515291507332334 0.0002189244345792707 0.0 0.0007121877049859893 0.0 0.0
-0.00012518549254979944 4.1420235043578696e-05 0.0 0.00023664644857618322 0.0 0.0
-0.00010507469648929346 5.587573570747795e-05 0.0 -3.763910127679848e-05 0.0 0.0
-0.0005447440452586716 0.0002401623632153349 0.0 -0.0002884772030121163 0.0 0.0
-0.0012648993145748522 0.0005333167896156565 0.0 -0.0003382922309457248 0.0 0.0
-0.0020915896186460836 0.0009927653976957718 0.0 -0.0003145381781028411 0.0 0.0
-0.003642713220064542 0.002204515153818143 0.0 -0.00032400725540987496 0.0 0.0
-0.006603867278993425 0.004838920143802383 0.0 -0.00045228554130749554 0.0 0.0
-0.011299918425107858 0.00926939980779129 0.0 -0.0007281004122862145 0.0 0.0
-0.018067511302708117 0.015768467454897683 0.0 -0.0011590860598476582 0.0 0.0
-0.02709629817626885 0.024502990674734715 0.0 -0.0017643750056472451 0.0 0.0
-0.038358087559789034 0.0354433054279899 0.0 -0.0024860976972381765 0.0 0.0
-0.05169788310810847 0.04844677619263038 0.0 -0.003228517509253792 0.0 0.0
-0.06693576317828331 0.06334120599823878 0.0 -0.0039544197017583604 0.0 0.0
-0.08389281827246403 0.07994873113911449 0.0 -0.004671852530789611 0.0 0.0
-0.10232800583712154 0.09802102847412852 0.0 -0.005341390773143773 0.0 0.0
-0.12177069422681802 0.11708196643081648 0.0 -0.005826154356093571 0.0 0.0
-0.14133836084359314 0.13625322068757173 0.0 -0.005798771749712661 0.0 0.0
-0.1596418441043865 0.15415663140307512 0.0 -0.004833847612596198 0.0 0.0
-0.17466895307797897 0.1687427343313579 0.0 -0.0037323560415187806 0.0 0.0
-0.1828777411851783 0.1762459970024297 0.0 -0.01144424142806455 0.0 0.0
-0.17490239218070222 0.16630929760346858 0.0 -0.05170546339053561 0.0 0.0
-0.17490239218068523 0.1663092976034517 0.0 0.05170546339054383 0.0 0.0
-0.1828777411851339 0.17624599700237153 0.0 0.011444241428085367 0.0 0.0
-0.17466895307790667 0.1687427343312815 0.0 0.0037323560415306045 0.0 0.0
-0.15964184410429516 0.1541566314029894 0.0 0.0048338476125937 0.0 0.0
-0.1413383608434934 0.13625322068746826 0.0 0.0057987717497094415 0.0 0.0
-0.12177069422671609 0.11708196643070812 0.0 0.005826154356092322 0.0 0.0
-0.1023280058370178 0.09802102847403127 0.0 0.005341390773140581 0.0 0.0
-0.08389281827236117 0.07994873113901813 0.0 0.004671852530787973 0.0 0.0
-0.06693576317818421 0.06334120599814241 0.0 0.003954419701752809 0.0 0.0
-0.051697883108020024 0.04844677619254423 0.0 0.0032285175092455765 0.0 0.0
-0.03835808755971473 0.03544330542791885 0.0 0.002486097697232903 0.0 0.0
-0.02709629817621114 0.02450299067467676 0.0 0.0017643750056438035 0.0 0.0
-0.018067511302663708 0.01576846745485372 0.0 0.001159086059844161 0.0 0.0
-0.011299918425078818 0.009269399807759982 0.0 0.0007281004122859924 0.0 0.0
-0.006603867278974693 0.0048389201437841756 0.0 0.0004522855413061633 0.0 0.0
-0.00364271322005625 0.0022045151538110375 0.0 0.000324007255410097 0.0 0.0
-0.0020915896186441962 0.0009927653976935513 0.0 0.00031453817810406237 0.0 0.0
-0.0012648993145744358 0.0005333167896156565 0.0 0.0003382922309473346 0.0 0.0
-0.0005447440452576516 0.00024016236321572348 0.0 0.0002884772030135596 0.0 0.0
-0.00010507469648942877 5.587573570743805e-05 0.0 3.763910127924097e-05 0.0 0.0
SCALARS Statev float 8
LOOKUP_TABLE default
0.0 0.013373768134204737 0.010349938745586967 -0.010731014625542802 0.00038107587995583013 -0.005955233050136722 0.0 0.0
0.0 0.0007897758155535285 0.0005603780127301311 -0.0004769047349650669 -8.34732777650641e-05 0.0005145906296540293 0.0 0.0
0.0 3.342380937738801e-05 -4.754075056001044e-06 3.773145031477424e-06 9.809300245235895e-07 5.62033213615258e-07 0.0 0.0
0.0 0.00029829667114679117 0.00021594537077934318 -0.00017037576112426096 -4.556960965508222e-05 -3.045804125918611e-05 0.0 0.0
0.0 0.0015947958996665994 0.0012973202105261898 -0.0010778351975806635 -0.00021948501294552635 -0.0001404098485629719 0.0 0.0
0.0 0.004315537124185663 0.003906750512407731 -0.003444855852318782 -0.0004618946600889489 -0.00032062735831704377 0.0 0.0
0.0 0.009328307957022709 0.008304391803859997 -0.0076749890547059205 -0.000629402749154078 -0.0005917279781567885 0.0 0.0
0.0 0.016804357027471094 0.01480687366024306 -0.014061803269725656 -0.0007450703905173984 -0.0010024808940846354 0.0 0.0
0.0 0.0269253407302584 0.02357747714300778 -0.022727512010563278 -0.0008499651324444921 -0.0015834213287789234 0.0 0.0
0.0 0.03966574477862049 0.03459431977150447 -0.03363468961958286 -0.0009596301519215979 -0.002290892154425612 0.0 0.0
0.0 0.054890212855793735 0.047719910508053534 -0.04664615551596827 -0.0010737549920852494 -0.003034746624001977 0.0 0.0
0.0 0.07211961199353645 0.06278698033263516 -0.06159676284624711 -0.0011902174863880105 -0.0037680377493856144 0.0 0.0
0.0 0.09146300580357408 0.07962272440386724 -0.07831476549315745 -0.0013079589107097193 -0.004492307630483942 0.0 0.0
0.0 0.11268238686328656 0.09802336546421311 -0.09659483228276931 -0.001428533181443716 -0.005201065929577647 0.0 0.0
0.0 0.13530426168132215 0.1176341262513608 -0.11608080720725666 -0.0015533190441041228 -0.0058642222194729456 0.0 0.0
0.0 0.15862087458376967 0.13781227662551415 -0.1361310601371161 -0.0016812164883981441 -0.006353480469539801 0.0 0.0
0.0 0.18145668389008993 0.1575691641418685 -0.1557610758776546 -0.0018080882642139322 -0.006437556610258224 0.0 0.0
0.0 0.20229168070884262 0.1756048212385333 -0.17367550679923244 -0.0019293144393008738 -0.00589107765400391 0.0 0.0
0.0 0.2193357271057591 0.19036389369712686 -0.18832037577954314 -0.0020435179175836956 -0.004986154060097233 0.0 0.0
0.0 0.229761952978105 0.19952877596304566 -0.1973134244855629 -0.0022153514774827963 -0.005671824101213576 0.0 0.0
0.0 0.22976195297808844 0.1995287759630314 -0.19731342448554817 -0.0022153514774831753 0.005671824101222791 0.0 0.0
0.0 0.21933572710570576 0.1903638936970809 -0.18832037577949645 -0.002043517917584353 0.004986154060117762 0.0 0.0
0.0 0.20229168070876 0.17560482123846188 -0.1736755067991611 -0.0019293144393007513 0.005891077654015968 0.0 0.0
0.0 0.18145668388998765 0.15756916414177963 -0.15576107587756635 -0.001808088264213277 0.00643755661026494 0.0 0.0
0.0 0.15862087458366042 0.1378122766254192 -0.13613106013702225 -0.0016812164883970302 0.006353480469530192 0.0 0.0
0.0 0.13530426168121115 0.11763412625126413 -0.11608080720716113 -0.001553319044102966 0.005864222219472206 0.0 0.0
0.0 0.11268238686317471 0.09802336546411591 -0.09659483228267303 -0.0014285331814428352 0.005201065929577927 0.0 0.0
0.0 0.09146300580346176 0.07962272440376965 -0.07831476549306088 -0.0013079589107087694 0.004492307630483319 0.0 0.0
0.0 0.07211961199342731 0.06278698033254067 -0.061596762846152966 -0.001190217486387684 0.0037680377493772674 0.0 0.0
0.0 0.054890212855699 0.047719910507971294 -0.046646155515886245 -0.001073754992085045 0.003034746623996819 0.0 0.0
0.0 0.039665744778543184 0.034594319771437454 -0.0336346896195165 -0.0009596301519209679 0.002290892154416446 0.0 0.0
0.0 0.026925340730198505 0.023577477142955237 -0.02272751201051126 -0.0008499651324439916 0.0015834213287765375 0.0 0.0
0.0 0.01680435702742765 0.014806873660204497 -0.014061803269687687 -0.0007450703905168029 0.0010024808940810787 0.0 0.0
0.0 0.0093283079569936 0.008304391803833905 -0.007674989054680462 -0.0006294027491534402 0.00059172797815505 0.0 0.0
0.0 0.004315537124169364 0.003906750512392695 -0.003444855852304634 -0.0004618946600880603 0.0003206273583155526 0.0 0.0
0.0 0.0015947958996597347 0.0012973202105205585 -0.0010778351975757564 -0.00021948501294480127 0.00014040984856229937 0.0 0.0
0.0 0.0002982966711449401 0.000215945370778603 -0.00017037576112364968 -4.5569609654953274e-05 3.0458041258991285e-05 0.0 0.0
0.0 3.342380937687491e-05 -4.754075055922566e-06 3.7731450314146314e-06 9.80930024507978e-07 -5.620332136057866e-07 0.0 0.0
0.0 0.0007897758155509283 0.0005603780127287142 -0.00047690473496382526 -8.347327776488918e-05 -0.0005145906296521489 0.0 0.0
0.0 0.013373768134186585 0.010349938745574943 -0.010731014625529731 0.0003810758799547832 0.005955233050107018 0.0 0.0
0.0 0.009936083276319346 0.007206932812513631 -0.007700607914733995 0.0004936751022203615 -0.006886965947545901 0.0 0.0
0.0 7.477095173089431e-06 4.878897150727745e-06 -4.263604722579061e-06 -6.152924281486901e-07 3.2047482179113735e-06 0.0 0.0
0.0 5.111753256141794e-07 2.8783106410676302e-08 -2.0812726917713163e-08 -7.970379492965866e-09 -6.639468325140483e-09 0.0 0.0
0.0 0.00011472717428671097 7.655684543640414e-05 -6.0003758189378334e-05 -1.6553087247026046e-05 -2.731223002013667e-05 0.0 0.0
0.0 0.0010660019728487508 0.0008268505871366524 -0.0006771825316839834 -0.00014966805545266928 -0.0002202605881771749 0.0 0.0
0.0 0.003318827181629815 0.0030077714287501905 -0.0026112078683252064 -0.0003965635604249834 -0.000654601422973575 0.0 0.0
0.0 0.007752093383653248 0.006896925973265053 -0.006306349765026807 -0.0005905762082382429 -0.001344233565896366 0.0 0.0
0.0 0.014497161474309553 0.012752922142455042 -0.012033854016473097 -0.0007190681259819456 -0.002338491206113193 0.0 0.0
0.0 0.02365467358445032 0.020680032139238178 -0.01985501809639071 -0.0008250140428474556 -0.003663690610721932 0.0 0.0
0.0 0.03514139242793789 0.03060813216292201 -0.029677988387051813 -0.0009301437758702032 -0.005214875977628078 0.0 0.0
0.0 0.04877548295905061 0.042380817696867315 -0.04134422498145114 -0.0010365927154161766 -0.006818407651280883 0.0 0.0
0.0 0.06443098562421569 0.055852245179487094 -0.0547086957386984 -0.0011435494407886757 -0.00836648164332226 0.0 0.0
0.0 0.08168521424661417 0.07091174872531752 -0.06965985084502102 -0.0012518978802965137 -0.009911126976727155 0.0 0.0
0.0 0.10065492367710224 0.08740115179863849 -0.08603852175272403 -0.0013626300459144253 -0.011464689948985916 0.0 0.0
0.0 0.12098759288879488 0.10501816281406198 -0.1035419360450684 -0.0014762267689935108 -0.012921530951953187 0.0 0.0
0.0 0.14197812028490112 0.12321873639934736 -0.12162665543512433 -0.0015920809642230565 -0.01402611720323151 0.0 0.0
0.0 0.16264896785144436 0.14114808185397096 -0.13943963437558557 -0.0017084474783854381 -0.014330542055509802 0.0 0.0
0.0 0.18163694236726385 0.15761560764019908 -0.15579133963600897 -0.0018242680041900986 -0.013480285723503705 0.0 0.0
0.0 0.19701225530888464 0.17096614607631783 -0.16901420494992936 -0.001951941126388493 -0.01169895781315921 0.0 0.0
0.0 0.2062326277867383 0.17900001415522476 -0.1769503080674618 -0.0020497060877629762 -0.008799527621942613 0.0 0.0
0.0 0.2062326277867257 0.17900001415521352 -0.17695030806745082 -0.0020497060877627785 0.008799527621967168 0.0 0.0
0.0 0.19701225530884073 0.17096614607627889 -0.16901420494989103 -0.0019519411263878754 0.011698957813199377 0.0 0.0
0.0 0.181636942367194 0.1576156076401377 -0.15579133963594818 -0.0018242680041894966 0.013480285723530376 0.0 0.0
0.0 0.16264896785135782 0.14114808185389568 -0.13943963437551063 -0.0017084474783849353 0.01433054205552332 0.0 0.0
0.0 0.1419781202848031 0.12321873639926258 -0.12162665543504014 -0.0015920809642223635 0.014026117203220879 0.0 0.0
0.0 0.12098759288869276 0.10501816281397355 -0.10354193604498037 -0.001476226768993155 0.012921530951947898 0.0 0.0
0.0 0.10065492367700188 0.08740115179855146 -0.08603852175263749 -0.0013626300459139104 0.011464689948981869 0.0 0.0
0.0 0.08168521424651773 0.07091174872523373 -0.06965985084493803 -0.0012518978802956572 0.009911126976722162 0.0 0.0
0.0 0.06443098562411981 0.05585224517940378 -0.054708695738616045 -0.001143549440787714 0.00836648164330972 0.0 0.0
0.0 0.04877548295896647 0.04238081769679408 -0.04134422498137894 -0.001036592715415122 0.00681840765127054 0.0 0.0
0.0 0.03514139242787062 0.03060813216286344 -0.029677988386993967 -0.0009301437758694614 0.0052148759776144814 0.0 0.0
0.0 0.02365467358439763 0.020680032139191697 -0.01985501809634483 -0.0008250140428468559 0.0036636906107153453 0.0 0.0
0.0 0.014497161474271391 0.012752922142421404 -0.012033854016440092 -0.0007190681259813188 0.002338491206106296 0.0 0.0
0.0 0.007752093383628468 0.006896925973242766 -0.006306349765005299 -0.000590576208237463 0.0013442335658922365 0.0 0.0
0.0 0.0033188271816143814 0.0030077714287365283 -0.002611207868312566 -0.0003965635604239622 0.0006546014229704916 0.0 0.0
0.0 0.0010660019728426307 0.0008268505871320271 -0.0006771825316799884 -0.00014966805545203873 0.00022026058817581362 0.0 0.0
0.0 0.00011472717428562393 7.655684543605399e-05 -6.000375818908894e-05 -1.6553087246964884e-05 2.73122300199786e-05 0.0 0.0
0.0 5.111753256766401e-07 2.8783106474236424e-08 -2.081272696562588e-08 -7.97037950861243e-09 6.639468346650346e-09 0.0 0.0
0.0 7.477095172775064e-06 4.878897150784504e-06 -4.2636047226209075e-06 -6.152924281635926e-07 -3.204748217942792e-06 0.0 0.0
0.0 0.00993608327629739 0.007206932812499138 -0.007700607914718838 0.0004936751022196937 0.006886965947519964 0.0 0.0
0.0 0.007535740577447932 0.005176164606239327 -0.00569756025443381 0.0005213956481944832 -0.0060506477730976295 0.0 0.0
0.0 0.0 0.0 0.0 0.0 0.0 0.0 0.0
0.0 0.0 0.0 0.0 0.0 0.0 0.0 0.0
0.0 2.3577775847087098e-05 1.825901789806444e-05 -1.4258657660729474e-05 -4.000360237334985e-06 -1.2066392933370746e-05 0.0 0.0
0.0 0.0005959730074920708 0.0004671796750691351 -0.0003773674709054199 -8.981220416371503e-05 -0.00022125236057299612 0.0 0.0
0.0 0.002570104116064383 0.00215732298297869 -0.001841467277575718 -0.00031585570540297093 -0.0008113634411710544 0.0 0.0
0.0 0.006234516534008826 0.005518622454442244 -0.004977876516012739 -0.0005407459384295076 -0.0018261832389666476 0.0 0.0
0.0 0.012214014809877594 0.010692744769229176 -0.010007166391962441 -0.0006855783772667296 -0.0032996710909974645 0.0 0.0
0.0 0.020405720223771975 0.017742420960537342 -0.016947246511963325 -0.0007951744485740173 -0.005213233208849907 0.0 0.0
0.0 0.030648635165805554 0.026560092939334617 -0.025664147682568174 -0.0008959452567664252 -0.007417204806954543 0.0 0.0
0.0 0.04276564647726531 0.03697483604094065 -0.035980034099476595 -0.0009948019414640471 -0.009691440935936348 0.0 0.0
0.0 0.056513814630405154 0.04885652941418268 -0.04776355813705822 -0.0010929712771244422 -0.011895932366626925 0.0 0.0
0.0 0.07197131406073674 0.062124722702660215 -0.06093294871136342 -0.0011917739912967978 -0.014071073922720195 0.0 0.0
0.0 0.08868844406942336 0.07668077155091389 -0.07538853822184644 -0.001292233329067423 -0.016274864434572153 0.0 0.0
0.0 0.10667172390598063 0.0922915507347556 -0.09089726162465657 -0.0013942891100990175 -0.01837901996756048 0.0 0.0
0.0 0.12539830967941887 0.10851833055966062 -0.1070202561885649 -0.001498074371095649 -0.020006450829872895 0.0 0.0
0.0 0.14395451273101453 0.12464321703589985 -0.12303890055162749 -0.0016043164842722939 -0.020611165920205173 0.0 0.0
0.0 0.16105883969112467 0.13956321790253587 -0.13784610556820998 -0.0017171123343259036 -0.01970603646021861 0.0 0.0
0.0 0.17490777131530594 0.15169242150193013 -0.14986531786712068 -0.001827103634809407 -0.01680431494862169 0.0 0.0
0.0 0.18343089687823405 0.1592319426620793 -0.1573253618807433 -0.0019065807813358794 -0.011007847635198055 0.0 0.0
0.0 0.1834308968782223 0.1592319426620685 -0.1573253618807327 -0.0019065807813357623 0.011007847635236618 0.0 0.0
0.0 0.1749077713152684 0.151692421501896 -0.14986531786708673 -0.001827103634809327 0.016804314948677023 0.0 0.0
0.0 0.16105883969106385 0.13956321790248166 -0.13784610556815602 -0.0017171123343255833 0.01970603646025678 0.0 0.0
0.0 0.14395451273094115 0.12464321703583502 -0.12303890055156387 -0.0016043164842712003 0.020611165920223017 0.0 0.0
0.0 0.12539830967933424 0.1085183305595874 -0.10702025618849222 -0.0014980743710950955 0.020006450829863257 0.0 0.0
0.0 0.10667172390589556 0.0922915507346813 -0.09089726162458378 -0.0013942891100975421 0.018379019967554422 0.0 0.0
0.0 0.08868844406933576 0.07668077155083747 -0.0753885382217711 -0.0012922333290663862 0.016274864434567556 0.0 0.0
0.0 0.07197131406065006 0.062124722702584914 -0.060932948711288584 -0.0011917739912963095 0.014071073922714231 0.0 0.0
0.0 0.05651381463032125 0.04885652941411047 -0.0477635581369863 -0.0010929712771241852 0.011895932366610238 0.0 0.0
0.0 0.042765646477189355 0.03697483604087468 -0.03598003409941118 -0.0009948019414634725 0.009691440935920505 0.0 0.0
0.0 0.030648635165742358 0.026560092939279793 -0.025664147682513978 -0.0008959452567658058 0.007417204806935786 0.0 0.0
0.0 0.02040572022372345 0.017742420960494935 -0.016947246511921667 -0.0007951744485732639 0.0052132332088384945 0.0 0.0
0.0 0.012214014809840204 0.01069274476919655 -0.010007166391930257 -0.0006855783772662884 0.0032996710909870093 0.0 0.0
0.0 0.006234516533985114 0.005518622454421306 -0.004977876515992579 -0.0005407459384287292 0.001826183238960005 0.0 0.0
0.0 0.002570104116052775 0.0021573229829690834 -0.0018414672775670486 -0.000315855705402035 0.0008113634411670476 0.0 0.0
0.0 0.0005959730074884617 0.00046717967506659276 -0.00037736747090333074 -8.981220416326193e-05 0.00022125236057183803 0.0 0.0
0.0 2.357777584666408e-05 1.8259017898228133e-05 -1.4258657660845622e-05 -4.000360237382532e-06 1.2066392933399698e-05 0.0 0.0
0.0 0.0 0.0 0.0 0.0 0.0 0.0 0.0
0.0 0.0 0.0 0.0 0.0 0.0 0.0 0.0
0.0 0.00753574057742886 0.005176164606226229 -0.005697560254420071 0.0005213956481938404 0.0060506477730763895 0.0 0.0
0.0 0.0056507634179973915 0.003722662553757152 -0.004214486645057788 0.0004918240913006349 -0.004783414881003368 0.0 0.0
0.0 0.0 0.0 0.0 0.0 0.0 0.0 0.0
0.0 0.0 0.0 0.0 0.0 0.0 0.0 0.0
0.0 3.798482143386097e-06 1.1166104041334971e-06 -8.643774551162358e-07 -2.522329490172463e-07 -1.1289346253942833e-06 0.0 0.0
0.0 0.00028706399052748604 0.00021824077375376632 -0.00017466123786159704 -4.3579535892169125e-05 -0.00016619817672693476 0.0 0.0
0.0 0.0017624872293800294 0.0014300938517427292 -0.001199143999182938 -0.00023094985255979136 -0.000817459682626472 0.0 0.0
0.0 0.00484137023395124 0.004188355985210856 -0.003716429921318742 -0.0004719260638921163 -0.0020429330507326406 0.0 0.0
0.0 0.009983566657726586 0.008653190860759762 -0.008010324375955653 -0.0006428664848041076 -0.0038790500551449617 0.0 0.0
0.0 0.017177843671103737 0.014797159578771818 -0.014038599349618956 -0.0007585602291528689 -0.006223676944904428 0.0 0.0
0.0 0.026161926395673638 0.02248603744273732 -0.021629781244126844 -0.000856256198610444 -0.008901494246611548 0.0 0.0
0.0 0.036737089484957006 0.03153589012947246 -0.030587726563565613 -0.000948163565906838 -0.011653795960427909 0.0 0.0
0.0 0.04873971935432625 0.041824445327663703 -0.04078655512961913 -0.0010378901980445789 -0.014336668510616067 0.0 0.0
0.0 0.0620900609172698 0.053301494473206174 -0.05217443359466234 -0.0011270608785438382 -0.016998593151410387 0.0 0.0
0.0 0.07676483172989312 0.06591049602144693 -0.06469316501860314 -0.001217331002843755 -0.01965600844312835 0.0 0.0
0.0 0.09253677591015469 0.07949386015410018 -0.07818608563276636 -0.001307774521333787 -0.022192708856323184 0.0 0.0
0.0 0.10880044306593901 0.09372852583487959 -0.0923292818320088 -0.001399244002870747 -0.024258994936501625 0.0 0.0
0.0 0.12525032094507435 0.10803048476360125 -0.1065350357920426 -0.0014954489715586512 -0.025233642556372813 0.0 0.0
0.0 0.14056619731296635 0.12144048104584343 -0.11984319559058128 -0.0015972854552621808 -0.024358976127678823 0.0 0.0
0.0 0.15314923651398593 0.13258107516942313 -0.13088598579853425 -0.0016950893708888505 -0.02062035165009782 0.0 0.0
0.0 0.16126883816961252 0.13991165669603317 -0.13814484629637688 -0.0017668103996562746 -0.012789632684655296 0.0 0.0
0.0 0.16126883816960036 0.13991165669602146 -0.13814484629636548 -0.001766810399656041 0.012789632684704145 0.0 0.0
0.0 0.15314923651395213 0.13258107516939102 -0.13088598579850258 -0.0016950893708883596 0.02062035165016174 0.0 0.0
0.0 0.14056619731291176 0.12144048104579405 -0.11984319559053147 -0.0015972854552624997 0.024358976127722785 0.0 0.0
0.0 0.1252503209450095 0.10803048476354372 -0.10653503579198521 -0.0014954489715584638 0.02523364255639242 0.0 0.0
0.0 0.10880044306586298 0.09372852583481392 -0.09232928183194361 -0.0013992440028702973 0.024258994936491654 0.0 0.0
0.0 0.09253677591007263 0.07949386015402952 -0.0781860856326955 -0.001307774521334018 0.022192708856312887 0.0 0.0
0.0 0.07676483172981655 0.06591049602138026 -0.06469316501853722 -0.0012173310028430295 0.01965600844312037 0.0 0.0
0.0 0.0620900609171968 0.05330149447314226 -0.052174433594599647 -0.0011270608785425974 0.016998593151401772 0.0 0.0
0.0 0.048739719354257444 0.04182444532760405 -0.040786555129560365 -0.0010378901980436829 0.014336668510597679 0.0 0.0
0.0 0.03673708948489654 0.03153589012942028 -0.030587726563513794 -0.0009481635659064761 0.011653795960409299 0.0 0.0
0.0 0.026161926395619213 0.022486037442690864 -0.021629781244080774 -0.0008562561986100784 0.008901494246589823 0.0 0.0
0.0 0.017177843671060462 0.014797159578734318 -0.01403859934958218 -0.0007585602291521366 0.006223676944890253 0.0 0.0
0.0 0.009983566657698227 0.008653190860735085 -0.008010324375931802 -0.0006428664848032802 0.0038790500551339154 0.0 0.0
0.0 0.004841370233931407 0.004188355985193862 -0.003716429921302741 -0.0004719260638911203 0.002042933050724905 0.0 0.0
0.0 0.0017624872293702473 0.0014300938517352783 -0.0011991439991764679 -0.00023094985255881086 0.0008174596826222497 0.0 0.0
0.0 0.0002870639905244059 0.00021824077375201718 -0.00017466123786013873 -4.3579535891878545e-05 0.0001661981767255288 0.0 0.0
0.0 3.798482143044918e-06 1.1166104043478138e-06 -8.643774552817802e-07 -2.522329490660227e-07 1.1289346256054372e-06 0.0 0.0
0.0 0.0 0.0 0.0 0.0 0.0 0.0 0.0
0.0 0.0 0.0 0.0 0.0 0.0 0.0 0.0
0.0 0.005650763417980675 0.003722662553746039 -0.004214486645045959 0.000491824091299918 0.004783414880986706 0.0 0.0
0.0 0.004105590666709548 0.0026063791732466035 -0.003034128626424623 0.0004277494531780198 -0.003542811963953689 0.0 0.0
0.0 0.0 0.0 0.0 0.0 0.0 0.0 0.0
0.0 0.0 0.0 0.0 0.0 0.0 0.0 0.0
0.0 5.858438231559568e-07 1.7690283748195738e-07 -1.3476226998159779e-07 -4.2140567500359724e-08 -2.5767367061164003e-07 0.0 0.0
0.0 0.00011760137983995359 8.063597004928117e-05 -6.435535561062392e-05 -1.6280614438657316e-05 -9.520965754707887e-05 0.0 0.0
0.0 0.0010848803930610543 0.000846319126583244 -0.0006978436399753737 -0.00014847548660787077 -0.0007164817800313889 0.0 0.0
0.0 0.0036387166353946798 0.002952770373019906 -0.002568732730289805 -0.00038403764273010015 -0.0020043362706577347 0.0 0.0
0.0 0.007873859940733006 0.0066568485382389984 -0.006072332937407453 -0.0005845156008315433 -0.004035757070105722 0.0 0.0
0.0 0.013992781407711114 0.01187673418653302 -0.011163612725294047 -0.0007131214612389747 -0.006687338534366905 0.0 0.0
0.0 0.021713598801043697 0.018420381496833924 -0.0176104667923318 -0.0008099147045021226 -0.009662428891359692 0.0 0.0
0.0 0.030756324358444276 0.02609824911659161 -0.025202361600279687 -0.0008958875163119465 -0.012713700426895489 0.0 0.0
0.0 0.040949566897919704 0.03479219265295687 -0.033814909583919125 -0.000977283069037732 -0.015688570329153172 0.0 0.0
0.0 0.052336157824087924 0.04447459251653591 -0.04341745446107625 -0.0010571380554596549 -0.01863889267892999 0.0 0.0
0.0 0.06470098642201691 0.055134861812383404 -0.05399806494533501 -0.001136796867048417 -0.021601131985637817 0.0 0.0
0.0 0.07815208803765614 0.06667804511207595 -0.06546185270229221 -0.0012161924097837296 -0.02441683864944051 0.0 0.0
0.0 0.09239316007482495 0.07887776362297381 -0.0775817795752578 -0.0012959840477159948 -0.0267481388399218 0.0 0.0
0.0 0.10654561122561125 0.09130957742265111 -0.08993074766422221 -0.0013788297584288699 -0.028053439411854182 0.0 0.0
0.0 0.12004622269344198 0.1032360920378288 -0.10176850504539404 -0.0014675869924347072 -0.02739204215423468 0.0 0.0
0.0 0.13154165482307187 0.11353262415868574 -0.11197708838779322 -0.0015555357708924818 -0.023307351385944485 0.0 0.0
0.0 0.13946940358336382 0.12083881423871827 -0.11921379627678431 -0.0016250179619339018 -0.014268182396365665 0.0 0.0
0.0 0.1394694035833549 0.12083881423870915 -0.11921379627677492 -0.0016250179619341654 0.014268182396416787 0.0 0.0
0.0 0.13154165482304422 0.11353262415865831 -0.11197708838776568 -0.0015555357708926171 0.023307351386011116 0.0 0.0
0.0 0.12004622269340019 0.10323609203778894 -0.10176850504535481 -0.0014675869924341304 0.027392042154283678 0.0 0.0
0.0 0.1065456112255555 0.09130957742260075 -0.0899307476641722 -0.0013788297584285585 0.028053439411875394 0.0 0.0
0.0 0.09239316007476052 0.07887776362291782 -0.07758177957520233 -0.0012959840477155564 0.026748138839913536 0.0 0.0
0.0 0.07815208803758592 0.0666780451120153 -0.06546185270223161 -0.001216192409783687 0.024416838649429007 0.0 0.0
0.0 0.06470098642194826 0.05513486181232424 -0.053998064945275565 -0.0011367968670486788 0.02160113198562704 0.0 0.0
0.0 0.05233615782402153 0.044474592516478235 -0.043417454461018606 -0.0010571380554596018 0.01863889267891882 0.0 0.0
0.0 0.04094956689785616 0.0347921926529023 -0.033814909583865 -0.0009772830690372729 0.015688570329133268 0.0 0.0
0.0 0.030756324358388522 0.02609824911654395 -0.025202361600233092 -0.000895887516310858 0.012713700426872105 0.0 0.0
0.0 0.021713598800998567 0.01842038149679628 -0.017610466792294988 -0.0008099147045012934 0.009662428891335053 0.0 0.0
0.0 0.01399278140767544 0.011876734186502657 -0.011163612725264097 -0.0007131214612385559 0.006687338534351385 0.0 0.0
0.0 0.007873859940707797 0.006656848538217949 -0.006072332937387069 -0.0005845156008308805 0.004035757070093392 0.0 0.0
0.0 0.003638716635378826 0.002952770373007044 -0.0025687327302779863 -0.00038403764272905736 0.0020043362706499684 0.0 0.0
0.0 0.0010848803930540638 0.0008463191265782239 -0.0006978436399711117 -0.00014847548660711185 0.0007164817800271044 0.0 0.0
0.0 0.00011760137983893274 8.063597004913302e-05 -6.435535561050189e-05 -1.6280614438631068e-05 9.520965754687437e-05 0.0 0.0
0.0 5.858438229924586e-07 1.7690283760940704e-07 -1.3476227007928302e-07 -4.214056753012202e-08 2.576736708032332e-07 0.0 0.0
0.0 0.0 0.0 0.0 0.0 0.0 0.0 0.0
0.0 0.0 0.0 0.0 0.0 0.0 0.0 0.0
0.0 0.004105590666695754 0.002606379173237668 -0.0030341286264149335 0.00042774945317726356 0.0035428119639407648 0.0 0.0
0.0 0.0028174785023929606 0.0017345482384855556 -0.002077127864410695 0.00034257962592513895 -0.0024747596464559565 0.0 0.0
0.0 0.0 0.0 0.0 0.0 0.0 0.0 0.0
0.0 0.0 0.0 0.0 0.0 0.0 0.0 0.0
0.0 1.2459832782016668e-06 -8.711175530045244e-08 6.722946238267231e-08 1.9882292917777628e-08 2.0432140011233723e-07 0.0 0.0
0.0 5.05612326031483e-05 2.6102741783056463e-05 -2.0779327750063213e-05 -5.323414032993242e-06 -4.570063421640643e-05 0.0 0.0
0.0 0.0005770892338637271 0.0004291657846046872 -0.00034930112398015323 -7.986466062453388e-05 -0.0005426678338460907 0.0 0.0
0.0 0.0024148887243286734 0.0018900207523993356 -0.0016087926024952615 -0.00028122814990407403 -0.001805467941605947 0.0 0.0
0.0 0.005878252369202607 0.004760418123230124 -0.004259580891655131 -0.0005008372315749923 -0.0038345337859969 0.0 0.0
0.0 0.010922300283185893 0.009011833987030815 -0.008358526125378022 -0.0006533078616527882 -0.006570794024370479 0.0 0.0
0.0 0.017322815943070596 0.014399639340566511 -0.013645093174971925 -0.0007545461655945895 -0.009687551641417755 0.0 0.0
0.0 0.024804448242509453 0.02069894488146069 -0.019863065819908755 -0.0008358790615519333 -0.012853349335558036 0.0 0.0
0.0 0.03321804138318425 0.027798080060774527 -0.026888123020453965 -0.0009099570403205693 -0.015940361433888616 0.0 0.0
0.0 0.042536323005574375 0.03568791710503769 -0.03470733557448064 -0.0009805815305570424 -0.01900266336865371 0.0 0.0
0.0 0.052790390880393626 0.044393339657063643 -0.04334368624250134 -0.0010496534145623196 -0.022061723101015264 0.0 0.0
0.0 0.06396175949034565 0.05388448784123258 -0.05276590644313569 -0.0011185813980969202 -0.024992061345250175 0.0 0.0
0.0 0.07560169932218466 0.06401702996126962 -0.06283039994879352 -0.0011866300124761114 -0.02747909906006073 0.0 0.0
0.0 0.08778362473862109 0.07451018233399799 -0.07325546509339632 -0.001254717240601625 -0.0290084761443601 0.0 0.0
0.0 0.09960948289746019 0.08491241263313723 -0.08358475578158744 -0.001327656851549803 -0.02869173091276247 0.0 0.0
0.0 0.10993116337109406 0.09442182876679461 -0.09301593363216903 -0.0014058951346255326 -0.024838659904431057 0.0 0.0
0.0 0.11781023406620236 0.10183430931984744 -0.10035738728786292 -0.0014769220319844534 -0.015471385531834952 0.0 0.0
0.0 0.11781023406619498 0.10183430931983882 -0.10035738728785487 -0.0014769220319839221 0.015471385531886428 0.0 0.0
0.0 0.10993116337107342 0.09442182876677185 -0.09301593363214718 -0.0014058951346247086 0.024838659904498465 0.0 0.0
0.0 0.09960948289742672 0.08491241263310353 -0.08358475578155439 -0.001327656851549156 0.02869173091281209 0.0 0.0
0.0 0.08778362473857497 0.07451018233395573 -0.0732554650933541 -0.001254717240601614 0.029008476144380024 0.0 0.0
0.0 0.07560169932212789 0.06401702996122088 -0.06283039994874486 -0.0011866300124760013 0.027479099060049937 0.0 0.0
0.0 0.06396175949028991 0.05388448784118449 -0.05276590644308811 -0.0011185813980963614 0.024992061345237147 0.0 0.0
0.0 0.05279039088034272 0.044393339657019214 -0.0433436862424578 -0.0010496534145614282 0.022061723101004408 0.0 0.0
0.0 0.04253632300552597 0.035687917104995526 -0.03470733557443922 -0.0009805815305563305 0.019002663368643605 0.0 0.0
0.0 0.03321804138313657 0.027798080060733935 -0.026888123020414025 -0.0009099570403199086 0.015940361433871186 0.0 0.0
0.0 0.024804448242460253 0.020698944881419476 -0.019863065819868013 -0.0008358790615514736 0.012853349335534902 0.0 0.0
0.0 0.01732281594302877 0.014399639340532339 -0.013645093174938372 -0.0007545461655939662 0.009687551641390669 0.0 0.0
0.0 0.010922300283152605 0.009011833987003032 -0.00835852612535098 -0.00065330786165205 0.006570794024351996 0.0 0.0
0.0 0.005878252369180928 0.004760418123212647 -0.004259580891638508 -0.0005008372315741391 0.003834533785983442 0.0 0.0
0.0 0.002414888724317406 0.0018900207523907708 -0.0016087926024875088 -0.00028122814990326153 0.0018054679415984223 0.0 0.0
0.0 0.0005770892338592571 0.00042916578460195926 -0.0003493011239778835 -7.986466062407578e-05 0.0005426678338427953 0.0 0.0
0.0 5.056123260237582e-05 2.610274178317723e-05 -2.077932775014368e-05 -5.323414033033538e-06 4.57006342164987e-05 0.0 0.0
0.0 1.245983277765114e-06 -8.711175526903953e-08 6.722946235833695e-08 1.9882292910690027e-08 -2.0432140003799813e-07 0.0 0.0
0.0 0.0 0.0 0.0 0.0 0.0 0.0 0.0
0.0 0.0 0.0 0.0 0.0 0.0 0.0 0.0
0.0 0.0028174785023817256 0.001734548238478586 -0.002077127864402954 0.00034257962592436917 0.002474759646445683 0.0 0.0
0.0 0.0018045628490377425 0.0010592143428299861 -0.0013051883614984886 0.00024597401866850206 -0.0015956993045631094 0.0 0.0
0.0 5.610935232125803e-07 -8.037160125762508e-09 8.338978319598262e-09 -3.018181938355691e-10 1.1164998698213293e-07 0.0 0.0
0.0 0.0 0.0 0.0 0.0 0.0 0.0 0.0
0.0 1.343535810957597e-06 -6.745450613659108e-08 5.1836617700734505e-08 1.5617888435866596e-08 2.5068220686766373e-07 0.0 0.0
0.0 2.6704906034204104e-05 1.2300003458115046e-05 -9.73410185548651e-06 -2.565901602628539e-06 -3.184574477511688e-05 0.0 0.0
0.0 0.0003017132102683196 0.00017350473229689765 -0.00014009029355046515 -3.3414438746432525e-05 -0.00033276447338208574 0.0 0.0
0.0 0.0014411934250662312 0.0010296005833745527 -0.0008572348064954146 -0.00017236577687913793 -0.0014299468689784923 0.0 0.0
0.0 0.003990897077470531 0.003045218842939039 -0.0026577240587815926 -0.00038749478415744536 -0.003336088404371763 0.0 0.0
0.0 0.007953116963513404 0.006264825563946152 -0.005698405192802693 -0.0005664203711434556 -0.005915281328959109 0.0 0.0
0.0 0.013016847068920026 0.010463891208446131 -0.00978048675494121 -0.0006834044535049188 -0.008939105685308698 0.0 0.0
0.0 0.018929892711398423 0.015377666718269893 -0.014613457071874347 -0.0007642096463955466 -0.012057827916964275 0.0 0.0
0.0 0.025542093046859678 0.020885781284403403 -0.020052981535367345 -0.0008327997490360515 -0.0150780481313994 0.0 0.0
0.0 0.03286056908674031 0.026987652586758518 -0.02609281778114222 -0.0008948348056162859 -0.01805590255200979 0.0 0.0
0.0 0.04087478740266068 0.033738585693885444 -0.03278507980961592 -0.0009535058842694991 -0.021038355024797808 0.0 0.0
0.0 0.049670118543033256 0.04116353679265047 -0.04015250745264747 -0.0010110293400030172 -0.023909713696056167 0.0 0.0
0.0 0.059085131722541775 0.049196431442926944 -0.04812702008417663 -0.001069411358750337 -0.026367459217310523 0.0 0.0
0.0 0.06883660902048823 0.0576801342250355 -0.0565572516064767 -0.0011228826185587892 -0.028018657562001226 0.0 0.0
0.0 0.07875924506528084 0.06644748318123331 -0.06527140341201194 -0.0011760797692213706 -0.028171686554679783 0.0 0.0
0.0 0.08832394988764526 0.07511321203210919 -0.07387161628491985 -0.0012415957471893229 -0.025115606951847908 0.0 0.0
0.0 0.09631866205699023 0.08270925870503551 -0.0813919927601412 -0.0013172659448943119 -0.016371620079948277 0.0 0.0
0.0 0.09631866205698575 0.08270925870502924 -0.0813919927601352 -0.0013172659448940202 0.016371620079997113 0.0 0.0
0.0 0.08832394988763162 0.07511321203209169 -0.07387161628490264 -0.001241595747189116 0.025115606951914837 0.0 0.0
0.0 0.07875924506526207 0.0664474831812111 -0.06527140341199089 -0.0011760797692201741 0.028171686554730454 0.0 0.0
0.0 0.06883660902045888 0.05768013422500627 -0.05655725160644881 -0.0011228826185574864 0.028018657562023364 0.0 0.0
0.0 0.05908513172250058 0.04919643144289125 -0.04812702008414156 -0.0010694113587496764 0.026367459217301197 0.0 0.0
0.0 0.04967011854298843 0.04116353679261244 -0.04015250745260964 -0.0010110293400027936 0.023909713696041335 0.0 0.0
0.0 0.04087478740262189 0.033738585693851866 -0.032785079809582784 -0.0009535058842690776 0.02103835502478827 0.0 0.0
0.0 0.03286056908670054 0.026987652586724194 -0.026092817781108446 -0.000894834805615746 0.018055902551998956 0.0 0.0
0.0 0.025542093046821313 0.02088578128437119 -0.020052981535335933 -0.0008327997490352609 0.015078048131380936 0.0 0.0
0.0 0.018929892711366213 0.015377666718243688 -0.014613457071848909 -0.0007642096463947671 0.0120578279169439 0.0 0.0
0.0 0.013016847068891514 0.010463891208424097 -0.009780486754919732 -0.0006834044535043599 0.008939105685285637 0.0 0.0
0.0 0.00795311696348998 0.006264825563927752 -0.0056984051927849045 -0.0005664203711428468 0.005915281328943787 0.0 0.0
0.0 0.00399089707745421 0.003045218842926421 -0.002657724058770068 -0.00038749478415635194 0.0033360884043602936 0.0 0.0
0.0 0.0014411934250586921 0.0010296005833691545 -0.0008572348064907966 -0.00017236577687835717 0.001429946868972519 0.0 0.0
0.0 0.0003017132102654213 0.00017350473229560325 -0.00014009029354942006 -3.341443874618302e-05 0.00033276447337972684 0.0 0.0
0.0 2.6704906033729257e-05 1.230000345822031e-05 -9.734101855568822e-06 -2.565901602651497e-06 3.184574477540659e-05 0.0 0.0
0.0 1.343535810551308e-06 -6.74545061154224e-08 5.1836617684484416e-08 1.561788843093987e-08 -2.5068220678900275e-07 0.0 0.0
0.0 0.0 0.0 0.0 0.0 0.0 0.0 0.0
0.0 5.610935225658215e-07 -8.037160116491167e-09 8.3389783100577e-09 -3.018181935663175e-10 -1.1164998685127716e-07 0.0 0.0
0.0 0.001804562849029167 0.0010592143428250775 -0.0013051883614928147 0.00024597401866773694 0.0015956993045557596 0.0 0.0
0.0 0.0010234462715277366 0.0005602152570050373 -0.0007127650449434538 0.00015254978793841594 -0.0008992527721664366 0.0 0.0
0.0 1.009913738605322e-06 1.0830488308687175e-08 -8.041189434397334e-09 -2.7892988742911798e-09 -3.1208583237779915e-07 0.0 0.0
0.0 6.305102464673167e-07 -7.0898921551877894e-09 5.074535917472657e-09 2.0153562377156586e-09 1.2874703632778445e-07 0.0 0.0
0.0 1.0743153825875107e-06 1.7459178290079682e-08 -1.5988977352299328e-08 -1.4702009377781695e-09 -1.7057396090799448e-07 0.0 0.0
0.0 2.1906333745233425e-05 7.234239401737641e-06 -5.703976992809138e-06 -1.5302624089285145e-06 -2.9350752835360944e-05 0.0 0.0
0.0 0.00016229032573832772 6.796491618638911e-05 -5.454171659249341e-05 -1.3423199593895709e-05 -0.00020977339908170883 0.0 0.0
0.0 0.000758793335930067 0.0004339498207171517 -0.0003544856275197474 -7.946419319740432e-05 -0.000956900080338533 0.0 0.0
0.0 0.0023553244187392063 0.0015910383114785427 -0.0013465479020607976 -0.00024449040941774475 -0.0025566230439079303 0.0 0.0
0.0 0.0051614453302932985 0.003730143385386655 -0.00329531376505746 -0.00043482962032919217 -0.004800278639812707 0.0 0.0
0.0 0.008787246359009099 0.006686496273398728 -0.006109041974537315 -0.0005774542988614145 -0.0074610910063397495 0.0 0.0
0.0 0.013209024090065491 0.01019016237432629 -0.0095206466161474 -0.0006695157581788869 -0.010277729654454141 0.0 0.0
0.0 0.017987459666974685 0.014109691902665226 -0.013372535109215516 -0.0007371567934496995 -0.01304905956377457 0.0 0.0
0.0 0.02326363081063866 0.018434568211792134 -0.017641290955571313 -0.000793277256220824 -0.015777325925238304 0.0 0.0
0.0 0.029104814218885437 0.023231906502716948 -0.022389466382492305 -0.000842440120224636 -0.01848714522182232 0.0 0.0
0.0 0.03560134103151129 0.028576268978075987 -0.027687586576785946 -0.0008886824012900308 -0.021125308378515832 0.0 0.0
0.0 0.04260741530250608 0.034485268555507084 -0.03354926728411158 -0.0009360012713954923 -0.023433020029247006 0.0 0.0
0.0 0.0501088324047608 0.040897846936697985 -0.03991677032307599 -0.000981076613622006 -0.025008807670924196 0.0 0.0
0.0 0.05793459635140844 0.04785163375288434 -0.046839062081334336 -0.0010125716715499932 -0.025558069556201005 0.0 0.0
0.0 0.06619256266374449 0.055473715181044936 -0.05441944706202759 -0.0010542681190173024 -0.023855971246096067 0.0 0.0
0.0 0.07422322881721202 0.06325295684081375 -0.06211782645559256 -0.0011351303852212343 -0.016876884898935494 0.0 0.0
0.0 0.07422322881720997 0.06325295684080931 -0.06211782645558797 -0.0011351303852213395 0.016876884898977953 0.0 0.0
0.0 0.06619256266373184 0.055473715181027825 -0.054419447062010386 -0.0010542681190174527 0.023855971246155475 0.0 0.0
0.0 0.057934596351391074 0.04785163375286344 -0.046839062081313665 -0.0010125716715497558 0.025558069556244893 0.0 0.0
0.0 0.050108832404731726 0.04089784693667051 -0.03991677032304839 -0.0009810766136221392 0.025008807670937258 0.0 0.0
0.0 0.042607415302474895 0.034485268555481015 -0.03354926728408601 -0.0009360012713949888 0.02343302002923502 0.0 0.0
0.0 0.035601341031479466 0.028576268978049414 -0.027687586576760122 -0.0008886824012893081 0.021125308378502256 0.0 0.0
0.0 0.02910481421885686 0.023231906502692835 -0.022389466382468776 -0.0008424401202240713 0.01848714522181256 0.0 0.0
0.0 0.02326363081061404 0.018434568211771182 -0.017641290955550757 -0.0007932772562204283 0.01577732592523002 0.0 0.0
0.0 0.01798745966694984 0.014109691902645206 -0.013372535109195928 -0.0007371567934492802 0.013049059563759888 0.0 0.0
0.0 0.013209024090040059 0.010190162374306318 -0.009520646616128019 -0.0006695157581782902 0.010277729654436196 0.0 0.0
0.0 0.008787246358985359 0.006686496273381562 -0.006109041974520756 -0.0005774542988608022 0.007461091006318242 0.0 0.0
0.0 0.005161445330276417 0.003730143385374162 -0.003295313765045712 -0.00043482962032844895 0.004800278639799028 0.0 0.0
0.0 0.0023553244187277944 0.0015910383114703351 -0.0013465479020535467 -0.0002444904094167877 0.0025566230438975076 0.0 0.0
0.0 0.0007587933359243454 0.00043394982071398537 -0.00035448562751705815 -7.946419319692722e-05 0.0009569000803325315 0.0 0.0
0.0 0.00016229032573666192 6.796491618610298e-05 -5.4541716592249466e-05 -1.3423199593853523e-05 0.00020977339908063633 0.0 0.0
0.0 2.1906333744901e-05 7.23423940182377e-06 -5.70397699287718e-06 -1.5302624089465792e-06 2.9350752835745324e-05 0.0 0.0
0.0 1.0743153823157065e-06 1.7459178365847646e-08 -1.5988977411656425e-08 -1.4702009541942239e-09 1.7057396144975543e-07 0.0 0.0
0.0 6.305102458760242e-07 -7.089892147158693e-09 5.074535912009278e-09 2.015356235150372e-09 -1.2874703620679312e-07 0.0 0.0
0.0 1.009913738082754e-06 1.0830488350507212e-08 -8.041189483112231e-09 -2.7892988673950383e-09 3.1208583339926217e-07 0.0 0.0
0.0 0.0010234462715215087 0.0005602152570019533 -0.000712765044939768 0.00015254978793781475 0.000899252772161446 0.0 0.0
0.0 0.00043657152416404617 0.0002353773424640108 -0.00031236186959411236 7.698452713010163e-05 -0.00040601362527379855 0.0 0.0
0.0 2.3198107792838336e-06 -8.81957826187356e-10 4.2991481485060715e-09 -3.4171903223184955e-09 7.478217259687122e-09 0.0 0.0
0.0 8.697808634433703e-07 -8.087870238738704e-10 -3.893290432777484e-10 1.1981160671512707e-09 6.835371703484021e-08 0.0 0.0
0.0 2.0742514294781675e-06 6.413685280279965e-08 -4.5083358098188756e-08 -1.9053494704607683e-08 -8.800986036309408e-07 0.0 0.0
0.0 2.354170504186741e-05 4.427297268631508e-06 -3.4305342150483547e-06 -9.967630535831592e-07 -3.383162399214158e-05 0.0 0.0
0.0 0.0001246368719968017 3.064081723029072e-05 -2.4565198308172332e-05 -6.075618922118399e-06 -0.0001731086599826857 0.0 0.0
0.0 0.00039838552394379326 0.00013781646356945593 -0.0001113082370965706 -2.65082264728853e-05 -0.0005810437009960873 0.0 0.0
0.0 0.0011222003259355852 0.0005448175359246463 -0.0004465078337444396 -9.830970218020662e-05 -0.0015982012286397589 0.0 0.0
0.0 0.002669607273411625 0.0015641503165119192 -0.0013230254579627999 -0.00024112485854911952 -0.0032736038321237587 0.0 0.0
0.0 0.004903198662464749 0.0032030221078373743 -0.002808407034107204 -0.00039461507373016934 -0.0053340890016300765 0.0 0.0
0.0 0.007600182545882343 0.0052581198845112215 -0.004746182470798558 -0.0005119374137126612 -0.007579836866229321 0.0 0.0
0.0 0.010689275919329284 0.00756922717076124 -0.006977746813423309 -0.0005914803573379303 -0.009869135335219617 0.0 0.0
0.0 0.014032500929137062 0.01012506475485778 -0.00947390076697759 -0.0006511639878801902 -0.01218726379929031 0.0 0.0
0.0 0.017732888310015942 0.012980554675874412 -0.012283812569145326 -0.0006967421067290755 -0.014487681393295338 0.0 0.0
0.0 0.021867900201668296 0.016229086192639373 -0.015495415072934764 -0.0007336711197046066 -0.016746384313233678 0.0 0.0
0.0 0.02649961416265589 0.019976785213197422 -0.019208248531157157 -0.0007685366820402709 -0.018824760737678723 0.0 0.0
0.0 0.031651297006462666 0.024288002665285677 -0.023480544840054865 -0.0008074578252308193 -0.020335613578358305 0.0 0.0
0.0 0.0373614244190504 0.0292776474688157 -0.028442259675923887 -0.0008353877928918177 -0.02097840598760495 0.0 0.0
0.0 0.04417687406291576 0.03543239580681798 -0.0345989512092357 -0.0008334445975822825 -0.020625807823728217 0.0 0.0
0.0 0.052099125393027294 0.04318473838393813 -0.042277446994327415 -0.0009072913896107271 -0.016696533464293253 0.0 0.0
0.0 0.05209912539302705 0.04318473838393493 -0.04227744699432364 -0.0009072913896113024 0.0166965334643294 0.0 0.0
0.0 0.04417687406291633 0.03543239580681177 -0.03459895120922942 -0.0008334445975823227 0.020625807823781844 0.0 0.0
0.0 0.03736142441904281 0.029277647468803306 -0.028442259675911602 -0.0008353877928917038 0.020978405987641852 0.0 0.0
0.0 0.03165129700644814 0.024288002665271112 -0.02348054484004044 -0.0008074578252306704 0.020335613578367676 0.0 0.0
0.0 0.0264996141626369 0.019976785213183672 -0.019208248531143345 -0.0007685366820403233 0.018824760737665112 0.0 0.0
0.0 0.021867900201647857 0.01622908619262392 -0.015495415072919091 -0.0007336711197048255 0.016746384313221382 0.0 0.0
0.0 0.017732888309996656 0.012980554675859065 -0.012283812569130022 -0.0006967421067290435 0.014487681393286768 0.0 0.0
0.0 0.014032500929122792 0.010125064754846255 -0.009473900766966229 -0.0006511639878800271 0.012187263799284082 0.0 0.0
0.0 0.010689275919312704 0.0075692271707489345 -0.006977746813411589 -0.0005914803573373464 0.009869135335207781 0.0 0.0
0.0 0.007600182545864841 0.005258119884499506 -0.004746182470787199 -0.0005119374137123068 0.007579836866212341 0.0 0.0
0.0 0.00490319866244885 0.0032030221078273354 -0.002808407034097898 -0.0003946150737294368 0.0053340890016134014 0.0 0.0
0.0 0.0026696072734027796 0.0015641503165064064 -0.0013230254579577531 -0.00024112485854865386 0.0032736038321139896 0.0 0.0
0.0 0.0011222003259286836 0.0005448175359208383 -0.0004465078337412584 -9.830970217957982e-05 0.00159820122863152 0.0 0.0
0.0 0.00039838552394058435 0.00013781646356843887 -0.00011130823709572737 -2.650822647271145e-05 0.0005810437009922229 0.0 0.0
0.0 0.00012463687199502785 3.0640817230167684e-05 -2.4565198308068422e-05 -6.075618922099256e-06 0.00017310865998168947 0.0 0.0
0.0 2.3541705041372663e-05 4.427297268653757e-06 -3.430534215063871e-06 -9.967630535898878e-07 3.383162399228471e-05 0.0 0.0
0.0 2.074251429374218e-06 6.413685285413886e-08 -4.50833581339692e-08 -1.9053494720166997e-08 8.800986044026463e-07 0.0 0.0
0.0 8.697808632002024e-07 -8.087870233445901e-10 -3.8932904222280316e-10 1.1981160655678584e-09 -6.835371658537209e-08 0.0 0.0
0.0 2.3198107787477473e-06 -8.819578202994571e-10 4.299148135149055e-09 -3.4171903148499165e-09 -7.478216819424542e-09 0.0 0.0
0.0 0.00043657152416028773 0.00023537734246244335 -0.00031236186959212876 7.698452712968522e-05 0.0004060136252711895 0.0 0.0
0.0 0.00012082191634939072 6.155510771726931e-05 -8.574133282428887e-05 2.4186225107019554e-05 -0.00011246490833020611 0.0 0.0
0.0 2.7221507879104997e-06 1.6833440627274606e-10 5.9396414069628346e-09 -6.10797581323433e-09 -1.7286349815340202e-07 0.0 0.0
0.0 3.153420294854534e-06 -8.290570188614758e-08 7.842237690298193e-08 4.483324983166295e-09 -2.29328409140549e-06 0.0 0.0
0.0 4.994529813858451e-06 -8.037065006383742e-08 1.0608141763299033e-07 -2.5710767569152277e-08 -6.640804706505384e-06 0.0 0.0
0.0 2.826924818717512e-05 1.0151332381339279e-06 -6.836379575671135e-07 -3.314952805668209e-07 -3.8209175608897215e-05 0.0 0.0
0.0 0.00011912994799335815 9.316935415896485e-06 -7.356514252726476e-06 -1.9604211631699984e-06 -0.00017882396940416354 0.0 0.0
0.0 0.0002981282691070547 3.4088857063003456e-05 -2.7500730666998044e-05 -6.5881263960054194e-06 -0.00047869416478619575 0.0 0.0
0.0 0.0006230766600396792 9.230131166817371e-05 -7.487446827692055e-05 -1.7426843391253068e-05 -0.0009686547422119102 0.0 0.0
0.0 0.0011243564127097515 0.00023689207578091574 -0.00019271947324569802 -4.417260253521759e-05 -0.001815959978602342 0.0 0.0
0.0 0.001994911065417913 0.0005466198732648352 -0.00044445673679915606 -0.0001021631364656791 -0.0030520753477815145 0.0 0.0
0.0 0.003044086717306875 0.0010403241994446234 -0.000850980777522267 -0.00018934342192235574 -0.004612180214873284 0.0 0.0
0.0 0.004420128138565636 0.0016774786835162935 -0.0014026749959881082 -0.00027480368752818494 -0.006360586057237807 0.0 0.0
0.0 0.006011561965536754 0.002445206452151356 -0.0020975794042490184 -0.0003476270479023351 -0.008260859912446863 0.0 0.0
0.0 0.007842421230559721 0.003350869580376566 -0.0029458984620396624 -0.0004049711183369057 -0.010291033260343809 0.0 0.0
0.0 0.009920674604491843 0.0044810837357882015 -0.004032453699880646 -0.00044863003590755383 -0.012432332975687676 0.0 0.0
0.0 0.012375256567988206 0.0060053194555380295 -0.005521760141739229 -0.0004835593137987974 -0.014545715848444394 0.0 0.0
0.0 0.015240762053307723 0.008167673580218257 -0.007647943630152855 -0.0005197299500653968 -0.016239087151302713 0.0 0.0
0.0 0.018591838425902722 0.011181860344245984 -0.010614653404199802 -0.0005672069400461783 -0.016894310465828503 0.0 0.0
0.0 0.023110274541751873 0.015437073517423912 -0.014864883852155038 -0.0005721896652688736 -0.01666435106187042 0.0 0.0
0.0 0.030125282808200298 0.022314440730393875 -0.02176367050615731 -0.0005507702242365653 -0.015797981601459 0.0 0.0
0.0 0.030125282808204635 0.022314440730394573 -0.0217636705061581 -0.0005507702242364727 0.015797981601486485 0.0 0.0
0.0 0.023110274541755356 0.015437073517420217 -0.014864883852151504 -0.0005721896652687208 0.01666435106191303 0.0 0.0
0.0 0.018591838425897133 0.01118186034423784 -0.010614653404191675 -0.000567206940046159 0.01689431046584894 0.0 0.0
0.0 0.01524076205329727 0.008167673580210541 -0.0076479436301453785 -0.0005197299500651568 0.016239087151301727 0.0 0.0
0.0 0.01237525656797699 0.006005319455533157 -0.005521760141735046 -0.00048355931379811114 0.014545715848430972 0.0 0.0
0.0 0.00992067460448187 0.004481083735783303 -0.004032453699875932 -0.00044863003590737076 0.012432332975677874 0.0 0.0
0.0 0.007842421230552527 0.0033508695803739297 -0.0029458984620369592 -0.00040497111833697245 0.010291033260335395 0.0 0.0
0.0 0.006011561965530364 0.002445206452149388 -0.002097579404247265 -0.00034762704790212187 0.008260859912438696 0.0 0.0
0.0 0.004420128138556741 0.0016774786835136541 -0.0014026749959856698 -0.0002748036875279842 0.006360586057225343 0.0 0.0
0.0 0.0030440867173010906 0.0010403241994439761 -0.0008509807775217483 -0.00018934342192222743 0.00461218021486336 0.0 0.0
0.0 0.001994911065411845 0.0005466198732636388 -0.00044445673679826983 -0.00010216313646536907 0.003052075347772889 0.0 0.0
0.0 0.0011243564127072047 0.00023689207578039557 -0.00019271947324530004 -4.417260253509536e-05 0.0018159599785980353 0.0 0.0
0.0 0.0006230766600377682 9.23013116678788e-05 -7.487446827668872e-05 -1.742684339118999e-05 0.0009686547422087385 0.0 0.0
0.0 0.00029812826910545227 3.4088857062974935e-05 -2.750073066696359e-05 -6.588126396011327e-06 0.00047869416478503994 0.0 0.0
0.0 0.00011912994799178421 9.316935415865084e-06 -7.356514252704917e-06 -1.960421163160166e-06 0.00017882396940323509 0.0 0.0
0.0 2.826924818658925e-05 1.0151332381337602e-06 -6.836379575681583e-07 -3.3149528056560535e-07 3.820917560886023e-05 0.0 0.0
0.0 4.994529813706933e-06 -8.037065007591764e-08 1.0608141764717536e-07 -2.5710767571257776e-08 6.640804707250713e-06 0.0 0.0
0.0 3.1534202941979096e-06 -8.290570191880511e-08 7.842237693212299e-08 4.48332498668146e-09 2.2932840922133143e-06 0.0 0.0
0.0 2.7221507873927584e-06 1.683344061175219e-10 5.939641399017381e-09 -6.1079758051323676e-09 1.728634985690675e-07 0.0 0.0
0.0 0.00012082191634780962 6.155510771686566e-05 -8.574133282372831e-05 2.418622510686261e-05 0.0001124649083296532 0.0 0.0
0.0 1.1516877847316527e-05 4.920943219770811e-06 -7.1318274107030545e-06 2.2108841909322346e-06 -9.958708325146479e-06 0.0 0.0
0.0 2.4742431471811264e-06 -3.054874294847137e-08 1.889594410709237e-08 1.1652798841383873e-08 -5.822096410776693e-07 0.0 0.0
0.0 4.997790119961401e-06 -4.462202964508972e-07 3.7916453382797756e-07 6.705576262292055e-08 -5.351690757202539e-06 0.0 0.0
0.0 9.342977909723239e-06 -1.044965231933214e-06 9.187237404529904e-07 1.2624149148022536e-07 -1.2566040698295345e-05 0.0 0.0
0.0 3.528450578726027e-05 -3.2725355409995033e-06 2.8272789105203014e-06 4.45256630479211e-07 -4.712651480498362e-05 0.0 0.0
0.0 0.00012709684512138934 -1.2179076376527557e-05 1.0035800797541259e-05 2.1432755789862903e-06 -0.00018381999630216148 0.0 0.0
0.0 0.0003021323211379837 -3.626358346834777e-05 2.941816774183411e-05 6.845415726513629e-06 -0.00048543099107737324 0.0 0.0
0.0 0.0006244138950024334 -9.292401180910179e-05 7.537707248496292e-05 1.754693932413883e-05 -0.0009719416917849044 0.0 0.0
0.0 0.0011237028539261677 -0.0002368136199220528 0.00019266097301292093 4.415264690913177e-05 -0.00181723921179995 0.0 0.0
0.0 0.001993541109101672 -0.000545928286683867 0.00044386122855184643 0.0001020670581320205 -0.0030510010104790107 0.0 0.0
0.0 0.0030567579997908046 -0.0010431133782285741 0.0008545487278146917 0.00018856465041388172 -0.004614536978618931 0.0 0.0
0.0 0.004443683117618865 -0.001705677099420213 0.00143072418595788 0.00027495291346233254 -0.006375169391038092 0.0 0.0
0.0 0.0060652604942737645 -0.002511003432666865 0.0021609083639069987 0.00035009506875986393 -0.008277346460646864 0.0 0.0
0.0 0.007882456774702704 -0.0034082376191141434 0.002993960025688653 0.0004142775934254883 -0.010291887801200035 0.0 0.0
0.0 0.00974762404837637 -0.004281330121941437 0.0038111932868667223 0.0004701368350747148 -0.012412736798082887 0.0 0.0
0.0 0.01152037184124832 -0.0048913173873515545 0.0043724073380251235 0.0005189100493264271 -0.014598227830495086 0.0 0.0
0.0 0.012872932721676798 -0.004878894227354508 0.004318901089555561 0.0005599931377989468 -0.016833657873340024 0.0 0.0
0.0 0.013676288343731422 -0.003968039526285666 0.0033831547838107795 0.0005848847424748845 -0.019189258024339538 0.0 0.0
0.0 0.013919793785814559 -0.0021929497611645143 0.001639565639156624 0.0005533841220078881 -0.021291820635719886 0.0 0.0
0.0 0.013696295446830233 0.003149767240320154 -0.003212563138372607 6.279589805245056e-05 -0.02022482086611454 0.0 0.0
0.0 0.01369629544683613 0.003149767240320558 -0.003212563138372831 6.2795898052277e-05 0.02022482086612807 0.0 0.0
0.0 0.013919793785816474 -0.0021929497611646925 0.0016395656391564651 0.0005533841220082252 0.021291820635732463 0.0 0.0
0.0 0.013676288343724512 -0.003968039526282129 0.0033831547838069458 0.00058488474247518 0.019189258024340232 0.0 0.0
0.0 0.012872932721664093 -0.0048788942273479356 0.004318901089549018 0.0005599931377989161 0.01683365787332982 0.0 0.0
0.0 0.011520371841235196 -0.004891317387344692 0.004372407338018731 0.0005189100493259591 0.014598227830479295 0.0 0.0
0.0 0.009747624048363272 -0.004281330121933921 0.003811193286859622 0.00047013683507429765 0.012412736798071181 0.0 0.0
0.0 0.007882456774689505 -0.003408237619106132 0.002993960025681083 0.0004142775934250484 0.010291887801189045 0.0 0.0
0.0 0.0060652604942614055 -0.0025110034326591597 0.002160908363899701 0.0003500950687594576 0.008277346460636756 0.0 0.0
0.0 0.004443683117605278 -0.0017056770994132633 0.001430724185951585 0.00027495291346167806 0.006375169391024215 0.0 0.0
0.0 0.0030567579997800784 -0.0010431133782237065 0.0008545487278105847 0.00018856465041312194 0.004614536978605764 0.0 0.0
0.0 0.001993541109092726 -0.0005459282866808032 0.0004438612285493038 0.00010206705813149911 0.0030510010104693123 0.0 0.0
0.0 0.0011237028539226976 -0.00023681361992082555 0.00019266097301192176 4.4152646908903765e-05 0.0018172392117951754 0.0 0.0
0.0 0.0006244138950004728 -9.292401180864218e-05 7.537707248457017e-05 1.7546939324072047e-05 0.000971941691782245 0.0 0.0
0.0 0.00030213232113645075 -3.62635834682833e-05 2.941816774181748e-05 6.845415726465801e-06 0.0004854309910761775 0.0 0.0
0.0 0.00012709684511997345 -1.2179076376523412e-05 1.0035800797547314e-05 2.1432755789761098e-06 0.00018381999630164573 0.0 0.0
0.0 3.5284505786446006e-05 -3.2725355410170483e-06 2.827278910534935e-06 4.4525663048210776e-07 4.712651480521603e-05 0.0 0.0
0.0 9.342977909456234e-06 -1.0449652319802343e-06 9.187237404940092e-07 1.262414914862243e-07 1.2566040698816363e-05 0.0 0.0
0.0 4.997790119508074e-06 -4.4622029653710327e-07 3.7916453390049724e-07 6.705576263660656e-08 5.3516907581804295e-06 0.0 0.0
0.0 2.474243146581454e-06 -3.054874296267315e-08 1.8895944106836217e-08 1.1652798855841837e-08 5.822096415650106e-07 0.0 0.0
0.0 1.151687784701156e-05 4.920943220021381e-06 -7.131827411043312e-06 2.2108841910219308e-06 9.958708325839526e-06 0.0 0.0
0.0 5.791226492451869e-07 -3.285152939261594e-08 4.863961923435166e-08 -1.578808984173702e-08 8.324711323925464e-08 0.0 0.0
0.0 1.5262903286024934e-06 -5.890984608510153e-08 3.483592212683684e-08 2.4073923958263143e-08 -1.1170713707333713e-06 0.0 0.0
0.0 6.0978633569225715e-06 -8.555062336707713e-07 7.092168181163168e-07 1.4628941555445042e-07 -6.668199566383282e-06 0.0 0.0
0.0 1.3513527998750085e-05 -1.995390310713976e-06 1.702570894601078e-06 2.928194161129115e-07 -1.338427159948044e-05 0.0 0.0
0.0 4.242114251201949e-05 -9.633280493447426e-06 8.018294884670474e-06 1.6149856087769536e-06 -5.798509489694877e-05 0.0 0.0
0.0 0.00013985525838577936 -3.7345742765085876e-05 3.0304394014639417e-05 7.041348750446432e-06 -0.00019724973396175586 0.0 0.0
0.0 0.00041531134712901197 -0.00014375804089855054 0.00011632592353715609 2.7432117361394506e-05 -0.0005972716015931616 0.0 0.0
0.0 0.001130126794838694 -0.0005486302939630176 0.00044972774103763276 9.890255292538481e-05 -0.001608173301594747 0.0 0.0
0.0 0.0026680447988983334 -0.0015634294269183326 0.0013224192664162168 0.0002410101605021156 -0.003274731574075125 0.0 0.0
0.0 0.004901988633022051 -0.0032025848733260916 0.002808316106691343 0.0003942687666347478 -0.005333890085117018 0.0 0.0
0.0 0.007609663595722325 -0.005266975848015033 0.004755863441360653 0.0005111124066543784 -0.007583127319638965 0.0 0.0
0.0 0.010721415213665224 -0.007603308793567151 0.0070129458646659955 0.0005903629289011554 -0.009867101496259897 0.0 0.0
0.0 0.014091666883601708 -0.010194606565054271 0.009542763244102012 0.0006518433209522569 -0.012156932062703355 0.0 0.0
0.0 0.017762547146551472 -0.013027382198105418 0.012322270415461493 0.0007051117826439302 -0.014432029190588565 0.0 0.0
0.0 0.02162499301972623 -0.0159839206531981 0.015227307777498648 0.0007566128756994406 -0.0167661816180149 0.0 0.0
0.0 0.02538473169388604 -0.01877440530784517 0.017967874327553375 0.000806530980291795 -0.019235128982898756 0.0 0.0
0.0 0.028627627849149937 -0.020943754370730268 0.02009513791620893 0.0008486164545213478 -0.021917228657265052 0.0 0.0
0.0 0.03072870727638399 -0.021946875574546894 0.021070815446076276 0.0008760601284706272 -0.02472030034412151 0.0 0.0
0.0 0.030037834533247373 -0.020698709799001 0.019728123857898877 0.0009705859411021048 -0.025909298293598892 0.0 0.0
0.0 0.02389676230618775 -0.014336503839924325 0.013263559729837445 0.0010729441100868688 -0.023429602225697004 0.0 0.0
0.0 0.02389676230619453 -0.014336503839923364 0.013263559729835773 0.001072944110087591 0.02342960222572686 0.0 0.0
0.0 0.030037834533251314 -0.020698709798996188 0.019728123857893434 0.0009705859411027421 0.025909298293638208 0.0 0.0
0.0 0.03072870727637851 -0.02194687557453625 0.021070815446066038 0.0008760601284702011 0.02472030034414806 0.0 0.0
0.0 0.028627627849128937 -0.02094375437071182 0.020095137916191094 0.0008486164545207339 0.02191722865726234 0.0 0.0
0.0 0.025384731693858107 -0.01877440530782288 0.01796787432753112 0.0008065309802917624 0.01923512898288325 0.0 0.0
0.0 0.021624993019700535 -0.015983920653178364 0.015227307777478993 0.0007566128756993726 0.016766181617998213 0.0 0.0
0.0 0.01776254714652937 -0.013027382198088132 0.01232227041544434 0.0007051117826437909 0.014432029190575582 0.0 0.0
0.0 0.014091666883578019 -0.010194606565034616 0.009542763244082887 0.0006518433209517238 0.012156932062691864 0.0 0.0
0.0 0.010721415213643181 -0.007603308793550673 0.007012945864650047 0.0005903629289006233 0.009867101496243551 0.0 0.0
0.0 0.007609663595698658 -0.0052669758479982065 0.004755863441344642 0.0005111124066535639 0.007583127319618681 0.0 0.0
0.0 0.004901988633001279 -0.0032025848733119016 0.0028083161066781576 0.0003942687666337435 0.005333890085097155 0.0 0.0
0.0 0.0026680447988862623 -0.0015634294269098853 0.001322419266408659 0.00024101016050122684 0.003274731574063371 0.0 0.0
0.0 0.001130126794833464 -0.0005486302939599626 0.00044972774103511367 9.890255292484894e-05 0.0016081733015886749 0.0 0.0
0.0 0.0004153113471260558 -0.00014375804089763507 0.00011632592353644842 2.743211736118666e-05 0.0005972716015901516 0.0 0.0
0.0 0.00013985525838407193 -3.7345742764968545e-05 3.0304394014534124e-05 7.0413487504344075e-06 0.00019724973396094064 0.0 0.0
0.0 4.242114251104861e-05 -9.633280493449479e-06 8.018294884675872e-06 1.6149856087735898e-06 5.798509489697414e-05 0.0 0.0
0.0 1.3513527998034123e-05 -1.995390310776627e-06 1.7025708946539074e-06 2.9281941612272205e-07 1.3384271599881485e-05 0.0 0.0
0.0 6.097863356268057e-06 -8.555062337610991e-07 7.092168181898371e-07 1.4628941557126183e-07 6.668199567069705e-06 0.0 0.0
0.0 1.5262903283306435e-06 -5.890984611873008e-08 3.4835922131056064e-08 2.407392398767438e-08 1.1170713715204845e-06 0.0 0.0
0.0 5.791226488939735e-07 -3.285152937202806e-08 4.863961920387383e-08 -1.57880898318369e-08 -8.324711318699175e-08 0.0 0.0
0.0 0.0 0.0 0.0 0.0 0.0 0.0 0.0
0.0 1.546319917433396e-06 2.096489414379388e-08 -7.102539574969584e-09 -1.3862354568826943e-08 3.138160816275471e-07 0.0 0.0
0.0 5.4999938868197745e-06 -5.775499975246961e-07 4.7412088689189086e-07 1.0342911063280147e-07 -3.2856979219542077e-06 0.0 0.0
0.0 1.60026109930675e-05 -2.887589668870349e-06 2.3870923131655386e-06 5.004973557048197e-07 -1.2543667013320653e-05 0.0 0.0
0.0 5.0977517755257596e-05 -1.7189232818438574e-05 1.4057950646993884e-05 3.1312821714447056e-06 -6.29403123255171e-05 0.0 0.0
0.0 0.0001975782330375949 -8.560630124856119e-05 6.92853554938684e-05 1.632094575469275e-05 -0.00025511486862993715 0.0 0.0
0.0 0.0007871853221705266 -0.0004477160352004019 0.00036637488225550947 8.134115294489234e-05 -0.000984427364462119 0.0 0.0
0.0 0.0023601721068573934 -0.0015924687820557653 0.001348041929897432 0.00024442685215833354 -0.0025645472539024593 0.0 0.0
0.0 0.005156714760239778 -0.00372744921083301 0.0032928460300946016 0.00043460318073840703 -0.004797773887977033 0.0 0.0
0.0 0.008787903329204894 -0.006687859871912946 0.006110655222076265 0.0005772046498366793 -0.007461020036908369 0.0 0.0
0.0 0.013219666746776073 -0.010200408097143785 0.0095316386942778 0.0006687694028659914 -0.010277940082495388 0.0 0.0
0.0 0.01800869716639241 -0.014136339909983527 0.013400443800624872 0.000735896109358659 -0.013021479684312802 0.0 0.0
0.0 0.02328676629318709 -0.01848213883785187 0.017688817121561916 0.0007933217162899467 -0.015668896285122743 0.0 0.0
0.0 0.029080518543192265 -0.023250771819843 0.022401729291665208 0.0008490425281777825 -0.018304770927660086 0.0 0.0
0.0 0.03534490143611263 -0.028337549993717098 0.027429378500196628 0.0009081714935204506 -0.021133700818289195 0.0 0.0
0.0 0.041668187017252396 -0.03341694700350222 0.03244768422264151 0.0009692627808606943 -0.024436612983559314 0.0 0.0
0.0 0.047550753805091654 -0.03791298522700716 0.03688563638454186 0.0010273488424652824 -0.028384486266954397 0.0 0.0
0.0 0.051549294999759354 -0.040866945495115596 0.0397660220508354 0.001100923444280188 -0.032256053564051035 0.0 0.0
0.0 0.05170271631413971 -0.04045874859233782 0.03926402067459375 0.0011947279177440644 -0.034163605359581885 0.0 0.0
0.0 0.04293427726807281 -0.03297431867999402 0.03155232074906036 0.0014219979309336482 -0.0302400983694596 0.0 0.0
0.0 0.042934277268084915 -0.03297431867999617 0.03155232074906289 0.0014219979309332787 0.030240098369502238 0.0 0.0
0.0 0.05170271631414479 -0.040458748592332006 0.039264020674588444 0.0011947279177435645 0.034163605359636695 0.0 0.0
0.0 0.051549294999748176 -0.04086694549509875 0.039766022050819326 0.0011009234442793947 0.032256053564086465 0.0 0.0
0.0 0.04755075380506493 -0.037912985226981895 0.036885636384517285 0.0010273488424646583 0.028384486266959726 0.0 0.0
0.0 0.04166818701721585 -0.0334169470034713 0.032447684222611434 0.0009692627808598716 0.0244366129835447 0.0 0.0
0.0 0.035344901436076215 -0.0283375499936869 0.027429378500166985 0.0009081714935199091 0.021133700818272424 0.0 0.0
0.0 0.029080518543158268 -0.02325077181981494 0.022401729291637786 0.0008490425281771491 0.018304770927642905 0.0 0.0
0.0 0.023286766293152798 -0.018482138837822605 0.01768881712153321 0.000793321716289384 0.01566889628510993 0.0 0.0
0.0 0.018008697166354063 -0.01413633990995224 0.01340044380059424 0.0007358961093579964 0.013021479684291352 0.0 0.0
0.0 0.013219666746738409 -0.010200408097114444 0.009531638694248949 0.0006687694028654951 0.010277940082468054 0.0 0.0
0.0 0.008787903329172227 -0.0066878598718883055 0.0061106552220520135 0.0005772046498362926 0.0074610200368829035 0.0 0.0
0.0 0.0051567147602196465 -0.003727449210817491 0.0032928460300798244 0.0004346031807376658 0.004797773887961888 0.0 0.0
0.0 0.0023601721068463254 -0.0015924687820477851 0.0013480419298904083 0.00024442685215737673 0.0025645472538928255 0.0 0.0
0.0 0.0007871853221649468 -0.000447716035197468 0.00036637488225312514 8.13411529443426e-05 0.0009844273644567308 0.0 0.0
0.0 0.0001975782330352465 -8.560630124798141e-05 6.928535549341935e-05 1.6320945754562013e-05 0.000255114868628318 0.0 0.0
0.0 5.097751775377865e-05 -1.718923281830254e-05 1.4057950646879804e-05 3.131282171422705e-06 6.294031232501774e-05 0.0 0.0
0.0 1.6002610992435594e-05 -2.8875896690198983e-06 2.38709231328993e-06 5.004973557299564e-07 1.2543667013978147e-05 0.0 0.0
0.0 5.49999388642166e-06 -5.775499976734413e-07 4.741208870130564e-07 1.0342911066039112e-07 3.28569792281441e-06 0.0 0.0
0.0 1.5463199168796422e-06 2.0964894136532813e-08 -7.10253957316928e-09 -1.3862354563367244e-08 -3.138160815128601e-07 0.0 0.0
0.0 0.0 0.0 0.0 0.0 0.0 0.0 0.0
0.0 0.0 0.0 0.0 0.0 0.0 0.0 0.0
0.0 3.8538157917848767e-07 8.524370000021943e-09 -5.889213621647465e-09 -2.6351563783748637e-09 7.625979648851619e-08 0.0 0.0
0.0 3.1129996188351103e-06 -2.809944643875134e-07 2.2859068416740828e-07 5.240378022010019e-08 -1.2150463500323192e-06 0.0 0.0
0.0 1.547727554557547e-05 -4.502564228863204e-06 3.710811041425062e-06 7.917531874381371e-07 -1.4706841769447692e-05 0.0 0.0
0.0 6.537120129859518e-05 -2.8296505206846526e-05 2.3034246218419703e-05 5.262258988426854e-06 -7.171069435170159e-05 0.0 0.0
0.0 0.0003485629320763167 -0.00020854282083365545 0.00016925392456744928 3.928889626620614e-05 -0.000398006223144539 0.0 0.0
0.0 0.0014717377885073353 -0.0010403732578379852 0.0008676841999678347 0.00017268905787015034 -0.0014546672172844537 0.0 0.0
0.0 0.003987913536335204 -0.0030408553323595672 0.0026539487743369914 0.0003869065580225754 -0.0033364603133430623 0.0 0.0
0.0 0.007948403157574438 -0.0062622790458961245 0.005695896179521685 0.0005663828663744407 -0.005910350525226637 0.0 0.0
0.0 0.013018591356873586 -0.010467961902533615 0.009784715730076296 0.0006832461724573197 -0.008939999925897713 0.0 0.0
0.0 0.018939421665264373 -0.015386995164236236 0.014623241845375279 0.0007637533188609574 -0.012054887076360755 0.0 0.0
0.0 0.02554270435879158 -0.02089610879175348 0.02006409283249372 0.0008320159592597499 -0.015027543978096955 0.0 0.0
0.0 0.032829688207228556 -0.026992461524438672 0.02609804192544396 0.0008944195989946827 -0.017875456813172406 0.0 0.0
0.0 0.04078303952443374 -0.03370930222183259 0.03275253523464743 0.0009567669871851587 -0.02072398282648034 0.0 0.0
0.0 0.049443619359828384 -0.04096537332001823 0.03994190729856169 0.001023466021456483 -0.023864154140372375 0.0 0.0
0.0 0.058447051738726746 -0.04840944187565003 0.04731201059598391 0.0010974312796661052 -0.027743608952942454 0.0 0.0
0.0 0.06683585317176813 -0.05524257638401819 0.054061295280882035 0.0011812811031361187 -0.03250608708886138 0.0 0.0
0.0 0.072904574774983 -0.05998079226982837 0.05870120684497273 0.0012795854248555969 -0.03725509524761563 0.0 0.0
0.0 0.07336083892444097 -0.06004427891321551 0.05862334264588756 0.0014209362673279092 -0.03949336302720343 0.0 0.0
0.0 0.06257166393979521 -0.05080070521645146 0.04916027360379472 0.0016404316126567686 -0.035850007758962146 0.0 0.0
0.0 0.0625716639398016 -0.05080070521644966 0.049160273603792874 0.0016404316126567607 0.03585000775900776 0.0 0.0
0.0 0.07336083892443927 -0.06004427891320467 0.05862334264587707 0.001420936267327582 0.039493363027263806 0.0 0.0
0.0 0.07290457477496153 -0.05998079226980283 0.058701206844947694 0.001279585424855107 0.037255095247657716 0.0 0.0
0.0 0.066835853171728 -0.055242576383980925 0.05406129528084528 0.0011812811031356287 0.03250608708887001 0.0 0.0
0.0 0.05844705173867683 -0.04840944187560729 0.047312010595941256 0.00109743127966602 0.027743608952929235 0.0 0.0
0.0 0.049443619359779076 -0.04096537331997649 0.03994190729852003 0.001023466021456424 0.023864154140355517 0.0 0.0
0.0 0.04078303952438697 -0.03370930222179326 0.03275253523460848 0.000956766987184783 0.02072398282646193 0.0 0.0
0.0 0.03282968820718111 -0.026992461524398097 0.026098041925403933 0.0008944195989941667 0.01787545681315675 0.0 0.0
0.0 0.025542704358746067 -0.020896108791715235 0.020064092832455936 0.0008320159592592935 0.015027543978076104 0.0 0.0
0.0 0.018939421665221244 -0.01538699516420131 0.014623241845340657 0.0007637533188606519 0.01205488707633437 0.0 0.0
0.0 0.013018591356835777 -0.010467961902503485 0.00978471573004673 0.0006832461724567492 0.008939999925871658 0.0 0.0
0.0 0.007948403157545811 -0.006262279045873387 0.005695896179499769 0.0005663828663736199 0.005910350525208708 0.0 0.0
0.0 0.003987913536318051 -0.0030408553323461795 0.0026539487743246805 0.0003869065580214972 0.0033364603133310593 0.0 0.0
0.0 0.001471737788498312 -0.0010403732578317232 0.0008676841999624311 0.00017268905786929192 0.0014546672172770455 0.0 0.0
0.0 0.00034856293207211455 -0.0002085428208316013 0.00016925392456576516 3.9288896265836146e-05 0.00039800622314114197 0.0 0.0
0.0 6.537120129753438e-05 -2.8296505206858595e-05 2.303424621841783e-05 5.262258988440704e-06 7.171069435162392e-05 0.0 0.0
0.0 1.5477275545020453e-05 -4.5025642290968985e-06 3.7108110416095273e-06 7.917531874873652e-07 1.4706841770134982e-05 0.0 0.0
0.0 3.1129996184401672e-06 -2.809944645598593e-07 2.2859068430641907e-07 5.2403780253438213e-08 1.2150463508047855e-06 0.0 0.0
0.0 3.8538157904294466e-07 8.52436999717895e-09 -5.889213619678072e-09 -2.6351563774992616e-09 -7.62597964614563e-08 0.0 0.0
0.0 0.0 0.0 0.0 0.0 0.0 0.0 0.0
0.0 0.0 0.0 0.0 0.0 0.0 0.0 0.0
0.0 0.0 0.0 0.0 0.0 0.0 0.0 0.0
0.0 8.786500097164113e-07 -7.647572241910216e-08 6.225740450976686e-08 1.4218317909338405e-08 -2.675844963880079e-07 0.0 0.0
0.0 1.4705813597196337e-05 -3.256449704099059e-06 2.64275165622329e-06 6.136980478757802e-07 -7.81115554728458e-06 0.0 0.0
0.0 0.0001053538984418167 -5.1655820198962695e-05 4.177279266697378e-05 9.883027531988903e-06 -9.14997293355277e-05 0.0 0.0
0.0 0.0006434043057907391 -0.00046299968721805136 0.0003788588643595745 8.414082285847692e-05 -0.0005957906493016632 0.0 0.0
0.0 0.0024306844460170707 -0.001891577097521318 0.0016117889123244313 0.00027978818519688647 -0.0018221203551664353 0.0 0.0
0.0 0.00587109954129618 -0.004753328144168324 0.0042528678927928 0.0005004602513755222 -0.0038299587616293955 0.0 0.0
0.0 0.010920287738541134 -0.009011442515998551 0.008357999580886469 0.0006534429351120846 -0.006564598948530842 0.0 0.0
0.0 0.017329858794088316 -0.014405999676624493 0.01365149969691715 0.0007544999797073455 -0.009688030416141281 0.0 0.0
0.0 0.024809240191868472 -0.020704888347146753 0.01986906301223902 0.0008358253349077345 -0.012844823958060742 0.0 0.0
0.0 0.033192327449749905 -0.027785729650165604 0.026875877254469816 0.0009098523956957908 -0.015872643679497322 0.0 0.0
0.0 0.04244221674904822 -0.03563567597639544 0.03465597296305921 0.0009797030133362175 -0.018780552006103523 0.0 0.0
0.0 0.052625993466171125 -0.04429833523458204 0.04324992185364093 0.0010484133809411235 -0.021667329987441954 0.0 0.0
0.0 0.06377248840989068 -0.05373176831445659 0.052608747750194175 0.0011230205642624178 -0.024849754800331088 0.0 0.0
0.0 0.07525012622250836 -0.0635462662397177 0.06233450922758716 0.0012117570121305305 -0.028821330291181422 0.0 0.0
0.0 0.08631130249924535 -0.07267183582838158 0.07135264093039027 0.0013191948979912743 -0.03380195140132185 0.0 0.0
0.0 0.09420435884493429 -0.07905470094299323 0.07760344700585159 0.0014512539371416408 -0.03895363906414517 0.0 0.0
0.0 0.09482164570427962 -0.07930301652958349 0.07768693542249874 0.001616081107084722 -0.04197237579889334 0.0 0.0
0.0 0.08235236398701323 -0.06831562394305774 0.06650360960416953 0.0018120143388882068 -0.040736785767846576 0.0 0.0
0.0 0.08235236398701665 -0.06831562394305371 0.06650360960416564 0.001812014338888046 0.04073678576789505 0.0 0.0
0.0 0.09482164570426589 -0.07930301652956415 0.07768693542247888 0.0016160811070852418 0.04197237579895178 0.0 0.0
0.0 0.09420435884490437 -0.07905470094296166 0.07760344700581998 0.0014512539371416046 0.038953639064189166 0.0 0.0
0.0 0.08631130249920003 -0.07267183582833987 0.07135264093034929 0.0013191948979905375 0.033801951401332825 0.0 0.0
0.0 0.07525012622245153 -0.06354626623966826 0.06233450922753829 0.0012117570121299534 0.028821330291171544 0.0 0.0
0.0 0.06377248840983117 -0.05373176831440517 0.052608747750143375 0.0011230205642618033 0.02484975480031708 0.0 0.0
0.0 0.05262599346611009 -0.04429833523452978 0.04324992185358914 0.0010484133809406434 0.021667329987423017 0.0 0.0
0.0 0.04244221674898835 -0.035635675976344074 0.03465597296300792 0.0009797030133361453 0.01878055200608693 0.0 0.0
0.0 0.033192327449691125 -0.027785729650115592 0.026875877254420158 0.0009098523956954245 0.01587264367947552 0.0 0.0
0.0 0.024809240191813995 -0.02070488834710135 0.019869063012194287 0.0008358253349070523 0.012844823958032409 0.0 0.0
0.0 0.017329858794041718 -0.014405999676585882 0.013651499696879095 0.0007544999797067929 0.00968803041611351 0.0 0.0
0.0 0.010920287738508318 -0.009011442515971232 0.008357999580859789 0.0006534429351114476 0.006564598948513745 0.0 0.0
0.0 0.005871099541272183 -0.00475332814414868 0.0042528678927741224 0.0005004602513745577 0.00382995876161606 0.0 0.0
0.0 0.002430684446002623 -0.001891577097510182 0.0016117889123146033 0.0002797881851955792 0.00182212035515692 0.0 0.0
0.0 0.0006434043057850217 -0.0004629996872145399 0.00037885886435665053 8.414082285788928e-05 0.0005957906492973599 0.0 0.0
0.0 0.00010535389844074482 -5.165582019900655e-05 4.177279266700455e-05 9.883027532001911e-06 9.149972933560616e-05 0.0 0.0
0.0 1.4705813596634334e-05 -3.2564497042680446e-06 2.6427516563596103e-06 6.136980479084438e-07 7.811155547705442e-06 0.0 0.0
0.0 8.78650009678172e-07 -7.647572254370838e-08 6.225740461071076e-08 1.4218317932996844e-08 2.675844968270563e-07 0.0 0.0
0.0 0.0 0.0 0.0 0.0 0.0 0.0 0.0
0.0 0.0 0.0 0.0 0.0 0.0 0.0 0.0
0.0 0.0 0.0 0.0 0.0 0.0 0.0 0.0
0.0 0.0 0.0 0.0 0.0 0.0 0.0 0.0
0.0 9.159772724021529e-07 5.630253744311479e-08 -4.536700834069255e-08 -1.0935529102421052e-08 1.5681455061216043e-07 0.0 0.0
0.0 1.1772593740367796e-05 -5.159858492815371e-06 4.15070284347533e-06 1.0091556493400822e-06 -9.488839519645692e-06 0.0 0.0
0.0 0.00017440688997309706 -0.00011483672486436215 9.266494311880276e-05 2.2171781745559404e-05 -0.00014560876522315546 0.0 0.0
0.0 0.0011205719707484778 -0.000870111395646602 0.0007202517241966474 0.0001498596714499548 -0.0007681252817069824 0.0 0.0
0.0 0.0036420944112085926 -0.0029480002313750503 0.002565805950288081 0.0003821942810869691 -0.0020163686246255233 0.0 0.0
0.0 0.007866926878524362 -0.006651198463346484 0.006066631212487964 0.0005845672508585187 -0.004025715808389297 0.0 0.0
0.0 0.013994858298766035 -0.011879330408457657 0.011166000610388492 0.0007133297980691682 -0.0066818736385548935 0.0 0.0
0.0 0.02172185854728581 -0.01842782419855669 0.017617840840487953 0.0008099833580687392 -0.009662365580112768 0.0 0.0
0.0 0.030753330867775496 -0.026097950405531766 0.025201745382294485 0.0008962050232372675 -0.012698594472074618 0.0 0.0
0.0 0.040895617037602805 -0.03475436073487432 0.03377663873268166 0.0009777220021926283 -0.015611172339819441 0.0 0.0
0.0 0.05218290417489952 -0.04436361426809176 0.04330771906769511 0.0010558952003966442 -0.018420219162935556 0.0 0.0
0.0 0.06446246898642734 -0.054963593266841755 0.05383173763635436 0.0011318556304873838 -0.021209398668164077 0.0 0.0
0.0 0.0779522587803558 -0.06652687360155617 0.06531333427463519 0.001213539326920995 -0.024140986258063747 0.0 0.0
0.0 0.09221107959783229 -0.07864049147714287 0.0773246376811003 0.001315853796042543 -0.027657826900803057 0.0 0.0
0.0 0.10544798300358729 -0.08999602718320154 0.0885485430923151 0.0014474840908864088 -0.03225260247407247 0.0 0.0
0.0 0.11495137578886921 -0.09795670266464873 0.09634810438495744 0.001608598279691251 -0.0375831623757357 0.0 0.0
0.0 0.11599207278935254 -0.09843181467448608 0.0966449779688145 0.0017868367056715125 -0.04224502148261269 0.0 0.0
0.0 0.1025769527160721 -0.08597608491685016 0.0840074282233762 0.0019686566934739493 -0.0452756923957045 0.0 0.0
0.0 0.10257695271607155 -0.08597608491684347 0.0840074282233697 0.0019686566934736765 0.04527569239575282 0.0 0.0
0.0 0.11599207278933354 -0.09843181467446303 0.09664497796879182 0.0017868367056711903 0.04224502148267199 0.0 0.0
0.0 0.11495137578882984 -0.09795670266460979 0.09634810438491925 0.0016085982796905122 0.037583162375778856 0.0 0.0
0.0 0.10544798300352819 -0.08999602718314852 0.08854854309226265 0.0014474840908858325 0.03225260247408278 0.0 0.0
0.0 0.0922110795977663 -0.07864049147708516 0.07732463768104349 0.0013158537960416329 0.027657826900796805 0.0 0.0
0.0 0.07795225878028789 -0.06652687360149688 0.06531333427457697 0.0012135393269198708 0.024140986258054754 0.0 0.0
0.0 0.06446246898635805 -0.05496359326678179 0.05383173763629508 0.0011318556304866939 0.02120939866814888 0.0 0.0
0.0 0.052182904174829674 -0.044363614268031044 0.04330771906763494 0.0010558952003960674 0.018420219162920564 0.0 0.0
0.0 0.040895617037532 -0.03475436073481346 0.03377663873262078 0.0009777220021926578 0.015611172339799275 0.0 0.0
0.0 0.03075333086771391 -0.02609795040547969 0.025201745382242673 0.0008962050232370137 0.012698594472048397 0.0 0.0
0.0 0.021721858547231694 -0.018427824198511175 0.01761784084044283 0.000809983358068338 0.009662365580086638 0.0 0.0
0.0 0.013994858298725339 -0.011879330408422949 0.011166000610354351 0.0007133297980686012 0.006681873638537346 0.0 0.0
0.0 0.007866926878495231 -0.0066511984633217235 0.006066631212464182 0.0005845672508575392 0.004025715808375785 0.0 0.0
0.0 0.003642094411191009 -0.0029480002313607575 0.0025658059502750062 0.0003821942810857523 0.002016368624616573 0.0 0.0
0.0 0.0011205719707398215 -0.0008701113956402402 0.000720251724191213 0.00014985967144902693 0.0007681252817017703 0.0 0.0
0.0 0.0001744068899705661 -0.00011483672486326792 9.266494311789509e-05 2.2171781745372776e-05 0.00014560876522182504 0.0 0.0
0.0 1.1772593740112565e-05 -5.1598584930539116e-06 4.150702843662918e-06 1.009155649390973e-06 9.488839520075727e-06 0.0 0.0
0.0 9.159772720464821e-07 5.630253742091469e-08 -4.5367008322703315e-08 -1.0935529098212496e-08 -1.5681455054918204e-07 0.0 0.0
0.0 0.0 0.0 0.0 0.0 0.0 0.0 0.0
0.0 0.0 0.0 0.0 0.0 0.0 0.0 0.0
0.0 0.0 0.0 0.0 0.0 0.0 0.0 0.0
0.0 0.0 0.0 0.0 0.0 0.0 0.0 0.0
0.0 2.633745482838499e-07 1.9034837468267232e-08 -1.5232417022672714e-08 -3.80242044559584e-09 3.959451352121644e-08 0.0 0.0
0.0 1.1672100546920054e-05 -6.514529260261023e-06 5.196004838816312e-06 1.3185244214447303e-06 -8.846162405724382e-06 0.0 0.0
0.0 0.0003156814733185412 -0.00023441737798822061 0.00018955723672117194 4.4860141267048814e-05 -0.00020644991243122627 0.0 0.0
0.0 0.0017815866807417069 -0.001431017720825843 0.001202859636020413 0.0002281580848054308 -0.000860106005784101 0.0 0.0
0.0 0.004837196074512673 -0.004182465726627371 0.003711436965323332 0.00047102876130404093 -0.002046054033814766 0.0 0.0
0.0 0.00998251084218333 -0.008652263302719709 0.008009112469094111 0.0006431508336255979 -0.003866955074721352 0.0 0.0
0.0 0.017184259565706215 -0.01480277035201873 0.01404398904846113 0.000758781303557598 -0.006219538325797061 0.0 0.0
0.0 0.026169255166994997 -0.022492687262694586 0.021636219590870878 0.0008564676718237275 -0.008900138252859765 0.0 0.0
0.0 0.03672325778977875 -0.03152634594696173 0.03057763128049733 0.0009487146664643809 -0.01163225756856175 0.0 0.0
0.0 0.04865972497919738 -0.041761948002122046 0.0407234696461783 0.0010384783559437378 -0.014259399114077453 0.0 0.0
0.0 0.06189188136846015 -0.05314255792062299 0.052016875495167876 0.0011256824254550935 -0.01682140502038438 0.0 0.0
0.0 0.07645517223493208 -0.06566232533303179 0.06445104188878739 0.0012112834442443883 -0.01934452543932661 0.0 0.0
0.0 0.09224043471422913 -0.07926217056080437 0.07796198651484981 0.0013001840459545566 -0.02182192046840143 0.0 0.0
0.0 0.10857149848701043 -0.09352366339803042 0.09211334559355744 0.0014103178044729302 -0.02444956299670439 0.0 0.0
0.0 0.12425392197876495 -0.10701112131544031 0.10544869291016094 0.0015624284052793435 -0.02795950389364551 0.0 0.0
0.0 0.13563819063680993 -0.11664007799789973 0.11489159838546549 0.0017484796124342587 -0.03321515533062587 0.0 0.0
0.0 0.13743812390560584 -0.11768177697558635 0.11573722494154046 0.0019445520340458605 -0.04040312430900619 0.0 0.0
0.0 0.12334919737495749 -0.10417323561876142 0.10204955408448965 0.002123681534271654 -0.049482911551236554 0.0 0.0
0.0 0.12334919737495073 -0.10417323561875039 0.10204955408447833 0.0021236815342720794 0.04948291155128133 0.0 0.0
0.0 0.13743812390557753 -0.11768177697555683 0.11573722494151126 0.0019445520340456157 0.040403124309060456 0.0 0.0
0.0 0.13563819063675878 -0.11664007799785238 0.1148915983854186 0.001748479612433678 0.033215155330662965 0.0 0.0
0.0 0.12425392197869883 -0.10701112131538187 0.10544869291010295 0.001562428405278969 0.027959503893655584 0.0 0.0
0.0 0.10857149848693051 -0.09352366339796093 0.09211334559348829 0.001410317804472597 0.024449562996699474 0.0 0.0
0.0 0.09224043471414467 -0.07926217056073137 0.07796198651477694 0.0013001840459544276 0.021821920468391917 0.0 0.0
0.0 0.07645517223484806 -0.0656623253329594 0.06445104188871525 0.0012112834442440628 0.01934452543931255 0.0 0.0
0.0 0.061891881368378865 -0.05314255792055265 0.0520168754950981 0.0011256824254545492 0.016821405020369492 0.0 0.0
0.0 0.04865972497911649 -0.04176194800205188 0.04072346964610875 0.0010384783559431673 0.014259399114060146 0.0 0.0
0.0 0.03672325778970546 -0.03152634594689861 0.03057763128043492 0.0009487146664636797 0.011632257568536974 0.0 0.0
0.0 0.02616925516693199 -0.022492687262640445 0.021636219590817414 0.0008564676718230137 0.008900138252835917 0.0 0.0
0.0 0.017184259565657643 -0.014802770351976621 0.014043989048419539 0.0007587813035570837 0.006219538325781114 0.0 0.0
0.0 0.009982510842149253 -0.008652263302690063 0.00800911246906524 0.0006431508336248217 0.0038669550747089873 0.0 0.0
0.0 0.004837196074491902 -0.004182465726609537 0.0037114369653065797 0.00047102876130295776 0.002046054033806519 0.0 0.0
0.0 0.0017815866807310726 -0.0014310177208177424 0.0012028596360133118 0.0002281580848044305 0.0008601060057794481 0.0 0.0
0.0 0.0003156814733153189 -0.00023441737798647995 0.0001895572367197541 4.48601412667256e-05 0.00020644991242990554 0.0 0.0
0.0 1.1672100546573496e-05 -6.514529260584321e-06 5.1960048390653945e-06 1.3185244215189383e-06 8.846162406135757e-06 0.0 0.0
0.0 2.633745479801639e-07 1.90348374459991e-08 -1.5232417004860948e-08 -3.802420441135515e-09 -3.959451347502403e-08 0.0 0.0
0.0 0.0 0.0 0.0 0.0 0.0 0.0 0.0
0.0 0.0 0.0 0.0 0.0 0.0 0.0 0.0
0.0 0.0 0.0 0.0 0.0 0.0 0.0 0.0
0.0 0.0 0.0 0.0 0.0 0.0 0.0 0.0
0.0 0.0 0.0 0.0 0.0 0.0 0.0 0.0
0.0 1.731535987374814e-05 -1.1507148806314037e-05 9.197559176693401e-06 2.309589629620623e-06 -1.1138394699409865e-05 0.0 0.0
0.0 0.000570545228567247 -0.0004437781572924455 0.0003605868515760336 8.319130571641166e-05 -0.000251161557380191 0.0 0.0
0.0 0.002558021776313538 -0.0021428069618367176 0.0018305608267712946 0.00031224613506542235 -0.0008462169529550744 0.0 0.0
0.0 0.006232702254368662 -0.005517553379322535 0.004976515246852305 0.0005410381324702282 -0.0018226664824542366 0.0 0.0
0.0 0.012221033940289918 -0.010698116341970265 0.010012207810447645 0.0006859085315226211 -0.0032882668631404486 0.0 0.0
0.0 0.020415342204934097 -0.017750530954971696 0.01695514494637649 0.0007953860085951952 -0.005210656588526063 0.0 0.0
0.0 0.030652721520517668 -0.026563867486874955 0.02566757836703307 0.0008962891198418808 -0.007414119312807476 0.0 0.0
0.0 0.04273914018310144 -0.036953888207925126 0.03595848663800668 0.000995401569918406 -0.009666899033526858 0.0 0.0
0.0 0.056412244959479635 -0.048772705515780904 0.0476793692138647 0.001093336301916196 -0.011829830463698766 0.0 0.0
0.0 0.07174416908572749 -0.061933433827476306 0.060742966340762816 0.0011904674867134564 -0.013951615284961074 0.0 0.0
0.0 0.08831593966604054 -0.07636594324074206 0.07507843283673524 0.00128751040400681 -0.016079209752817125 0.0 0.0
0.0 0.10619660311704313 -0.09189867469305632 0.09051199914497432 0.0013866755480820318 -0.018020402863454053 0.0 0.0
0.0 0.1248182205030053 -0.10805294099999373 0.10655303212011533 0.0014999088798783727 -0.019510152482700403 0.0 0.0
0.0 0.14260883882098752 -0.12348395764651189 0.12183021222136012 0.0016537454251517305 -0.02123201191759835 0.0 0.0
0.0 0.15608272241016924 -0.1350374113384565 0.13316818208692893 0.0018692292515274963 -0.025797904721910556 0.0 0.0
0.0 0.15931145853672668 -0.1372800591855434 0.13518673601570602 0.0020933231698374447 -0.03600721135360324 0.0 0.0
0.0 0.14536893824999308 -0.12334748680241518 0.12105739411211242 0.0022900926903027213 -0.05304524572375817 0.0 0.0
0.0 0.14536893824998298 -0.12334748680240247 0.12105739411210001 0.002290092690302455 0.0530452457237922 0.0 0.0
0.0 0.15931145853668777 -0.13728005918550665 0.13518673601566922 0.0020933231698374083 0.03600721135364895 0.0 0.0
0.0 0.1560827224101074 -0.13503741133840108 0.13316818208687367 0.0018692292515273955 0.025797904721944487 0.0 0.0
0.0 0.1426088388209114 -0.12348395764644511 0.12183021222129461 0.0016537454251505444 0.021232011917605625 0.0 0.0
0.0 0.12481822050291487 -0.10805294099991516 0.1065530321200374 0.0014999088798777357 0.0195101524826986 0.0 0.0
0.0 0.10619660311695157 -0.09189867469297663 0.09051199914489533 0.0013866755480813693 0.018020402863450614 0.0 0.0
0.0 0.08831593966594761 -0.07636594324066148 0.0750784328366553 0.001287510404006141 0.016079209752807598 0.0 0.0
0.0 0.07174416908563622 -0.06193343382739691 0.06074296634068426 0.0011904674867126847 0.013951615284950978 0.0 0.0
0.0 0.05641224495938957 -0.04877270551570272 0.04767936921378729 0.0010933363019154 0.011829830463687172 0.0 0.0
0.0 0.04273914018301996 -0.03695388820785449 0.03595848663793632 0.0009954015699181534 0.009666899033507561 0.0 0.0
0.0 0.03065272152044842 -0.02656386748681503 0.025667578366973424 0.0008962891198416136 0.00741411931278752 0.0 0.0
0.0 0.020415342204881302 -0.017750530954925615 0.016955144946330918 0.0007953860085946942 0.005210656588513054 0.0 0.0
0.0 0.01222103394025241 -0.010698116341937335 0.01001220781041529 0.0006859085315220464 0.003288266863130003 0.0 0.0
0.0 0.006232702254344466 -0.005517553379301149 0.004976515246831834 0.0005410381324693184 0.0018226664824469887 0.0 0.0
0.0 0.002558021776299925 -0.002142806961825356 0.0018305608267611072 0.0003122461350642476 0.000846216952950494 0.0 0.0
0.0 0.000570545228561958 -0.0004437781572887095 0.00036058685157293335 8.319130571577637e-05 0.00025116155737829496 0.0 0.0
0.0 1.7315359873412414e-05 -1.1507148806748535e-05 9.197559177022484e-06 2.3095896297260604e-06 1.1138394699761699e-05 0.0 0.0
0.0 0.0 0.0 0.0 0.0 0.0 0.0 0.0
0.0 0.0 0.0 0.0 0.0 0.0 0.0 0.0
0.0 0.0 0.0 0.0 0.0 0.0 0.0 0.0
0.0 0.0 0.0 0.0 0.0 0.0 0.0 0.0
0.0 0.0 0.0 0.0 0.0 0.0 0.0 0.0
0.0 0.0 0.0 0.0 0.0 0.0 0.0 0.0
0.0 4.051706039098883e-05 -2.8775771754674823e-05 2.2947376117340244e-05 5.8283956373346095e-06 -1.7104947056635592e-05 0.0 0.0
0.0 0.0009697108865835618 -0.0007649211133446126 0.0006281202728797346 0.00013680084046487797 -0.0002477367075272666 0.0 0.0
0.0 0.0032978303143760593 -0.0029858914178836266 0.0025916306465835494 0.00039426077130007503 -0.0006746441483507389 0.0 0.0
0.0 0.00775882828363816 -0.006904130463229714 0.006312416253034106 0.0005917142101956121 -0.0013374208451587524 0.0 0.0
0.0 0.014503327134904351 -0.012764995761357164 0.012045694072424812 0.000719301688932357 -0.0023308280455945764 0.0 0.0
0.0 0.023666541968811027 -0.020689644888890767 0.01986443006773791 0.0008252148211528506 -0.0036614753749379197 0.0 0.0
0.0 0.03514051813447429 -0.030607498955259972 0.029676911327485928 0.0009305876277740422 -0.005210753534106387 0.0 0.0
0.0 0.048735979364242614 -0.04234778330992212 0.04131071319389694 0.0010370701160251883 -0.006797178433026 0.0 0.0
0.0 0.0643122555180339 -0.05575114345293411 0.05460760583849143 0.001143537614442667 -0.00832126032944658 0.0 0.0
0.0 0.08143906453506052 -0.07070000586110166 0.06944918583109932 0.0012508200300023373 -0.009847190061901137 0.0 0.0
0.0 0.10022524516199671 -0.08703137522662625 0.0856710473744058 0.0013603278522204259 -0.011364650104153521 0.0 0.0
0.0 0.12028219247071045 -0.10441956695028481 0.10294619429394605 0.0014733726563387404 -0.012647036712494092 0.0 0.0
0.0 0.14078112159507414 -0.1222237587589964 0.12063150362572819 0.0015922551332681679 -0.013237253914916137 0.0 0.0
0.0 0.1603009544732335 -0.13920115483559914 0.13746939212288767 0.0017317627127115545 -0.013091376810079347 0.0 0.0
0.0 0.17596706427450778 -0.15275878814099986 0.150827907674711 0.0019308804662887917 -0.01515112011732002 0.0 0.0
0.0 0.18188367173717507 -0.1574084208657153 0.15516166283791383 0.0022467580278013807 -0.027488041542641048 0.0 0.0
0.0 0.16920851126397277 -0.14416430414783615 0.1416794454946391 0.002484858653196988 -0.05517506976442493 0.0 0.0
0.0 0.16920851126395692 -0.1441643041478201 0.14167944549462297 0.0024848586531971283 0.05517506976444936 0.0 0.0
0.0 0.1818836717371349 -0.15740842086567844 0.1551616628378778 0.0022467580278005706 0.027488041542678164 0.0 0.0
0.0 0.17596706427444134 -0.15275878814094096 0.15082790767465376 0.001930880466287261 0.015151120117346404 0.0 0.0
0.0 0.16030095447314352 -0.13920115483552062 0.13746939212281006 0.0017317627127105392 0.013091376810082513 0.0 0.0
0.0 0.1407811215949704 -0.12222375875890638 0.12063150362563878 0.0015922551332676238 0.013237253914913394 0.0 0.0
0.0 0.12028219247060817 -0.10441956695019547 0.10294619429385835 0.0014733726563371436 0.012647036712492808 0.0 0.0
0.0 0.10022524516189019 -0.08703137522653365 0.08567104737431425 0.001360327852219353 0.011364650104148161 0.0 0.0
0.0 0.08143906453495076 -0.07070000586100664 0.06944918583100457 0.0012508200300020667 0.009847190061892767 0.0 0.0
0.0 0.06431225551793193 -0.055751143452845334 0.05460760583840333 0.0011435376144420034 0.008321260329438716 0.0 0.0
0.0 0.04873597936415129 -0.04234778330984272 0.0413107131938186 0.0010370701160241178 0.00679717843301106 0.0 0.0
0.0 0.03514051813439989 -0.030607498955195107 0.029676911327422013 0.0009305876277731034 0.005210753534091847 0.0 0.0
0.0 0.023666541968753473 -0.020689644888839953 0.01986443006768788 0.000825214821152071 0.0036614753749299664 0.0 0.0
0.0 0.014503327134860987 -0.01276499576131879 0.012045694072387206 0.0007193016889315762 0.0023308280455878573 0.0 0.0
0.0 0.007758828283610135 -0.006904130463204571 0.006312416253009859 0.0005917142101947092 0.00133742084515358 0.0 0.0
0.0 0.003297830314360128 -0.00298589141786929 0.002591630646570357 0.00039426077129893326 0.0006746441483473718 0.0 0.0
0.0 0.0009697108865766796 -0.0007649211133393801 0.000628120272875292 0.0001368008404640875 0.00024773670752575416 0.0 0.0
0.0 4.051706039020753e-05 -2.8775771754858697e-05 2.2947376117467272e-05 5.8283956373913725e-06 1.710494705669645e-05 0.0 0.0
0.0 0.0 0.0 0.0 0.0 0.0 0.0 0.0
0.0 0.0 0.0 0.0 0.0 0.0 0.0 0.0
0.0 0.0 0.0 0.0 0.0 0.0 0.0 0.0
0.0 0.0 0.0 0.0 0.0 0.0 0.0 0.0
0.0 0.0 0.0 0.0 0.0 0.0 0.0 0.0
0.0 0.0 0.0 0.0 0.0 0.0 0.0 0.0
0.0 0.00011670686030894971 -9.492529128833467e-05 7.533772124394127e-05 1.9587570044393525e-05 -2.3896577138996963e-05 0.0 0.0
0.0 0.0015205786627326015 -0.0011958011781216013 0.0009933697890199115 0.00020243138910168939 -0.0001521987267893528 0.0 0.0
0.0 0.004294236133378924 -0.003887728728362516 0.0034250691979569644 0.0004626595304055527 -0.00032008241696712756 0.0 0.0
0.0 0.00933885343033757 -0.00832140747094771 0.007690881247220983 0.0006305262237267258 -0.0005895192334443862 0.0 0.0
0.0 0.01682571442418209 -0.014823769885470555 0.014078457563764031 0.000745312321706516 -0.0009980782963725926 0.0 0.0
0.0 0.026938151603147435 -0.023587672613436243 0.022737497341618756 0.0008501752718174829 -0.0015806110878592902 0.0 0.0
0.0 0.039659388506199794 -0.034588730496978484 0.03362863055335731 0.0009600999436211614 -0.002287613666515212 0.0 0.0
0.0 0.054838707156468575 -0.0476756871181172 0.046601638281520835 0.0010740488365963588 -0.0030241179348822075 0.0 0.0
0.0 0.07198599609557607 -0.06267166663168947 0.06148178752149412 0.0011898791101953373 -0.0037507179204081718 0.0 0.0
0.0 0.09119874245160745 -0.079394072145368 0.0780867929166826 0.0013072792286854264 -0.004471156549468703 0.0 0.0
0.0 0.112189855706722 -0.09759875746369481 0.09616994678975511 0.0014288106739396452 -0.005147080256024189 0.0 0.0
0.0 0.13434350968092088 -0.11681395934034491 0.11525750554029193 0.0015564538000530747 -0.005645281632775635 0.0 0.0
0.0 0.15666548655807802 -0.13616005613100754 0.13447120898383713 0.0016888471471703435 -0.005642566643325516 0.0 0.0
0.0 0.17752770087287564 -0.1542546852591355 0.1524325230193844 0.0018221622397510883 -0.0047103650335383745 0.0 0.0
0.0 0.19458248659091504 -0.1690787354849728 0.16711038137114684 0.0019683541138257876 -0.0035937599269848337 0.0 0.0
0.0 0.2039445362751174 -0.17702830693025573 0.1748261774370679 0.0022021294931876796 -0.011099400615539011 0.0 0.0
0.0 0.19648793755025754 -0.1684436813237353 0.1655854287189022 0.0028582526048330456 -0.050912446938071745 0.0 0.0
0.0 0.19648793755023886 -0.1684436813237185 0.16558542871888526 0.0028582526048331483 0.05091244693808015 0.0 0.0
0.0 0.2039445362750588 -0.1770283069302054 0.17482617743701617 0.0022021294931891043 0.011099400615558197 0.0 0.0
0.0 0.19458248659082947 -0.1690787354848988 0.16711038137107273 0.0019683541138260266 0.003593759926996544 0.0 0.0
0.0 0.17752770087277356 -0.15425468525904695 0.15243252301929652 0.0018221622397504521 0.00471036503353581 0.0 0.0
0.0 0.1566654865579611 -0.13616005613090645 0.134471208983736 0.001688847147170362 0.005642566643323267 0.0 0.0
0.0 0.13434350968079994 -0.11681395934024058 0.11525750554018702 0.001556453800053483 0.005645281632775241 0.0 0.0
0.0 0.11218985570660638 -0.0975987574635943 0.09616994678965568 0.0014288106739385464 0.005147080256021163 0.0 0.0
0.0 0.09119874245149301 -0.07939407214526849 0.07808679291658423 0.001307279228684233 0.004471156549465701 0.0 0.0
0.0 0.07198599609546391 -0.06267166663159199 0.061481787521397616 0.001189879110194346 0.0037507179204055337 0.0 0.0
0.0 0.054838707156368675 -0.04767568711803029 0.046601638281434724 0.001074048836595572 0.0030241179348750556 0.0 0.0
0.0 0.039659388506116666 -0.03458873049690631 0.03362863055328593 0.0009600999436203908 0.0022876136665086816 0.0 0.0
0.0 0.026938151603082293 -0.02358767261337906 0.022737497341562253 0.0008501752718167986 0.001580611087856372 0.0 0.0
0.0 0.016825714424133043 -0.014823769885427083 0.014078457563721104 0.0007453123217059659 0.000998078296369434 0.0 0.0
0.0 0.009338853430304606 -0.008321407470918337 0.007690881247192196 0.0006305262237261391 0.0005895192334424836 0.0 0.0
0.0 0.004294236133359473 -0.00388772872834472 0.0034250691979401207 0.00046265953040459837 0.0003200824169655178 0.0 0.0
0.0 0.0015205786627237143 -0.0011958011781145867 0.0009933697890138025 0.0002024313891007849 0.00015219872678867192 0.0 0.0
0.0 0.00011670686030744443 -9.492529128765028e-05 7.533772124337527e-05 1.958757004427494e-05 2.3896577138795972e-05 0.0 0.0
0.0 0.0 0.0 0.0 0.0 0.0 0.0 0.0
0.0 0.0 0.0 0.0 0.0 0.0 0.0 0.0
0.0 0.0 0.0 0.0 0.0 0.0 0.0 0.0