# vtk DataFile Version 3.0
Some data
ASCII
DATASET UNSTRUCTURED_GRID
POINTS 861 float
0.0 0.0 0.0
0.4 0.0 0.0
0.8 0.0 0.0
1.2000000000000002 0.0 0.0
1.6 0.0 0.0
2.0 0.0 0.0
2.4000000000000004 0.0 0.0
2.8000000000000003 0.0 0.0
3.2 0.0 0.0
3.6 0.0 0.0
4.0 0.0 0.0
4.4 0.0 0.0
4.800000000000001 0.0 0.0
5.2 0.0 0.0
5.6000000000000005 0.0 0.0
6.0 0.0 0.0
6.4 0.0 0.0
6.800000000000001 0.0 0.0
7.2 0.0 0.0
7.6000000000000005 0.0 0.0
8.0 0.0 0.0
8.4 0.0 0.0
8.8 0.0 0.0
9.200000000000001 0.0 0.0
9.600000000000001 0.0 0.0
10.0 0.0 0.0
10.4 0.0 0.0
10.8 0.0 0.0
11.200000000000001 0.0 0.0
11.600000000000001 0.0 0.0
12.0 0.0 0.0
12.4 0.0 0.0
12.8 0.0 0.0
13.200000000000001 0.0 0.0
13.600000000000001 0.0 0.0
14.0 0.0 0.0
14.4 0.0 0.0
14.8 0.0 0.0
15.200000000000001 0.0 0.0
15.600000000000001 0.0 0.0
16.0 0.0 0.0
0.0 0.1 0.0
0.4 0.1 0.0
0.8 0.1 0.0
1.2000000000000002 0.1 0.0
1.6 0.1 0.0
2.0 0.1 0.0
2.4000000000000004 0.1 0.0
2.8000000000000003 0.1 0.0
3.2 0.1 0.0
3.6 0.1 0.0
4.0 0.1 0.0
4.4 0.1 0.0
4.800000000000001 0.1 0.0
5.2 0.1 0.0
5.6000000000000005 0.1 0.0
6.0 0.1 0.0
6.4 0.1 0.0
6.800000000000001 0.1 0.0
7.2 0.1 0.0
7.6000000000000005 0.1 0.0
8.0 0.1 0.0
8.4 0.1 0.0
8.8 0.1 0.0
9.200000000000001 0.1 0.0
9.600000000000001 0.1 0.0
10.0 0.1 0.0
10.4 0.1 0.0
10.8 0.1 0.0
11.200000000000001 0.1 0.0
11.600000000000001 0.1 0.0
12.0 0.1 0.0
12.4 0.1 0.0
12.8 0.1 0.0
13.200000000000001 0.1 0.0
13.600000000000001 0.1 0.0
14.0 0.1 0.0
14.4 0.1 0.0
14.8 0.1 0.0
15.200000000000001 0.1 0.0
15.600000000000001 0.1 0.0
16.0 0.1 0.0
0.0 0.2 0.0
0.4 0.2 0.0
0.8 0.2 0.0
1.2000000000000002 0.2 0.0
1.6 0.2 0.0
2.0 0.2 0.0
2.4000000000000004 0.2 0.0
2.8000000000000003 0.2 0.0
3.2 0.2 0.0
3.6 0.2 0.0
4.0 0.2 0.0
4.4 0.2 0.0
4.800000000000001 0.2 0.0
5.2 0.2 0.0
5.6000000000000005 0.2 0.0
6.0 0.2 0.0
6.4 0.2 0.0
6.800000000000001 0.2 0.0
7.2 0.2 0.0
7.6000000000000005 0.2 0.0
8.0 0.2 0.0
8.4 0.2 0.0
8.8 0.2 0.0
9.200000000000001 0.2 0.0
9.600000000000001 0.2 0.0
10.0 0.2 0.0
10.4 0.2 0.0
10.8 0.2 0.0
11.200000000000001 0.2 0.0
11.600000000000001 0.2 0.0
12.0 0.2 0.0
12.4 0.2 0.0
12.8 0.2 0.0
13.200000000000001 0.2 0.0
13.600000000000001 0.2 0.0
14.0 0.2 0.0
14.4 0.2 0.0
14.8 0.2 0.0
15.200000000000001 0.2 0.0
15.600000000000001 0.2 0.0
16.0 0.2 0.0
0.0 0.30000000000000004 0.0
0.4 0.30000000000000004 0.0
0.8 0.30000000000000004 0.0
1.2000000000000002 0.30000000000000004 0.0
1.6 0.30000000000000004 0.0
2.0 0.30000000000000004 0.0
2.4000000000000004 0.30000000000000004 0.0
2.8000000000000003 0.30000000000000004 0.0
3.2 0.30000000000000004 0.0
3.6 0.30000000000000004 0.0
4.0 0.30000000000000004 0.0
4.4 0.30000000000000004 0.0
4.800000000000001 0.30000000000000004 0.0
5.2 0.30000000000000004 0.0
5.6000000000000005 0.30000000000000004 0.0
6.0 0.30000000000000004 0.0
6.4 0.30000000000000004 0.0
6.800000000000001 0.30000000000000004 0.0
7.2 0.30000000000000004 0.0
7.6000000000000005 0.30000000000000004 0.0
8.0 0.30000000000000004 0.0
8.4 0.30000000000000004 0.0
8.8 0.30000000000000004 0.0
9.200000000000001 0.30000000000000004 0.0
9.600000000000001 0.30000000000000004 0.0
10.0 0.30000000000000004 0.0
10.4 0.30000000000000004 0.0
10.8 0.30000000000000004 0.0
11.200000000000001 0.30000000000000004 0.0
11.600000000000001 0.30000000000000004 0.0
12.0 0.30000000000000004 0.0
12.4 0.30000000000000004 0.0
12.8 0.30000000000000004 0.0
13.200000000000001 0.30000000000000004 0.0
13.600000000000001 0.30000000000000004 0.0
14.0 0.30000000000000004 0.0
14.4 0.30000000000000004 0.0
14.8 0.30000000000000004 0.0
15.200000000000001 0.30000000000000004 0.0
15.600000000000001 0.30000000000000004 0.0
16.0 0.30000000000000004 0.0
0.0 0.4 0.0
0.4 0.4 0.0
0.8 0.4 0.0
1.2000000000000002 0.4 0.0
1.6 0.4 0.0
2.0 0.4 0.0
2.4000000000000004 0.4 0.0
2.8000000000000003 0.4 0.0
3.2 0.4 0.0
3.6 0.4 0.0
4.0 0.4 0.0
4.4 0.4 0.0
4.800000000000001 0.4 0.0
5.2 0.4 0.0
5.6000000000000005 0.4 0.0
6.0 0.4 0.0
6.4 0.4 0.0
6.800000000000001 0.4 0.0
7.2 0.4 0.0
7.6000000000000005 0.4 0.0
8.0 0.4 0.0
8.4 0.4 0.0
8.8 0.4 0.0
9.200000000000001 0.4 0.0
9.600000000000001 0.4 0.0
10.0 0.4 0.0
10.4 0.4 0.0
10.8 0.4 0.0
11.200000000000001 0.4 0.0
11.600000000000001 0.4 0.0
12.0 0.4 0.0
12.4 0.4 0.0
12.8 0.4 0.0
13.200000000000001 0.4 0.0
13.600000000000001 0.4 0.0
14.0 0.4 0.0
14.4 0.4 0.0
14.8 0.4 0.0
15.200000000000001 0.4 0.0
15.600000000000001 0.4 0.0
16.0 0.4 0.0
0.0 0.5 0.0
0.4 0.5 0.0
0.8 0.5 0.0
1.2000000000000002 0.5 0.0
1.6 0.5 0.0
2.0 0.5 0.0
2.4000000000000004 0.5 0.0
2.8000000000000003 0.5 0.0
3.2 0.5 0.0
3.6 0.5 0.0
4.0 0.5 0.0
4.4 0.5 0.0
4.800000000000001 0.5 0.0
5.2 0.5 0.0
5.6000000000000005 0.5 0.0
6.0 0.5 0.0
6.4 0.5 0.0
6.800000000000001 0.5 0.0
7.2 0.5 0.0
7.6000000000000005 0.5 0.0
8.0 0.5 0.0
8.4 0.5 0.0
8.8 0.5 0.0
9.200000000000001 0.5 0.0
9.600000000000001 0.5 0.0
10.0 0.5 0.0
10.4 0.5 0.0
10.8 0.5 0.0
11.200000000000001 0.5 0.0
11.600000000000001 0.5 0.0
12.0 0.5 0.0
12.4 0.5 0.0
12.8 0.5 0.0
13.200000000000001 0.5 0.0
13.600000000000001 0.5 0.0
14.0 0.5 0.0
14.4 0.5 0.0
14.8 0.5 0.0
15.200000000000001 0.5 0.0
15.600000000000001 0.5 0.0
16.0 0.5 0.0
0.0 0.6000000000000001 0.0
0.4 0.6000000000000001 0.0
0.8 0.6000000000000001 0.0
1.2000000000000002 0.6000000000000001 0.0
1.6 0.6000000000000001 0.0
2.0 0.6000000000000001 0.0
2.4000000000000004 0.6000000000000001 0.0
2.8000000000000003 0.6000000000000001 0.0
3.2 0.6000000000000001 0.0
3.6 0.6000000000000001 0.0
4.0 0.6000000000000001 0.0
4.4 0.6000000000000001 0.0
4.800000000000001 0.6000000000000001 0.0
5.2 0.6000000000000001 0.0
5.6000000000000005 0.6000000000000001 0.0
6.0 0.6000000000000001 0.0
6.4 0.6000000000000001 0.0
6.800000000000001 0.6000000000000001 0.0
7.2 0.6000000000000001 0.0
7.6000000000000005 0.6000000000000001 0.0
8.0 0.6000000000000001 0.0
8.4 0.6000000000000001 0.0
8.8 0.6000000000000001 0.0
9.200000000000001 0.6000000000000001 0.0
9.600000000000001 0.6000000000000001 0.0
10.0 0.6000000000000001 0.0
10.4 0.6000000000000001 0.0
10.8 0.6000000000000001 0.0
11.200000000000001 0.6000000000000001 0.0
11.600000000000001 0.6000000000000001 0.0
12.0 0.6000000000000001 0.0
12.4 0.6000000000000001 0.0
12.8 0.6000000000000001 0.0
13.200000000000001 0.6000000000000001 0.0
13.600000000000001 0.6000000000000001 0.0
14.0 0.6000000000000001 0.0
14.4 0.6000000000000001 0.0
14.8 0.6000000000000001 0.0
15.200000000000001 0.6000000000000001 0.0
15.600000000000001 0.6000000000000001 0.0
16.0 0.6000000000000001 0.0
0.0 0.7000000000000001 0.0
0.4 0.7000000000000001 0.0
0.8 0.7000000000000001 0.0
1.2000000000000002 0.7000000000000001 0.0
1.6 0.7000000000000001 0.0
2.0 0.7000000000000001 0.0
2.4000000000000004 0.7000000000000001 0.0
2.8000000000000003 0.7000000000000001 0.0
3.2 0.7000000000000001 0.0
3.6 0.7000000000000001 0.0
4.0 0.7000000000000001 0.0
4.4 0.7000000000000001 0.0
4.800000000000001 0.7000000000000001 0.0
5.2 0.7000000000000001 0.0
5.6000000000000005 0.7000000000000001 0.0
6.0 0.7000000000000001 0.0
6.4 0.7000000000000001 0.0
6.800000000000001 0.7000000000000001 0.0
7.2 0.7000000000000001 0.0
7.6000000000000005 0.7000000000000001 0.0
8.0 0.7000000000000001 0.0
8.4 0.7000000000000001 0.0
8.8 0.7000000000000001 0.0
9.200000000000001 0.7000000000000001 0.0
9.600000000000001 0.7000000000000001 0.0
10.0 0.7000000000000001 0.0
10.4 0.7000000000000001 0.0
10.8 0.7000000000000001 0.0
11.200000000000001 0.7000000000000001 0.0
11.600000000000001 0.7000000000000001 0.0
12.0 0.7000000000000001 0.0
12.4 0.7000000000000001 0.0
12.8 0.7000000000000001 0.0
13.200000000000001 0.7000000000000001 0.0
13.600000000000001 0.7000000000000001 0.0
14.0 0.7000000000000001 0.0
14.4 0.7000000000000001 0.0
14.8 0.7000000000000001 0.0
15.200000000000001 0.7000000000000001 0.0
15.600000000000001 0.7000000000000001 0.0
16.0 0.7000000000000001 0.0
0.0 0.8 0.0
0.4 0.8 0.0
0.8 0.8 0.0
1.2000000000000002 0.8 0.0
1.6 0.8 0.0
2.0 0.8 0.0
2.4000000000000004 0.8 0.0
2.8000000000000003 0.8 0.0
3.2 0.8 0.0
3.6 0.8 0.0
4.0 0.8 0.0
4.4 0.8 0.0
4.800000000000001 0.8 0.0
5.2 0.8 0.0
5.6000000000000005 0.8 0.0
6.0 0.8 0.0
6.4 0.8 0.0
6.800000000000001 0.8 0.0
7.2 0.8 0.0
7.6000000000000005 0.8 0.0
8.0 0.8 0.0
8.4 0.8 0.0
8.8 0.8 0.0
9.200000000000001 0.8 0.0
9.600000000000001 0.8 0.0
10.0 0.8 0.0
10.4 0.8 0.0
10.8 0.8 0.0
11.200000000000001 0.8 0.0
11.600000000000001 0.8 0.0
12.0 0.8 0.0
12.4 0.8 0.0
12.8 0.8 0.0
13.200000000000001 0.8 0.0
13.600000000000001 0.8 0.0
14.0 0.8 0.0
14.4 0.8 0.0
14.8 0.8 0.0
15.200000000000001 0.8 0.0
15.600000000000001 0.8 0.0
16.0 0.8 0.0
0.0 0.9 0.0
0.4 0.9 0.0
0.8 0.9 0.0
1.2000000000000002 0.9 0.0
1.6 0.9 0.0
2.0 0.9 0.0
2.4000000000000004 0.9 0.0
2.8000000000000003 0.9 0.0
3.2 0.9 0.0
3.6 0.9 0.0
4.0 0.9 0.0
4.4 0.9 0.0
4.800000000000001 0.9 0.0
5.2 0.9 0.0
5.6000000000000005 0.9 0.0
6.0 0.9 0.0
6.4 0.9 0.0
6.800000000000001 0.9 0.0
7.2 0.9 0.0
7.6000000000000005 0.9 0.0
8.0 0.9 0.0
8.4 0.9 0.0
8.8 0.9 0.0
9.200000000000001 0.9 0.0
9.600000000000001 0.9 0.0
10.0 0.9 0.0
10.4 0.9 0.0
10.8 0.9 0.0
11.200000000000001 0.9 0.0
11.600000000000001 0.9 0.0
12.0 0.9 0.0
12.4 0.9 0.0
12.8 0.9 0.0
13.200000000000001 0.9 0.0
13.600000000000001 0.9 0.0
14.0 0.9 0.0
14.4 0.9 0.0
14.8 0.9 0.0
15.200000000000001 0.9 0.0
15.600000000000001 0.9 0.0
16.0 0.9 0.0
0.0 1.0 0.0
0.4 1.0 0.0
0.8 1.0 0.0
1.2000000000000002 1.0 0.0
1.6 1.0 0.0
2.0 1.0 0.0
2.4000000000000004 1.0 0.0
2.8000000000000003 1.0 0.0
3.2 1.0 0.0
3.6 1.0 0.0
4.0 1.0 0.0
4.4 1.0 0.0
4.800000000000001 1.0 0.0
5.2 1.0 0.0
5.6000000000000005 1.0 0.0
6.0 1.0 0.0
6.4 1.0 0.0
6.800000000000001 1.0 0.0
7.2 1.0 0.0
7.6000000000000005 1.0 0.0
8.0 1.0 0.0
8.4 1.0 0.0
8.8 1.0 0.0
9.200000000000001 1.0 0.0
9.600000000000001 1.0 0.0
10.0 1.0 0.0
10.4 1.0 0.0
10.8 1.0 0.0
11.200000000000001 1.0 0.0
11.600000000000001 1.0 0.0
12.0 1.0 0.0
12.4 1.0 0.0
12.8 1.0 0.0
13.200000000000001 1.0 0.0
13.600000000000001 1.0 0.0
14.0 1.0 0.0
14.4 1.0 0.0
14.8 1.0 0.0
15.200000000000001 1.0 0.0
15.600000000000001 1.0 0.0
16.0 1.0 0.0
0.0 1.1 0.0
0.4 1.1 0.0
0.8 1.1 0.0
1.2000000000000002 1.1 0.0
1.6 1.1 0.0
2.0 1.1 0.0
2.4000000000000004 1.1 0.0
2.8000000000000003 1.1 0.0
3.2 1.1 0.0
3.6 1.1 0.0
4.0 1.1 0.0
4.4 1.1 0.0
4.800000000000001 1.1 0.0
5.2 1.1 0.0
5.6000000000000005 1.1 0.0
6.0 1.1 0.0
6.4 1.1 0.0
6.800000000000001 1.1 0.0
7.2 1.1 0.0
7.6000000000000005 1.1 0.0
8.0 1.1 0.0
8.4 1.1 0.0
8.8 1.1 0.0
9.200000000000001 1.1 0.0
9.600000000000001 1.1 0.0
10.0 1.1 0.0
10.4 1.1 0.0
10.8 1.1 0.0
11.200000000000001 1.1 0.0
11.600000000000001 1.1 0.0
12.0 1.1 0.0
12.4 1.1 0.0
12.8 1.1 0.0
13.200000000000001 1.1 0.0
13.600000000000001 1.1 0.0
14.0 1.1 0.0
14.4 1.1 0.0
14.8 1.1 0.0
15.200000000000001 1.1 0.0
15.600000000000001 1.1 0.0
16.0 1.1 0.0
0.0 1.2000000000000002 0.0
0.4 1.2000000000000002 0.0
0.8 1.2000000000000002 0.0
1.2000000000000002 1.2000000000000002 0.0
1.6 1.2000000000000002 0.0
2.0 1.2000000000000002 0.0
2.4000000000000004 1.2000000000000002 0.0
2.8000000000000003 1.2000000000000002 0.0
3.2 1.2000000000000002 0.0
3.6 1.2000000000000002 0.0
4.0 1.2000000000000002 0.0
4.4 1.2000000000000002 0.0
4.800000000000001 1.2000000000000002 0.0
5.2 1.2000000000000002 0.0
5.6000000000000005 1.2000000000000002 0.0
6.0 1.2000000000000002 0.0
6.4 1.2000000000000002 0.0
6.800000000000001 1.2000000000000002 0.0
7.2 1.2000000000000002 0.0
7.6000000000000005 1.2000000000000002 0.0
8.0 1.2000000000000002 0.0
8.4 1.2000000000000002 0.0
8.8 1.2000000000000002 0.0
9.200000000000001 1.2000000000000002 0.0
9.600000000000001 1.2000000000000002 0.0
10.0 1.2000000000000002 0.0
10.4 1.2000000000000002 0.0
10.8 1.2000000000000002 0.0
11.200000000000001 1.2000000000000002 0.0
11.600000000000001 1.2000000000000002 0.0
12.0 1.2000000000000002 0.0
12.4 1.2000000000000002 0.0
12.8 1.2000000000000002 0.0
13.200000000000001 1.2000000000000002 0.0
13.600000000000001 1.2000000000000002 0.0
14.0 1.2000000000000002 0.0
14.4 1.2000000000000002 0.0
14.8 1.2000000000000002 0.0
15.200000000000001 1.2000000000000002 0.0
15.600000000000001 1.2000000000000002 0.0
16.0 1.2000000000000002 0.0
0.0 1.3 0.0
0.4 1.3 0.0
0.8 1.3 0.0
1.2000000000000002 1.3 0.0
1.6 1.3 0.0
2.0 1.3 0.0
2.4000000000000004 1.3 0.0
2.8000000000000003 1.3 0.0
3.2 1.3 0.0
3.6 1.3 0.0
4.0 1.3 0.0
4.4 1.3 0.0
4.800000000000001 1.3 0.0
5.2 1.3 0.0
5.6000000000000005 1.3 0.0
6.0 1.3 0.0
6.4 1.3 0.0
6.800000000000001 1.3 0.0
7.2 1.3 0.0
7.6000000000000005 1.3 0.0
8.0 1.3 0.0
8.4 1.3 0.0
8.8 1.3 0.0
9.200000000000001 1.3 0.0
9.600000000000001 1.3 0.0
10.0 1.3 0.0
10.4 1.3 0.0
10.8 1.3 0.0
11.200000000000001 1.3 0.0
11.600000000000001 1.3 0.0
12.0 1.3 0.0
12.4 1.3 0.0
12.8 1.3 0.0
13.200000000000001 1.3 0.0
13.600000000000001 1.3 0.0
14.0 1.3 0.0
14.4 1.3 0.0
14.8 1.3 0.0
15.200000000000001 1.3 0.0
15.600000000000001 1.3 0.0
16.0 1.3 0.0
0.0 1.4000000000000001 0.0
0.4 1.4000000000000001 0.0
0.8 1.4000000000000001 0.0
1.2000000000000002 1.4000000000000001 0.0
1.6 1.4000000000000001 0.0
2.0 1.4000000000000001 0.0
2.4000000000000004 1.4000000000000001 0.0
2.8000000000000003 1.4000000000000001 0.0
3.2 1.4000000000000001 0.0
3.6 1.4000000000000001 0.0
4.0 1.4000000000000001 0.0
4.4 1.4000000000000001 0.0
4.800000000000001 1.4000000000000001 0.0
5.2 1.4000000000000001 0.0
5.6000000000000005 1.4000000000000001 0.0
6.0 1.4000000000000001 0.0
6.4 1.4000000000000001 0.0
6.800000000000001 1.4000000000000001 0.0
7.2 1.4000000000000001 0.0
7.6000000000000005 1.4000000000000001 0.0
8.0 1.4000000000000001 0.0
8.4 1.4000000000000001 0.0
8.8 1.4000000000000001 0.0
9.200000000000001 1.4000000000000001 0.0
9.600000000000001 1.4000000000000001 0.0
10.0 1.4000000000000001 0.0
10.4 1.4000000000000001 0.0
10.8 1.4000000000000001 0.0
11.200000000000001 1.4000000000000001 0.0
11.600000000000001 1.4000000000000001 0.0
12.0 1.4000000000000001 0.0
12.4 1.4000000000000001 0.0
12.8 1.4000000000000001 0.0
13.200000000000001 1.4000000000000001 0.0
13.600000000000001 1.4000000000000001 0.0
14.0 1.4000000000000001 0.0
14.4 1.4000000000000001 0.0
14.8 1.4000000000000001 0.0
15.200000000000001 1.4000000000000001 0.0
15.600000000000001 1.4000000000000001 0.0
16.0 1.4000000000000001 0.0
0.0 1.5 0.0
0.4 1.5 0.0
0.8 1.5 0.0
1.2000000000000002 1.5 0.0
1.6 1.5 0.0
2.0 1.5 0.0
2.4000000000000004 1.5 0.0
2.8000000000000003 1.5 0.0
3.2 1.5 0.0
3.6 1.5 0.0
4.0 1.5 0.0
4.4 1.5 0.0
4.800000000000001 1.5 0.0
5.2 1.5 0.0
5.6000000000000005 1.5 0.0
6.0 1.5 0.0
6.4 1.5 0.0
6.800000000000001 1.5 0.0
7.2 1.5 0.0
7.6000000000000005 1.5 0.0
8.0 1.5 0.0
8.4 1.5 0.0
8.8 1.5 0.0
9.200000000000001 1.5 0.0
9.600000000000001 1.5 0.0
10.0 1.5 0.0
10.4 1.5 0.0
10.8 1.5 0.0
11.200000000000001 1.5 0.0
11.600000000000001 1.5 0.0
12.0 1.5 0.0
12.4 1.5 0.0
12.8 1.5 0.0
13.200000000000001 1.5 0.0
13.600000000000001 1.5 0.0
14.0 1.5 0.0
14.4 1.5 0.0
14.8 1.5 0.0
15.200000000000001 1.5 0.0
15.600000000000001 1.5 0.0
16.0 1.5 0.0
0.0 1.6 0.0
0.4 1.6 0.0
0.8 1.6 0.0
1.2000000000000002 1.6 0.0
1.6 1.6 0.0
2.0 1.6 0.0
2.4000000000000004 1.6 0.0
2.8000000000000003 1.6 0.0
3.2 1.6 0.0
3.6 1.6 0.0
4.0 1.6 0.0
4.4 1.6 0.0
4.800000000000001 1.6 0.0
5.2 1.6 0.0
5.6000000000000005 1.6 0.0
6.0 1.6 0.0
6.4 1.6 0.0
6.800000000000001 1.6 0.0
7.2 1.6 0.0
7.6000000000000005 1.6 0.0
8.0 1.6 0.0
8.4 1.6 0.0
8.8 1.6 0.0
9.200000000000001 1.6 0.0
9.600000000000001 1.6 0.0
10.0 1.6 0.0
10.4 1.6 0.0
10.8 1.6 0.0
11.200000000000001 1.6 0.0
11.600000000000001 1.6 0.0
12.0 1.6 0.0
12.4 1.6 0.0
12.8 1.6 0.0
13.200000000000001 1.6 0.0
13.600000000000001 1.6 0.0
14.0 1.6 0.0
14.4 1.6 0.0
14.8 1.6 0.0
15.200000000000001 1.6 0.0
15.600000000000001 1.6 0.0
16.0 1.6 0.0
0.0 1.7000000000000002 0.0
0.4 1.7000000000000002 0.0
0.8 1.7000000000000002 0.0
1.2000000000000002 1.7000000000000002 0.0
1.6 1.7000000000000002 0.0
2.0 1.7000000000000002 0.0
2.4000000000000004 1.7000000000000002 0.0
2.8000000000000003 1.7000000000000002 0.0
3.2 1.7000000000000002 0.0
3.6 1.7000000000000002 0.0
4.0 1.7000000000000002 0.0
4.4 1.7000000000000002 0.0
4.800000000000001 1.7000000000000002 0.0
5.2 1.7000000000000002 0.0
5.6000000000000005 1.7000000000000002 0.0
6.0 1.7000000000000002 0.0
6.4 1.7000000000000002 0.0
6.800000000000001 1.7000000000000002 0.0
7.2 1.7000000000000002 0.0
7.6000000000000005 1.7000000000000002 0.0
8.0 1.7000000000000002 0.0
8.4 1.7000000000000002 0.0
8.8 1.7000000000000002 0.0
9.200000000000001 1.7000000000000002 0.0
9.600000000000001 1.7000000000000002 0.0
10.0 1.7000000000000002 0.0
10.4 1.7000000000000002 0.0
10.8 1.7000000000000002 0.0
11.200000000000001 1.7000000000000002 0.0
11.600000000000001 1.7000000000000002 0.0
12.0 1.7000000000000002 0.0
12.4 1.7000000000000002 0.0
12.8 1.7000000000000002 0.0
13.200000000000001 1.7000000000000002 0.0
13.600000000000001 1.7000000000000002 0.0
14.0 1.7000000000000002 0.0
14.4 1.7000000000000002 0.0
14.8 1.7000000000000002 0.0
15.200000000000001 1.7000000000000002 0.0
15.600000000000001 1.7000000000000002 0.0
16.0 1.7000000000000002 0.0
0.0 1.8 0.0
0.4 1.8 0.0
0.8 1.8 0.0
1.2000000000000002 1.8 0.0
1.6 1.8 0.0
2.0 1.8 0.0
2.4000000000000004 1.8 0.0
2.8000000000000003 1.8 0.0
3.2 1.8 0.0
3.6 1.8 0.0
4.0 1.8 0.0
4.4 1.8 0.0
4.800000000000001 1.8 0.0
5.2 1.8 0.0
5.6000000000000005 1.8 0.0
6.0 1.8 0.0
6.4 1.8 0.0
6.800000000000001 1.8 0.0
7.2 1.8 0.0
7.6000000000000005 1.8 0.0
8.0 1.8 0.0
8.4 1.8 0.0
8.8 1.8 0.0
9.200000000000001 1.8 0.0
9.600000000000001 1.8 0.0
10.0 1.8 0.0
10.4 1.8 0.0
10.8 1.8 0.0
11.200000000000001 1.8 0.0
11.600000000000001 1.8 0.0
12.0 1.8 0.0
12.4 1.8 0.0
12.8 1.8 0.0
13.200000000000001 1.8 0.0
13.600000000000001 1.8 0.0
14.0 1.8 0.0
14.4 1.8 0.0
14.8 1.8 0.0
15.200000000000001 1.8 0.0
15.600000000000001 1.8 0.0
16.0 1.8 0.0
0.0 1.9000000000000001 0.0
0.4 1.9000000000000001 0.0
0.8 1.9000000000000001 0.0
1.2000000000000002 1.9000000000000001 0.0
1.6 1.9000000000000001 0.0
2.0 1.9000000000000001 0.0
2.4000000000000004 1.9000000000000001 0.0
2.8000000000000003 1.9000000000000001 0.0
3.2 1.9000000000000001 0.0
3.6 1.9000000000000001 0.0
4.0 1.9000000000000001 0.0
4.4 1.9000000000000001 0.0
4.800000000000001 1.9000000000000001 0.0
5.2 1.9000000000000001 0.0
5.6000000000000005 1.9000000000000001 0.0
6.0 1.9000000000000001 0.0
6.4 1.9000000000000001 0.0
6.800000000000001 1.9000000000000001 0.0
7.2 1.9000000000000001 0.0
7.6000000000000005 1.9000000000000001 0.0
8.0 1.9000000000000001 0.0
8.4 1.9000000000000001 0.0
8.8 1.9000000000000001 0.0
9.200000000000001 1.9000000000000001 0.0
9.600000000000001 1.9000000000000001 0.0
10.0 1.9000000000000001 0.0
10.4 1.9000000000000001 0.0
10.8 1.9000000000000001 0.0
11.200000000000001 1.9000000000000001 0.0
11.600000000000001 1.9000000000000001 0.0
12.0 1.9000000000000001 0.0
12.4 1.9000000000000001 0.0
12.8 1.9000000000000001 0.0
13.200000000000001 1.9000000000000001 0.0
13.600000000000001 1.9000000000000001 0.0
14.0 1.9000000000000001 0.0
14.4 1.9000000000000001 0.0
14.8 1.9000000000000001 0.0
15.200000000000001 1.9000000000000001 0.0
15.600000000000001 1.9000000000000001 0.0
16.0 1.9000000000000001 0.0
0.0 2.0 0.0
0.4 2.0 0.0
0.8 2.0 0.0
1.2000000000000002 2.0 0.0
1.6 2.0 0.0
2.0 2.0 0.0
2.4000000000000004 2.0 0.0
2.8000000000000003 2.0 0.0
3.2 2.0 0.0
3.6 2.0 0.0
4.0 2.0 0.0
4.4 2.0 0.0
4.800000000000001 2.0 0.0
5.2 2.0 0.0
5.6000000000000005 2.0 0.0
6.0 2.0 0.0
6.4 2.0 0.0
6.800000000000001 2.0 0.0
7.2 2.0 0.0
7.6000000000000005 2.0 0.0
8.0 2.0 0.0
8.4 2.0 0.0
8.8 2.0 0.0
9.200000000000001 2.0 0.0
9.600000000000001 2.0 0.0
10.0 2.0 0.0
10.4 2.0 0.0
10.8 2.0 0.0
11.200000000000001 2.0 0.0
11.600000000000001 2.0 0.0
12.0 2.0 0.0
12.4 2.0 0.0
12.8 2.0 0.0
13.200000000000001 2.0 0.0
13.600000000000001 2.0 0.0
14.0 2.0 0.0
14.4 2.0 0.0
14.8 2.0 0.0
15.200000000000001 2.0 0.0
15.600000000000001 2.0 0.0
16.0 2.0 0.0
CELLS 800 4000
4 0 1 42 41
4 1 2 43 42
4 2 3 44 43
4 3 4 45 44
4 4 5 46 45
4 5 6 47 46
4 6 7 48 47
4 7 8 49 48
4 8 9 50 49
4 9 10 51 50
4 10 11 52 51
4 11 12 53 52
4 12 13 54 53
4 13 14 55 54
4 14 15 56 55
4 15 16 57 56
4 16 17 58 57
4 17 18 59 58
4 18 19 60 59
4 19 20 61 60
4 20 21 62 61
4 21 22 63 62
4 22 23 64 63
4 23 24 65 64
4 24 25 66 65
4 25 26 67 66
4 26 27 68 67
4 27 28 69 68
4 28 29 70 69
4 29 30 71 70
4 30 31 72 71
4 31 32 73 72
4 32 33 74 73
4 33 34 75 74
4 34 35 76 75
4 35 36 77 76
4 36 37 78 77
4 37 38 79 78
4 38 39 80 79
4 39 40 81 80
4 41 42 83 82
4 42 43 84 83
4 43 44 85 84
4 44 45 86 85
4 45 46 87 86
4 46 47 88 87
4 47 48 89 88
4 48 49 90 89
4 49 50 91 90
4 50 51 92 91
4 51 52 93 92
4 52 53 94 93
4 53 54 95 94
4 54 55 96 95
4 55 56 97 96
4 56 57 98 97
4 57 58 99 98
4 58 59 100 99
4 59 60 101 100
4 60 61 102 101
4 61 62 103 102
4 62 63 104 103
4 63 64 105 104
4 64 65 106 105
4 65 66 107 106
4 66 67 108 107
4 67 68 109 108
4 68 69 110 109
4 69 70 111 110
4 70 71 112 111
4 71 72 113 112
4 72 73 114 113
4 73 74 115 114
4 74 75 116 115
4 75 76 117 116
4 76 77 118 117
4 77 78 119 118
4 78 79 120 119
4 79 80 121 120
4 80 81 122 121
4 82 83 124 123
4 83 84 125 124
4 84 85 126 125
4 85 86 127 126
4 86 87 128 127
4 87 88 129 128
4 88 89 130 129
4 89 90 131 130
4 90 91 132 131
4 91 92 133 132
4 92 93 134 133
4 93 94 135 134
4 94 95 136 135
4 95 96 137 136
4 96 97 138 137
4 97 98 139 138
4 98 99 140 139
4 99 100 141 140
4 100 101 142 141
4 101 102 143 142
4 102 103 144 143
4 103 104 145 144
4 104 105 146 145
4 105 106 147 146
4 106 107 148 147
4 107 108 149 148
4 108 109 150 149
4 109 110 151 150
4 110 111 152 151
4 111 112 153 152
4 112 113 154 153
4 113 114 155 154
4 114 115 156 155
4 115 116 157 156
4 116 117 158 157
4 117 118 159 158
4 118 119 160 159
4 119 120 161 160
4 120 121 162 161
4 121 122 163 162
4 123 124 165 164
4 124 125 166 165
4 125 126 167 166
4 126 127 168 167
4 127 128 169 168
4 128 129 170 169
4 129 130 171 170
4 130 131 172 171
4 131 132 173 172
4 132 133 174 173
4 133 134 175 174
4 134 135 176 175
4 135 136 177 176
4 136 137 178 177
4 137 138 179 178
4 138 139 180 179
4 139 140 181 180
4 140 141 182 181
4 141 142 183 182
4 142 143 184 183
4 143 144 185 184
4 144 145 186 185
4 145 146 187 186
4 146 147 188 187
4 147 148 189 188
4 148 149 190 189
4 149 150 191 190
4 150 151 192 191
4 151 152 193 192
4 152 153 194 193
4 153 154 195 194
4 154 155 196 195
4 155 156 197 196
4 156 157 198 197
4 157 158 199 198
4 158 159 200 199
4 159 160 201 200
4 160 161 202 201
4 161 162 203 202
4 162 163 204 203
4 164 165 206 205
4 165 166 207 206
4 166 167 208 207
4 167 168 209 208
4 168 169 210 209
4 169 170 211 210
4 170 171 212 211
4 171 172 213 212
4 172 173 214 213
4 173 174 215 214
4 174 175 216 215
4 175 176 217 216
4 176 177 218 217
4 177 178 219 218
4 178 179 220 219
4 179 180 221 220
4 180 181 222 221
4 181 182 223 222
4 182 183 224 223
4 183 184 225 224
4 184 185 226 225
4 185 186 227 226
4 186 187 228 227
4 187 188 229 228
4 188 189 230 229
4 189 190 231 230
4 190 191 232 231
4 191 192 233 232
4 192 193 234 233
4 193 194 235 234
4 194 195 236 235
4 195 196 237 236
4 196 197 238 237
4 197 198 239 238
4 198 199 240 239
4 199 200 241 240
4 200 201 242 241
4 201 202 243 242
4 202 203 244 243
4 203 204 245 244
4 205 206 247 246
4 206 207 248 247
4 207 208 249 248
4 208 209 250 249
4 209 210 251 250
4 210 211 252 251
4 211 212 253 252
4 212 213 254 253
4 213 214 255 254
4 214 215 256 255
4 215 216 257 256
4 216 217 258 257
4 217 218 259 258
4 218 219 260 259
4 219 220 261 260
4 220 221 262 261
4 221 222 263 262
4 222 223 264 263
4 223 224 265 264
4 224 225 266 265
4 225 226 267 266
4 226 227 268 267
4 227 228 269 268
4 228 229 270 269
4 229 230 271 270
4 230 231 272 271
4 231 232 273 272
4 232 233 274 273
4 233 234 275 274
4 234 235 276 275
4 235 236 277 276
4 236 237 278 277
4 237 238 279 278
4 238 239 280 279
4 239 240 281 280
4 240 241 282 281
4 241 242 283 282
4 242 243 284 283
4 243 244 285 284
4 244 245 286 285
4 246 247 288 287
4 247 248 289 288
4 248 249 290 289
4 249 250 291 290
4 250 251 292 291
4 251 252 293 292
4 252 253 294 293
4 253 254 295 294
4 254 255 296 295
4 255 256 297 296
4 256 257 298 297
4 257 258 299 298
4 258 259 300 299
4 259 260 301 300
4 260 261 302 301
4 261 262 303 302
4 262 263 304 303
4 263 264 305 304
4 264 265 306 305
4 265 266 307 306
4 266 267 308 307
4 267 268 309 308
4 268 269 310 309
4 269 270 311 310
4 270 271 312 311
4 271 272 313 312
4 272 273 314 313
4 273 274 315 314
4 274 275 316 315
4 275 276 317 316
4 276 277 318 317
4 277 278 319 318
4 278 279 320 319
4 279 280 321 320
4 280 281 322 321
4 281 282 323 322
4 282 283 324 323
4 283 284 325 324
4 284 285 326 325
4 285 286 327 326
4 287 288 329 328
4 288 289 330 329
4 289 290 331 330
4 290 291 332 331
4 291 292 333 332
4 292 293 334 333
4 293 294 335 334
4 294 295 336 335
4 295 296 337 336
4 296 297 338 337
4 297 298 339 338
4 298 299 340 339
4 299 300 341 340
4 300 301 342 341
4 301 302 343 342
4 302 303 344 343
4 303 304 345 344
4 304 305 346 345
4 305 306 347 346
4 306 307 348 347
4 307 308 349 348
4 308 309 350 349
4 309 310 351 350
4 310 311 352 351
4 311 312 353 352
4 312 313 354 353
4 313 314 355 354
4 314 315 356 355
4 315 316 357 356
4 316 317 358 357
4 317 318 359 358
4 318 319 360 359
4 319 320 361 360
4 320 321 362 361
4 321 322 363 362
4 322 323 364 363
4 323 324 365 364
4 324 325 366 365
4 325 326 367 366
4 326 327 368 367
4 328 329 370 369
4 329 330 371 370
4 330 331 372 371
4 331 332 373 372
4 332 333 374 373
4 333 334 375 374
4 334 335 376 375
4 335 336 377 376
4 336 337 378 377
4 337 338 379 378
4 338 339 380 379
4 339 340 381 380
4 340 341 382 381
4 341 342 383 382
4 342 343 384 383
4 343 344 385 384
4 344 345 386 385
4 345 346 387 386
4 346 347 388 387
4 347 348 389 388
4 348 349 390 389
4 349 350 391 390
4 350 351 392 391
4 351 352 393 392
4 352 353 394 393
4 353 354 395 394
4 354 355 396 395
4 355 356 397 396
4 356 357 398 397
4 357 358 399 398
4 358 359 400 399
4 359 360 401 400
4 360 361 402 401
4 361 362 403 402
4 362 363 404 403
4 363 364 405 404
4 364 365 406 405
4 365 366 407 406
4 366 367 408 407
4 367 368 409 408
4 369 370 411 410
4 370 371 412 411
4 371 372 413 412
4 372 373 414 413
4 373 374 415 414
4 374 375 416 415
4 375 376 417 416
4 376 377 418 417
4 377 378 419 418
4 378 379 420 419
4 379 380 421 420
4 380 381 422 421
4 381 382 423 422
4 382 383 424 423
4 383 384 425 424
4 384 385 426 425
4 385 386 427 426
4 386 387 428 427
4 387 388 429 428
4 388 389 430 429
4 389 390 431 430
4 390 391 432 431
4 391 392 433 432
4 392 393 434 433
4 393 394 435 434
4 394 395 436 435
4 395 396 437 436
4 396 397 438 437
4 397 398 439 438
4 398 399 440 439
4 399 400 441 440
4 400 401 442 441
4 401 402 443 442
4 402 403 444 443
4 403 404 445 444
4 404 405 446 445
4 405 406 447 446
4 406 407 448 447
4 407 408 449 448
4 408 409 450 449
4 410 411 452 451
4 411 412 453 452
4 412 413 454 453
4 413 414 455 454
4 414 415 456 455
4 415 416 457 456
4 416 417 458 457
4 417 418 459 458
4 418 419 460 459
4 419 420 461 460
4 420 421 462 461
4 421 422 463 462
4 422 423 464 463
4 423 424 465 464
4 424 425 466 465
4 425 426 467 466
4 426 427 468 467
4 427 428 469 468
4 428 429 470 469
4 429 430 471 470
4 430 431 472 471
4 431 432 473 472
4 432 433 474 473
4 433 434 475 474
4 434 435 476 475
4 435 436 477 476
4 436 437 478 477
4 437 438 479 478
4 438 439 480 479
4 439 440 481 480
4 440 441 482 481
4 441 442 483 482
4 442 443 484 483
4 443 444 485 484
4 444 445 486 485
4 445 446 487 486
4 446 447 488 487
4 447 448 489 488
4 448 449 490 489
4 449 450 491 490
4 451 452 493 492
4 452 453 494 493
4 453 454 495 494
4 454 455 496 495
4 455 456 497 496
4 456 457 498 497
4 457 458 499 498
4 458 459 500 499
4 459 460 501 500
4 460 461 502 501
4 461 462 503 502
4 462 463 504 503
4 463 464 505 504
4 464 465 506 505
4 465 466 507 506
4 466 467 508 507
4 467 468 509 508
4 468 469 510 509
4 469 470 511 510
4 470 471 512 511
4 471 472 513 512
4 472 473 514 513
4 473 474 515 514
4 474 475 516 515
4 475 476 517 516
4 476 477 518 517
4 477 478 519 518
4 478 479 520 519
4 479 480 521 520
4 480 481 522 521
4 481 482 523 522
4 482 483 524 523
4 483 484 525 524
4 484 485 526 525
4 485 486 527 526
4 486 487 528 527
4 487 488 529 528
4 488 489 530 529
4 489 490 531 530
4 490 491 532 531
4 492 493 534 533
4 493 494 535 534
4 494 495 536 535
4 495 496 537 536
4 496 497 538 537
4 497 498 539 538
4 498 499 540 539
4 499 500 541 540
4 500 501 542 541
4 501 502 543 542
4 502 503 544 543
4 503 504 545 544
4 504 505 546 545
4 505 506 547 546
4 506 507 548 547
4 507 508 549 548
4 508 509 550 549
4 509 510 551 550
4 510 511 552 551
4 511 512 553 552
4 512 513 554 553
4 513 514 555 554
4 514 515 556 555
4 515 516 557 556
4 516 517 558 557
4 517 518 559 558
4 518 519 560 559
4 519 520 561 560
4 520 521 562 561
4 521 522 563 562
4 522 523 564 563
4 523 524 565 564
4 524 525 566 565
4 525 526 567 566
4 526 527 568 567
4 527 528 569 568
4 528 529 570 569
4 529 530 571 570
4 530 531 572 571
4 531 532 573 572
4 533 534 575 574
4 534 535 576 575
4 535 536 577 576
4 536 537 578 577
4 537 538 579 578
4 538 539 580 579
4 539 540 581 580
4 540 541 582 581
4 541 542 583 582
4 542 543 584 583
4 543 544 585 584
4 544 545 586 585
4 545 546 587 586
4 546 547 588 587
4 547 548 589 588
4 548 549 590 589
4 549 550 591 590
4 550 551 592 591
4 551 552 593 592
4 552 553 594 593
4 553 554 595 594
4 554 555 596 595
4 555 556 597 596
4 556 557 598 597
4 557 558 599 598
4 558 559 600 599
4 559 560 601 600
4 560 561 602 601
4 561 562 603 602
4 562 563 604 603
4 563 564 605 604
4 564 565 606 605
4 565 566 607 606
4 566 567 608 607
4 567 568 609 608
4 568 569 610 609
4 569 570 611 610
4 570 571 612 611
4 571 572 613 612
4 572 573 614 613
4 574 575 616 615
4 575 576 617 616
4 576 577 618 617
4 577 578 619 618
4 578 579 620 619
4 579 580 621 620
4 580 581 622 621
4 581 582 623 622
4 582 583 624 623
4 583 584 625 624
4 584 585 626 625
4 585 586 627 626
4 586 587 628 627
4 587 588 629 628
4 588 589 630 629
4 589 590 631 630
4 590 591 632 631
4 591 592 633 632
4 592 593 634 633
4 593 594 635 634
4 594 595 636 635
4 595 596 637 636
4 596 597 638 637
4 597 598 639 638
4 598 599 640 639
4 599 600 641 640
4 600 601 642 641
4 601 602 643 642
4 602 603 644 643
4 603 604 645 644
4 604 605 646 645
4 605 606 647 646
4 606 607 648 647
4 607 608 649 648
4 608 609 650 649
4 609 610 651 650
4 610 611 652 651
4 611 612 653 652
4 612 613 654 653
4 613 614 655 654
4 615 616 657 656
4 616 617 658 657
4 617 618 659 658
4 618 619 660 659
4 619 620 661 660
4 620 621 662 661
4 621 622 663 662
4 622 623 664 663
4 623 624 665 664
4 624 625 666 665
4 625 626 667 666
4 626 627 668 667
4 627 628 669 668
4 628 629 670 669
4 629 630 671 670
4 630 631 672 671
4 631 632 673 672
4 632 633 674 673
4 633 634 675 674
4 634 635 676 675
4 635 636 677 676
4 636 637 678 677
4 637 638 679 678
4 638 639 680 679
4 639 640 681 680
4 640 641 682 681
4 641 642 683 682
4 642 643 684 683
4 643 644 685 684
4 644 645 686 685
4 645 646 687 686
4 646 647 688 687
4 647 648 689 688
4 648 649 690 689
4 649 650 691 690
4 650 651 692 691
4 651 652 693 692
4 652 653 694 693
4 653 654 695 694
4 654 655 696 695
4 656 657 698 697
4 657 658 699 698
4 658 659 700 699
4 659 660 701 700
4 660 661 702 701
4 661 662 703 702
4 662 663 704 703
4 663 664 705 704
4 664 665 706 705
4 665 666 707 706
4 666 667 708 707
4 667 668 709 708
4 668 669 710 709
4 669 670 711 710
4 670 671 712 711
4 671 672 713 712
4 672 673 714 713
4 673 674 715 714
4 674 675 716 715
4 675 676 717 716
4 676 677 718 717
4 677 678 719 718
4 678 679 720 719
4 679 680 721 720
4 680 681 722 721
4 681 682 723 722
4 682 683 724 723
4 683 684 725 724
4 684 685 726 725
4 685 686 727 726
4 686 687 728 727
4 687 688 729 728
4 688 689 730 729
4 689 690 731 730
4 690 691 732 731
4 691 692 733 732
4 692 693 734 733
4 693 694 735 734
4 694 695 736 735
4 695 696 737 736
4 697 698 739 738
4 698 699 740 739
4 699 700 741 740
4 700 701 742 741
4 701 702 743 742
4 702 703 744 743
4 703 704 745 744
4 704 705 746 745
4 705 706 747 746
4 706 707 748 747
4 707 708 749 748
4 708 709 750 749
4 709 710 751 750
4 710 711 752 751
4 711 712 753 752
4 712 713 754 753
4 713 714 755 754
4 714 715 756 755
4 715 716 757 756
4 716 717 758 757
4 717 718 759 758
4 718 719 760 759
4 719 720 761 760
4 720 721 762 761
4 721 722 763 762
4 722 723 764 763
4 723 724 765 764
4 724 725 766 765
4 725 726 767 766
4 726 727 768 767
4 727 728 769 768
4 728 729 770 769
4 729 730 771 770
4 730 731 772 771
4 731 732 773 772
4 732 733 774 773
4 733 734 775 774
4 734 735 776 775
4 735 736 777 776
4 736 737 778 777
4 738 739 780 779
4 739 740 781 780
4 740 741 782 781
4 741 742 783 782
4 742 743 784 783
4 743 744 785 784
4 744 745 786 785
4 745 746 787 786
4 746 747 788 787
4 747 748 789 788
4 748 749 790 789
4 749 750 791 790
4 750 751 792 791
4 751 752 793 792
4 752 753 794 793
4 753 754 795 794
4 754 755 796 795
4 755 756 797 796
4 756 757 798 797
4 757 758 799 798
4 758 759 800 799
4 759 760 801 800
4 760 761 802 801
4 761 762 803 802
4 762 763 804 803
4 763 764 805 804
4 764 765 806 805
4 765 766 807 806
4 766 767 808 807
4 767 768 809 808
4 768 769 810 809
4 769 770 811 810
4 770 771 812 811
4 771 772 813 812
4 772 773 814 813
4 773 774 815 814
4 774 775 816 815
4 775 776 817 816
4 776 777 818 817
4 777 778 819 818
4 779 780 821 820
4 780 781 822 821
4 781 782 823 822
4 782 783 824 823
4 783 784 825 824
4 784 785 826 825
4 785 786 827 826
4 786 787 828 827
4 787 788 829 828
4 788 789 830 829
4 789 790 831 830
4 790 791 832 831
4 791 792 833 832
4 792 793 834 833
4 793 794 835 834
4 794 795 836 835
4 795 796 837 836
4 796 797 838 837
4 797 798 839 838
4 798 799 840 839
4 799 800 841 840
4 800 801 842 841
4 801 802 843 842
4 802 803 844 843
4 803 804 845 844
4 804 805 846 845
4 805 806 847 846
4 806 807 848 847
4 807 808 849 848
4 808 809 850 849
4 809 810 851 850
4 810 811 852 851
4 811 812 853 852
4 812 813 854 853
4 813 814 855 854
4 814 815 856 855
4 815 816 857 856
4 816 817 858 857
4 817 818 859 858
4 818 819 860 859
CELL_TYPES 800
9
9
9
9
9
9
9
9
9
9
9
9
9
9
9
9
9
9
9
9
9
9
9
9
9
9
9
9
9
9
9
9
9
9
9
9
9
9
9
9
9
9
9
9
9
9
9
9
9
9
9
9
9
9
9
9
9
9
9
9
9
9
9
9
9
9
9
9
9
9
9
9
9
9
9
9
9
9
9
9
9
9
9
9
9
9
9
9
9
9
9
9
9
9
9
9
9
9
9
9
9
9
9
9
9
9
9
9
9
9
9
9
9
9
9
9
9
9
9
9
9
9
9
9
9
9
9
9
9
9
9
9
9
9
9
9
9
9
9
9
9
9
9
9
9
9
9
9
9
9
9
9
9
9
9
9
9
9
9
9
9
9
9
9
9
9
9
9
9
9
9
9
9
9
9
9
9
9
9
9
9
9
9
9
9
9
9
9
9
9
9
9
9
9
9
9
9
9
9
9
9
9
9
9
9
9
9
9
9
9
9
9
9
9
9
9
9
9
9
9
9
9
9
9
9
9
9
9
9
9
9
9
9
9
9
9
9
9
9
9
9
9
9
9
9
9
9
9
9
9
9
9
9
9
9
9
9
9
9
9
9
9
9
9
9
9
9
9
9
9
9
9
9
9
9
9
9
9
9
9
9
9
9
9
9
9
9
9
9
9
9
9
9
9
9
9
9
9
9
9
9
9
9
9
9
9
9
9
9
9
9
9
9
9
9
9
9
9
9
9
9
9
9
9
9
9
9
9
9
9
9
9
9
9
9
9
9
9
9
9
9
9
9
9
9
9
9
9
9
9
9
9
9
9
9
9
9
9
9
9
9
9
9
9
9
9
9
9
9
9
9
9
9
9
9
9
9
9
9
9
9
9
9
9
9
9
9
9
9
9
9
9
9
9
9
9
9
9
9
9
9
9
9
9
9
9
9
9
9
9
9
9
9
9
9
9
9
9
9
9
9
9
9
9
9
9
9
9
9
9
9
9
9
9
9
9
9
9
9
9
9
9
9
9
9
9
9
9
9
9
9
9
9
9
9
9
9
9
9
9
9
9
9
9
9
9
9
9
9
9
9
9
9
9
9
9
9
9
9
9
9
9
9
9
9
9
9
9
9
9
9
9
9
9
9
9
9
9
9
9
9
9
9
9
9
9
9
9
9
9
9
9
9
9
9
9
9
9
9
9
9
9
9
9
9
9
9
9
9
9
9
9
9
9
9
9
9
9
9
9
9
9
9
9
9
9
9
9
9
9
9
9
9
9
9
9
9
9
9
9
9
9
9
9
9
9
9
9
9
9
9
9
9
9
9
9
9
9
9
9
9
9
9
9
9
9
9
9
9
9
9
9
9
9
9
9
9
9
9
9
9
9
9
9
9
9
9
9
9
9
9
9
9
9
9
9
9
9
9
9
9
9
9
9
9
9
9
9
9
9
9
9
9
9
9
9
9
9
9
9
9
9
9
9
9
9
9
9
9
9
9
9
9
9
9
9
9
9
9
9
9
9
9
9
9
9
9
9
9
9
9
9
9
9
9
9
9
9
9
9
9
9
9
9
9
9
9
9
9
9
9
9
9
9
9
9
9
9
9
9
9
9
9
9
9
9
9
9
9
9
9
9
9
9
9
9
9
9
9
9
9
9
9
9
9
9
9
9
9
9
9
9
9
9
9
9
9
9
9
9
9
9
9
9
9
9
9
9
9
9
9
9
9
9
9
9
9
9
9
9
9
9
9
9
9
9
9
9
9
9
9
9
9
9
9
9
9
9
9
9
9
9
9
9
9
9
9
9
9
9
9
9
9
9
9
9
9
9
9
9
POINT_DATA 861
SCALARS Disp float 2
LOOKUP_TABLE default
0.0 0.0
0.004440953443123573 -0.14110707956434687
0.005477204437989796 -0.274895549250219
0.006200099945467557 -0.40796858209162223
0.007071308758717831 -0.5407471330550463
0.00830021976719257 -0.6729906686438714
0.010222704964963051 -0.8043957581539948
0.01318799802132119 -0.9346080501933829
0.017589288494665914 -1.063190676929961
0.023846952416321607 -1.1895822134961596
0.03239559501087752 -1.3130304612697434
0.04370461446889929 -1.432537764976241
0.05829945212113553 -1.5468471127715118
0.07675390359916318 -1.654480080897184
0.09968598045223763 -1.7537739188952817
0.127683580082869 -1.8429103110211627
0.16116956412182587 -1.9199496940587435
0.20023225512070988 -1.98289102548264
0.24447152688589405 -2.029805644940761
0.2929233665111759 -2.0590626076315792
0.3439989869385308 -2.0695473627958836
0.3950746073658836 -2.0590626076315233
0.4435264469911573 -2.0298056449406463
0.4877657187563274 -1.982891025482474
0.5268284097551935 -1.9199496940585354
0.5603143937941318 -1.842910311020926
0.5883119934247437 -1.7537739188950212
0.611244070277799 -1.6544800808969078
0.6296985217558069 -1.546847112771228
0.644293359408024 -1.4325377649759585
0.6556023788660283 -1.3130304612694697
0.6641510214605699 -1.1895822134959007
0.6704086853822143 -1.0631906769297206
0.67480997585555 -0.934608050193165
0.677775268911902 -0.8043957581538015
0.6796977541096684 -0.6729906686437064
0.6809266651181414 -0.5407471330549101
0.6817978739313912 -0.40796858209151654
0.6825207694388687 -0.2748955492501432
0.683557020433734 -0.14110707956430288
0.6879979738768546 0.0
0.0352106706195226 -0.0019331601703177763
0.03821058262798559 -0.14124995109945684
0.038776904954067895 -0.27495819359018575
0.039427209065750334 -0.40804830495565897
0.04020535112935712 -0.5408526236352716
0.04127027111124684 -0.6731890181048539
0.042942977172476464 -0.8047699781051284
0.0455570143619045 -0.9352482519294596
0.04948071380014236 -1.0641962749536487
0.055094013473481356 -1.191052998978519
0.06278133970839349 -1.315069341975904
0.07294856646700157 -1.4352588028335573
0.08605391649360505 -1.5503803205800615
0.10262530057116392 -1.6589697893412094
0.12323213421320987 -1.7593708185543395
0.14842554817126755 -1.8497454450465716
0.17860880601997936 -1.9280957134144556
0.2138827218242605 -1.9923218193656744
0.25390980254746426 -2.040365943897314
0.29780896199623363 -2.0704537214375955
0.343998986938524 -2.0812690906009834
0.39018901188081206 -2.0704537214375387
0.4340881713295739 -2.040365943897197
0.47411525205276545 -1.9923218193655046
0.5093891678570311 -1.9280957134142436
0.5395724257057265 -1.8497454450463304
0.5647658396637666 -1.7593708185540748
0.5853726733057952 -1.6589697893409285
0.6019440573833365 -1.5503803205797733
0.6150494074099228 -1.4352588028332707
0.6252166341685153 -1.3150693419756267
0.6329039604034142 -1.1910529989782572
0.6385172600767429 -1.064196274953406
0.6424409595149727 -0.93524825192924
0.645054996704395 -0.804769978104934
0.6467277027656212 -0.6731890181046882
0.6477926227475096 -0.5408526236351352
0.648570764811116 -0.40804830495555333
0.6492210689227983 -0.2749581935901099
0.6497873912488806 -0.14124995109941266
0.6527873032573391 -0.001933160170315508
0.06961683352884515 -0.003443154735380383
0.07176974079882124 -0.14131581071725996
0.07209928300412471 -0.2749964208687632
0.07263137408034971 -0.40812046222145354
0.07332292081043945 -0.5409413157433854
0.07424138180462293 -0.6733471570980121
0.07566500472938475 -0.805079293476228
0.07792722400571644 -0.9357940689031046
0.08136534688325281 -1.0650707286622478
0.0863224674479427 -1.1923458484840044
0.09313483552237349 -1.3168706605481935
0.10215138101906389 -1.4376665847994656
0.11376586074246724 -1.553509127248123
0.12844360071763833 -1.6629523896077454
0.14671002179679096 -1.764346387576383
0.1690728558665253 -1.8558370085668152
0.19591913326366706 -1.9353754298907748
0.22737807722160117 -2.000774212340994
0.26318299495653474 -2.049857035089188
0.302528690178911 -2.0806964965852983
0.34399898693851744 -2.0918182095245608
0.38546928369812167 -2.08069649658524
0.424814978920491 -2.0498570350890684
0.46061989665541403 -2.000774212340821
0.49207884061333473 -1.935375429890559
0.5189251180104618 -1.85583700856657
0.5412879520801805 -1.764346387576114
0.5595543731593177 -1.6629523896074605
0.5742321131344732 -1.5535091272478307
0.5858465928578613 -1.4376665847991752
0.5948631383545379 -1.316870660547913
0.601675506428957 -1.1923458484837401
0.6066326269936375 -1.0650707286620031
0.6100707498711666 -0.9357940689028834
0.6123329691474932 -0.8050792934760326
0.6137565920722523 -0.6733471570978462
0.6146750530664349 -0.5409413157432489
0.6153665997965242 -0.4081204622213479
0.6158986908727492 -0.2749964208686874
0.6162282330780527 -0.1413158107172155
0.6183811403480246 -0.0034431547353758014
0.10360388494385869 -0.0046470882007449
0.1052003741957229 -0.14136006829497438
0.10540248266590807 -0.2750179930167194
0.10581878410559985 -0.4081802501853699
0.10641828346796403 -0.5410183614799083
0.10720950146419615 -0.6734708709000473
0.10839677503328565 -0.8053249651803451
0.11030679869004555 -0.9362466839464816
0.11325567151757049 -1.0658132379888827
0.11754893477479925 -1.193459264694721
0.12347824238687538 -1.3184328990878094
0.13133788222325204 -1.4397614575421265
0.14146114670079157 -1.5562349459185316
0.1542491623374036 -1.6664269386215032
0.1701652964056103 -1.7686975240480385
0.18968020162276883 -1.8611795936799678
0.21316618487045122 -1.9417825094667303
0.24078228611618505 -2.008243725573102
0.2723383497158739 -2.0582756582500226
0.30715290354537533 -2.089809493491715
0.3439989869385112 -2.1012371033770583
0.38084507033164483 -2.089809493491656
0.4156596241611404 -2.058275658249901
0.44721568776081955 -2.008243725572926
0.4748317890065417 -1.9417825094665115
0.4983177722542112 -1.861179593679719
0.5178326774713562 -1.768697524047766
0.5337488115395491 -1.666426938621215
0.5465368271761475 -1.556234945918236
0.5566600916536739 -1.439761457541833
0.5645197314900386 -1.3184328990875258
0.5704490391021043 -1.1934592646944546
0.5747423023593248 -1.065813237988636
0.5776911751868433 -0.9362466839462592
0.5796011988435991 -0.805324965180149
0.5807884724126863 -0.6734708708998811
0.5815796904089178 -0.5410183614797717
0.5821791897712817 -0.40818025018526416
0.5825954912109735 -0.27501799301664376
0.5827975996811587 -0.14136006829492964
0.584394088933019 -0.004647088200738253
0.13734797578813876 -0.005611980105987866
0.13853915501297956 -0.1413979814653365
0.13867087713304457 -0.2750301259354809
0.1389875276427903 -0.4082265685991656
0.13949037719384447 -0.5410850805842081
0.14016513369615488 -0.6735694290457727
0.14114364881835367 -0.8055122487948064
0.1427042534012081 -0.9366075579128724
0.14516444612480828 -1.0664247766131918
0.1487907468474506 -1.194393078437938
0.15383292951762648 -1.3197563273522728
0.16053507849064702 -1.4415442149118785
0.16916939365987813 -1.5585598592522023
0.18007194798412482 -1.669395829775654
0.1936462726781572 -1.7724238235305418
0.2103080840394821 -1.865770358676114
0.23041558850393373 -1.9473121341015975
0.2541607641442176 -2.0147236517276843
0.2814397836554073 -2.065619540688341
0.31172668761599764 -2.0978053320324253
0.34399898693850506 -2.1095499148970047
0.3762712862610106 -2.097805332032365
0.4065581902215955 -2.0656195406882176
0.43383720973277645 -2.0147236517275062
0.4575823853730505 -1.9473121341013762
0.4776898898374908 -1.8657703586758625
0.49435170119880395 -1.7724238235302667
0.5079260258928247 -1.6693958297753626
0.5188285802170597 -1.5585598592519034
0.5274628953862797 -1.4415442149115822
0.53416504435929 -1.3197563273519868
0.539207227029457 -1.1943930784376695
0.542833527752092 -1.0664247766129438
0.5452937204756868 -0.9366075579126489
0.5468543250585377 -0.8055122487946097
0.547832840180735 -0.6735694290456065
0.5485075966830448 -0.5410850805840715
0.5490104462340988 -0.40822656859905987
0.5493270967438445 -0.27503012593540527
0.5494588188639095 -0.14139798146529153
0.5506499980887472 -0.00561198010597943
0.17093057220566446 -0.006380633582732634
0.17181261642475018 -0.1414340077983796
0.17190228291391838 -0.2750377600155278
0.1721352822597438 -0.4082603316030897
0.17253949758849005 -0.5411411480657017
0.17310281894653806 -0.6736489060294428
0.17389640800393838 -0.8056515864090706
0.1751352678477034 -0.9368793244182377
0.17710515661679402 -1.0669074892683466
0.18006590553811452 -1.1951489046180235
0.18422157960107682 -1.3208422120820273
0.1897685348641293 -1.4430172672666002
0.19692176775241163 -1.560487202731093
0.20595161044633484 -1.6718626115793411
0.21719206037438413 -1.7755289345479652
0.2310120382658679 -1.8696102468408842
0.24773972594928045 -1.951960860507504
0.26758652469133026 -2.0202070604785796
0.29055171864394846 -2.071883955579815
0.31628942391912385 -2.1046883883482588
0.34399898693849895 -2.116769977490602
0.37170854995787217 -2.1046883883481975
0.3974462552330427 -2.07188395557969
0.4204114491856536 -2.0202070604783993
0.4402582479276951 -1.95196086050728
0.45698593561109785 -1.86961024684063
0.4708059135025717 -1.775528934547688
0.4820463634306114 -1.6718626115790474
0.491076206124525 -1.5604872027307917
0.498229439012798 -1.4430172672663015
0.503776394275842 -1.3208422120817394
0.507932068338797 -1.1951489046177532
0.5108928172601113 -1.0669074892680972
0.5128627060291976 -0.9368793244180134
0.5141015658729599 -0.8056515864088735
0.5148951549303592 -0.6736489060292763
0.5154584762884067 -0.5411411480655649
0.5158626916171528 -0.4082603316029839
0.5160956909629781 -0.27503776001545216
0.5161853574521463 -0.1414340077983345
0.5170674016712297 -0.006380633582722695
0.2043959084413804 -0.0069862380966727285
0.20503956782708505 -0.14146915396091453
0.2051003472291013 -0.2750434501826726
0.20526133788962092 -0.40828303782897246
0.20556809684509664 -0.5411856312585329
0.20601890617244176 -0.6737131670654468
0.20664431559250065 -0.8057542582861992
0.20759383258843248 -0.9370734285084418
0.20909761162246918 -1.0672646220834245
0.21139376459239073 -1.1957298934973797
0.21466845790915384 -1.3216937761914915
0.2190667772801586 -1.4441842560892888
0.22474985083531207 -1.5620219415060983
0.2319235285138514 -1.6738334217320099
0.24085390933203837 -1.7780180408374995
0.25184626793522735 -1.8727037472378165
0.26520115029634744 -1.9557293252829204
0.28113998640803584 -2.0246878092739347
0.29974794665468535 -2.077059963688333
0.3208824395313187 -2.1104541621519233
0.34399898693849257 -2.1229012547039647
0.3671155343456651 -2.110454162151861
0.3882500272222942 -2.077059963688207
0.4068579874689377 -2.024687809273753
0.42279682358061904 -1.9557293252826944
0.43615170594173114 -1.8727037472375598
0.44714406454491207 -1.77801804083722
0.45607444536309144 -1.6738334217317141
0.4632481230416232 -1.5620219415057954
0.4689311965967694 -1.4441842560889881
0.47332951596776723 -1.3216937761912018
0.4766042092845245 -1.195729893497108
0.47890036225444127 -1.067264622083174
0.4804041412884747 -0.9370734285082167
0.48135365828440463 -0.8057542582860019
0.48197906770446275 -0.6737131670652802
0.4824298770318076 -0.541185631258396
0.4827366359872831 -0.4082830378288667
0.48289762664780267 -0.2750434501825969
0.4829584060498188 -0.14146915396086931
0.4836020654355217 -0.00698623809666157
0.23777428683064497 -0.0074549774314837305
0.23823364742265593 -0.14150451584338086
0.23827065015964977 -0.2750477925409253
0.23836680100627383 -0.40829613853240004
0.23857889682028094 -0.5412177757879121
0.23891289477759084 -0.6737636812445482
0.23938356000251748 -0.8058276552162097
0.2400710197513005 -0.9372042921920573
0.24114606795086088 -1.0675073391963605
0.2428002383743498 -1.1961414109649375
0.24520027400776254 -1.322316134211423
0.2484594220604957 -1.4450507346055714
0.2526875727596748 -1.5631709546451096
0.25802768932007675 -1.675316637813606
0.26467500844149405 -1.7799005169753663
0.2728699619198056 -1.875058019341294
0.2828699737292801 -1.9586212503014653
0.2948953096852744 -2.028163120290188
0.30910537103839303 -2.0811353600356184
0.3255535555367655 -2.1150882374097124
0.343998986938486 -2.1279377809110978
0.36244441834020563 -2.1150882374096494
0.3788926028385747 -2.081135360035491
0.3931026641916886 -2.0281631202900052
0.4051280001476773 -1.958621250301238
0.4151280119571455 -1.8750580193410358
0.423322965435451 -1.7799005169750854
0.42997028455686254 -1.6753166378133086
0.4353104011172593 -1.563170954644805
0.4395385518164329 -1.445050734605269
0.44279769986916107 -1.3223161342111323
0.4451977355025694 -1.1961414109646646
0.4468519059260549 -1.0675073391961096
0.447926954125613 -0.9372042921918319
0.4486144138743948 -0.8058276552160122
0.449085079099321 -0.6737636812443818
0.4494190770566307 -0.5412177757877752
0.4496311728706377 -0.40829613853229424
0.44972732371726165 -0.2750477925408496
0.4497643264542554 -0.1415045158433356
0.45022368704626514 -0.00745497743147163
0.2710825662270605 -0.007812680074473602
0.271407452147533 -0.14154081263700952
0.27141805161715415 -0.27505022912613475
0.27145428621006973 -0.40830073679167256
0.2715750020538156 -0.541237542008373
0.27178922104251263 -0.6737992329797307
0.2721038761657108 -0.8058793482059534
0.27255808560617695 -0.9372858788306384
0.2732446828761997 -1.067653418197818
0.2742981774129026 -1.1963969728923114
0.2758477159346622 -1.3227181709008575
0.2779832526697672 -1.4456255834787615
0.28077276763524034 -1.5639441695938439
0.28430477844564117 -1.6763240594714233
0.2887040859387152 -1.7811892266832687
0.2941389631155024 -1.8766850078232937
0.3008117821845652 -1.9606452559023893
0.30893799355676915 -2.030633908706756
0.31871370424246304 -2.084096719063758
0.33036030956641865 -2.1185662515228367
0.3439989869384792 -2.131863191025206
0.3576376643105391 -2.1185662515227732
0.3692842696344924 -2.0840967190636297
0.37905998032018295 -2.030633908706572
0.3871861916923827 -1.960645255902161
0.39385901076144136 -1.8766850078230344
0.39929388793822446 -1.7811892266829867
0.403693195431295 -1.6763240594711253
0.40722520624169267 -1.563944169593538
0.4100147212071622 -1.4456255834784584
0.41215025794226406 -1.3227181709005655
0.41369979646402083 -1.196396972892038
0.4147532910007217 -1.0676534181975665
0.41543988827074313 -0.937285878830413
0.41589409771120867 -0.8058793482057559
0.41620875283440645 -0.673799232979564
0.4164229718231034 -0.5412375420082361
0.41654368766684924 -0.40830073679156675
0.4165799222597647 -0.27505022912605903
0.41659052172938577 -0.14154081263696427
0.4169154076498575 -0.007812680074460794
0.30433184853276346 -0.008086631396429234
0.3045640904132119 -0.14157891494073796
0.3045477064024503 -0.27504968279365904
0.3045273166213344 -0.40829768881632117
0.3045598328773784 -0.5412451638570986
0.3046534800207664 -0.6738187046615761
0.3048072483997552 -0.8059104385225148
0.3050352398508898 -0.9373325391825897
0.3053738500741175 -1.0677269706050216
0.30588359807387727 -1.1965214674174505
0.30662985621668065 -1.3229204862149788
0.3076741326382864 -1.445926173111177
0.30904788273806993 -1.5643584810454847
0.31079630517247686 -1.6768742368071317
0.31298311467393747 -1.781904415807269
0.31569847715385685 -1.8776043944866374
0.31907815479912643 -1.9618165569002624
0.32331547075265676 -2.032111307779399
0.3286606730173604 -2.085937618785741
0.33539182351426017 -2.1208536865980174
0.3439989869384721 -2.1346458298320483
0.35260615036268367 -2.1208536865979535
0.35933730085958254 -2.085937618785612
0.36468250312428396 -2.032111307779214
0.3689198190778118 -1.9618165569000336
0.3722994967230795 -1.8776043944863772
0.37501485920299704 -1.7819044158069863
0.3772016687044562 -1.676874236806833
0.378950091138862 -1.5643584810451787
0.38032384123864404 -1.4459261731108732
0.38136811766024853 -1.3229204862146866
0.3821143758030507 -1.196521467417177
0.3826241238028098 -1.0677269706047703
0.3829627340260369 -0.9373325391823644
0.3831907254771713 -0.8059104385223173
0.38334449385616 -0.6738187046614095
0.383438140999548 -0.5412451638569618
0.383470657255592 -0.4082976888162153
0.3834502674744761 -0.27504968279358327
0.38343388346371443 -0.14157891494069272
0.3836661253441624 -0.00808663139641599
0.3375376908805088 -0.008298224301378776
0.33770473502282544 -0.14161836240845854
0.33766396514272673 -0.275045726913536
0.3375900118342243 -0.40828751815070546
0.3375373718355855 -0.5412409528634194
0.33751115029904616 -0.6738218293264103
0.3375016811693556 -0.8059199743751069
0.33749950706439863 -0.9373480458869744
0.33749934856778485 -1.0677503515945266
0.33749965278928684 -1.1965576466578576
0.33749978509332695 -1.3229742014422037
0.3375002862991249 -1.4460041384994835
0.3374985322470359 -1.564465977468038
0.33749294322238366 -1.677017424398108
0.33748400399122286 -1.7820943911587108
0.337488195495895 -1.877861521179716
0.3375777516290505 -1.9621755710491342
0.3379302166096048 -2.032629361369912
0.3388515131904145 -2.0866905921654366
0.34070442933203265 -2.121931274984633
0.34399898693846476 -2.1362436121674317
0.3472935445448971 -2.121931274984569
0.3491464606865151 -2.086690592165308
0.35006775726732386 -2.0326293613697266
0.35042022224787805 -1.9621755710489055
0.35050977838103403 -1.8778615211794558
0.3505139698857066 -1.7820943911584275
0.3505050306545463 -1.6770174243978093
0.350499441629895 -1.564465977467732
0.35049768757780675 -1.4460041384991797
0.35049818878360545 -1.3229742014419117
0.350498321087646 -1.1965576466575842
0.3504986253091483 -1.0677503515942754
0.35049846681253477 -0.9373480458867488
0.35049629270757793 -0.8059199743749094
0.35048682357788746 -0.6738218293262437
0.3504606020413482 -0.5412409528632827
0.3504079620427095 -0.4082875181505996
0.35033400873420706 -0.2750457269134602
0.3502932388541084 -0.1416183624084133
0.35046028299642484 -0.00829822430136526
0.37071164892784386 -0.008464355204450281
0.3708338944178052 -0.1416566193458471
0.3707708156901996 -0.2750386826078206
0.3706467629076071 -0.40827054818951464
0.37051199447147415 -0.5412253649058597
0.3703680879129297 -0.6738087160743111
0.3701964156007833 -0.805907629697092
0.36996359330239925 -0.9373320499781909
0.3696248374152594 -1.0677270911624932
0.3691156958933354 -1.1965215058362095
0.3683703738640435 -1.3229208620346071
0.3673266201571033 -1.4459258719838346
0.36594926008324014 -1.5643570175120398
0.3641897526895318 -1.6768712537183323
0.36198463701867517 -1.7819017472632854
0.3592785339254933 -1.8776190119873555
0.35607100554862603 -1.961899722530915
0.35248590883993264 -2.032367090013121
0.34882663008023196 -2.086515490211216
0.34559324561466975 -2.1219081324444047
0.3439989869384576 -2.1367715082098
0.3424047282622451 -2.1219081324443407
0.33917134379668284 -2.086515490211087
0.33551206503698344 -2.0323670900129356
0.33192696832829266 -1.9618997225306865
0.3287194399514284 -1.877619011987096
0.32601333685824907 -1.7819017472630025
0.3238082211873949 -1.676871253718034
0.3220487137936896 -1.564357017511734
0.32067135371982947 -1.4459258719835313
0.31962760001289203 -1.3229208620343154
0.3188822779836024 -1.1965215058359362
0.3183731364616797 -1.0677270911622423
0.31803438057454075 -0.9373320499779653
0.31780155827615714 -0.8059076296968944
0.31762988596401115 -0.6738087160741445
0.31748597940546697 -0.541225364905723
0.31735121096933416 -0.4082705481894088
0.31722715818674174 -0.2750386826077448
0.3171640794591362 -0.14165661934580187
0.31728632494909736 -0.008464355204436565
0.4038697086625257 -0.008592612991939318
0.4039564141096223 -0.14169192292062638
0.40387291665137437 -0.27502866049582486
0.4037019749625149 -0.40824716883138357
0.40348834565669356 -0.54119899268206
0.4032299001892908 -0.6737797026733766
0.4028986938673984 -0.805873783368897
0.4024406221892688 -0.9372849368945707
0.4017538667575028 -1.0676536458245196
0.4007014803262751 -1.196397246429819
0.39915276519506626 -1.322718627455001
0.3970171400853179 -1.4456249026062937
0.39422487236514253 -1.5639410282530228
0.39068337853731955 -1.6763171836578112
0.3862665702332766 -1.7811832619925443
0.3808361467686611 -1.8767142438834787
0.37431188547992317 -1.960810434113369
0.3667647357201497 -2.0311390320512612
0.3585119898122814 -2.085252448841
0.35037872245108326 -2.120870785377471
0.3439989869384505 -2.136378716975389
0.3376192514258175 -2.120870785377407
0.3294859840646201 -2.0852524488408712
0.32123323815675453 -2.0311390320510765
0.3136860883969858 -1.9608104341131414
0.30716182710825296 -1.8767142438832198
0.3017314036436422 -1.7811832619922618
0.29731459533960375 -1.6763171836575137
0.2937731015117858 -1.5639410282527184
0.2909808337916156 -1.445624902605991
0.28884520868187197 -1.32271862745471
0.2872964935506671 -1.1963972464295458
0.2862441071194422 -1.067653645824269
0.2855573516876778 -0.9372849368943451
0.28509928000954915 -0.8058737833686996
0.28476807368765733 -0.6737797026732101
0.2845096282202549 -0.5411989926819232
0.2842959989144338 -0.40824716883127776
0.28412505722557446 -0.27502866049574903
0.2840415597673266 -0.14169192292058116
0.28412826521442314 -0.00859261299192544
0.4370226604888151 -0.00868839819868729
0.4370783236901273 -0.14172270020228375
0.4369751672375337 -0.2750156752180794
0.4367601764007521 -0.408217816114399
0.4364712370388698 -0.5411623923570285
0.4361020800749282 -0.6737357375720429
0.4356182873628603 -0.8058193105308733
0.43492706496043776 -0.9372029412433301
0.4338528293811426 -1.0675078404891702
0.43219993950551056 -1.1961419791095307
0.4298002467078086 -1.3223165422023402
0.4265405571169457 -1.4450497027573492
0.4223109942326737 -1.563166620346151
0.4169660253170098 -1.6753067357786877
0.4103075253053537 -1.7798914146431992
0.40211189374657175 -1.875097481153515
0.39220861208001634 -1.9588518965816741
0.38061370113869 -2.0288785204013124
0.3677496946500006 -2.082846314175381
0.3547600671028399 -2.118667296949236
0.3439989869384436 -2.1350731891196393
0.33323790677404735 -2.118667296949172
0.32024827922688814 -2.0828463141752525
0.30738427273820296 -2.0288785204011286
0.29578936179688325 -1.958851896581448
0.2858860801303348 -1.8750974811532577
0.2776904485715598 -1.7798914146429181
0.2710319485599101 -1.6753067357783917
0.26568697964425325 -1.5631666203458479
0.26145741675998835 -1.4450497027570481
0.2581977271691321 -1.3223165422020504
0.2557980343714359 -1.1961419791092585
0.25414514449580794 -1.0675078404889198
0.25307090891651546 -0.9372029412431048
0.25237968651409437 -0.8058193105306759
0.2518958938020272 -0.6737357375718763
0.251526736838086 -0.5411623923568917
0.251237797476204 -0.4082178161142932
0.25102280663942267 -0.2750156752180035
0.25091965018682916 -0.14172270020223854
0.2509753133881413 -0.008688398198673305
0.4701776362381295 -0.008756560150459976
0.4702054848333527 -0.14174773445604327
0.4700826040164573 -0.2749995985041775
0.46982599823266036 -0.4081828837731731
0.4694650456232655 -0.5411163904233635
0.4689917481758573 -0.6736780742920293
0.4683555590978737 -0.8057431416196953
0.4674044470573012 -0.9370719419184407
0.4659020262901954 -1.0672655529265969
0.4636068793597604 -1.1957306712407796
0.4603318551398412 -1.3216939802878143
0.4559327297167551 -1.444182930578129
0.45024985430834963 -1.5620172523461042
0.44307864005120834 -1.673822673949951
0.4341502093424429 -1.7780075282600771
0.423155112748605 -1.8727470433295843
0.4098248921340724 -1.9559966961093682
0.3941397434561827 -2.0255639974809565
0.3766527005342985 -2.0792832754177426
0.35890550329870763 -2.1153365380501885
0.34399898693843683 -2.1328956258427128
0.3290924705781666 -2.115336538050125
0.3113452733425782 -2.0792832754176156
0.29385823042069953 -2.0255639974807744
0.27817308174281796 -1.955996696109144
0.2648428611282939 -1.8727470433293287
0.2538477645344649 -1.7780075282597978
0.24491933382570807 -1.6738226739496567
0.23774811956857578 -1.5620172523458034
0.2320652441601793 -1.4441829305778298
0.22766611873710177 -1.321693980287526
0.22439109451718994 -1.1957306712405091
0.22209594758676032 -1.0672655529263473
0.22059352681965835 -0.9370719419182157
0.21964241477908802 -0.8057431416194979
0.21900622570110545 -0.6736780742918628
0.2185329282536978 -0.5411163904232267
0.21817197564430324 -0.40818288377306733
0.21791536986050658 -0.27499959850410166
0.21779248904361131 -0.14174773445599806
0.21782033763883446 -0.008756560150445904
0.5033398354644383 -0.00880168163300744
0.5033430431211285 -0.14176627244293705
0.5032003257879221 -0.2749802076351215
0.502904121547061 -0.4081427805550915
0.5024749574020975 -0.5410618182004113
0.5019037140161035 -0.6736082770791192
0.5011030821208313 -0.8056381502148837
0.4998638284973098 -0.9368780276030316
0.49789554003542064 -1.0669088625265317
0.49493502319300203 -1.195149715926519
0.49077851513648973 -1.320842112126904
0.4852306050439359 -1.4430157258712168
0.4780793884068783 -1.5604831754757784
0.4690604414816109 -1.671854115414405
0.4578392769964714 -1.7755204311969004
0.44402086746776603 -1.8696508911749663
0.42725512851854314 -1.9522343780131453
0.40748981830615555 -2.021188335796756
0.3854102464306404 -2.0745681622324765
0.36298591171071304 -2.1109056545471634
0.3439989869384301 -2.129864646061784
0.3250120621661482 -2.1109056545471
0.30258772744622464 -2.0745681622323504
0.2805081555707161 -2.021188335796576
0.2607428453583382 -1.9522343780129232
0.24397710640912554 -1.8696508911747132
0.23015869688043084 -1.7755204311966233
0.21893753239530206 -1.671854115414113
0.20991858547004558 -1.5604831754754798
0.20276736883299887 -1.4430157258709198
0.19721945874045532 -1.3208421121266183
0.19306295068395202 -1.19514971592625
0.1901024338415401 -1.0669088625262835
0.18813414537965586 -0.9368780276028074
0.1868948917561375 -0.8056381502146868
0.1860942598608667 -0.6736082770789528
0.18552301647487326 -0.5410618182002745
0.1850938523299101 -0.4081427805549857
0.18479764808904925 -0.27498020763504566
0.18465493075584297 -0.14176627244289183
0.18465813841253334 -0.00880168163299333
0.5365130627498902 -0.008828259082481724
0.5364953509931918 -0.14177801316095096
0.5363333719182282 -0.274957309014015
0.5359992944855126 -0.40809786229970507
0.5355056966893131 -0.540999793688333
0.5348357655014158 -0.6735242356350624
0.5338563065161934 -0.8054972013167638
0.53229692184019 -0.9366066901822617
0.5298372081003654 -1.0664263766688673
0.5262102671284808 -1.1943937461297587
0.5211668747182143 -1.3197558707204136
0.5144640518530442 -1.4415426164154912
0.5058339040121791 -1.5585575338571367
0.49494966932740264 -1.6693927086951341
0.4814105977300711 -1.7724216917189006
0.46476619994911367 -1.8658060046532061
0.44459570319012737 -1.947568316616252
0.42080909132934097 -2.0157588211930264
0.39420753432236044 -2.068711583614549
0.3671298349467108 -2.1053779334226177
0.34399898693842346 -2.125967015395878
0.32086813893013766 -2.105377933422555
0.293790439554493 -2.0687115836144248
0.26718888254752043 -2.015758821192848
0.24340227068674514 -1.9475683166160327
0.2232317739277707 -1.8658060046529557
0.20658737614682596 -1.7724216917186262
0.19304830454950692 -1.669392708694845
0.1821640698647433 -1.558557533856841
0.17353392202389092 -1.4415426164151968
0.16683109915873282 -1.31975587072013
0.16178770674847665 -1.1943937461294916
0.1581607657766002 -1.0664263766686204
0.15570105203678164 -0.9366066901820385
0.15414166736078222 -0.8054972013165671
0.1531622083755618 -0.6735242356348962
0.15249227718766506 -0.5409997936881962
0.15199867939146594 -0.4080978622995994
0.15166460195875073 -0.27495730901393917
0.15150262288378732 -0.14177801316090574
0.15148491112708892 -0.008828259082467614
0.5696997809406683 -0.008840835397626666
0.5696659690019877 -0.14178308112850768
0.569486706361285 -0.27493087865725385
0.569116660156953 -0.40804840085889954
0.5685606506148878 -0.5409312772886757
0.5677876575416154 -0.6734231173039237
0.566606381699093 -0.8053096800532282
0.5646969297256601 -0.936245983925157
0.56174673606158 -1.0658147244779557
0.5574519600690757 -1.1934596465652287
0.5515212983324366 -1.3184321077267644
0.5436617678318795 -1.439760107312567
0.5335452276832903 -1.556235285371682
0.5207804969061725 -1.6664313879804378
0.504909550552972 -1.7687059069166156
0.48543703074163974 -1.8612149900617263
0.46192606193560637 -1.9420153354827459
0.43425137865061797 -2.0092995222050076
0.40323066513071865 -2.0617234309429744
0.37145893222683696 -2.098731849737197
0.34399898693841713 -2.1211601545080674
0.3165390416499987 -2.0987318497371352
0.28476730874612305 -2.061723430942852
0.25374659522623316 -2.0092995222048313
0.22607191194125736 -1.9420153354825294
0.20256094313523765 -1.8612149900614792
0.18308842332391986 -1.7687059069163442
0.16721747697073375 -1.6664313879801518
0.15445274619363072 -1.5562352853713899
0.14433620604505626 -1.4397601073122757
0.1364766755445128 -1.3184321077264838
0.13054601380788539 -1.1934596465649638
0.12625123781539047 -1.0658147244777105
0.12330104415131737 -0.9362459839249351
0.12139159217788925 -0.8053096800530323
0.12021031633536934 -0.6734231173037577
0.11943732326209788 -0.5409312772885391
0.1188813137200332 -0.4080484008587938
0.11851126751570158 -0.2749308786571781
0.1183320048749989 -0.14178308112846247
0.11829819293631837 -0.008840835397612538
0.6029008527259097 -0.0088440615674657
0.6028575879775538 -0.1417820890360827
0.6026655724019214 -0.2749011349395504
0.6022613919952009 -0.4079947385302108
0.6016428676992681 -0.5408558156339384
0.6007560931428773 -0.673300213509609
0.5993429028432201 -0.8050645010583046
0.5970790853240138 -0.9357929028029071
0.593637512714588 -1.0650717479773995
0.5886782148620477 -1.1923458467172703
0.5818645400492517 -1.3168696358201044
0.5728493597928696 -1.4376659364519557
0.5612443222572638 -1.5535129436642472
0.5465923587999856 -1.6629653722178368
0.5283744074274515 -1.7643680293510775
0.5060793291419703 -1.8558828845875512
0.47930561321556664 -1.9356058740574358
0.44794742245251395 -2.0018538607892737
0.41267621550389594 -2.0536156021737035
0.3761334262193685 -2.0909203906510543
0.3439989869384105 -2.1153643425200768
0.3118645476574542 -2.0909203906509934
0.27532175837293393 -2.0536156021735827
0.24005055142432685 -2.0018538607891005
0.2086923606612885 -1.9356058740572228
0.18191864473490021 -1.8558828845873072
0.1596235664494354 -1.76436802935081
0.1414056150769174 -1.6629653722175544
0.12675365161965596 -1.5535129436639588
0.11514861408406696 -1.4376659364516677
0.10613343382769994 -1.316869635819827
0.09931975901491683 -1.1923458467170083
0.0943604611623871 -1.0650717479771563
0.0909188885529695 -0.9357929028026866
0.08865507103376871 -0.8050645010581096
0.08724188073411462 -0.6733002135094432
0.0863551061777251 -0.5408558156338017
0.08573658188179285 -0.40799473853010504
0.08533240147507269 -0.27490113493947466
0.0851403858994404 -0.1417820890360375
0.08509712115108464 -0.008844061567451563
0.6361148711145995 -0.008842680869515035
0.6360719623823339 -0.14177632199096213
0.6358759497789548 -0.2748687389237665
0.6354391640520392 -0.4079368883782844
0.634753317873338 -0.5407720939361541
0.633731769989144 -0.6731460532610553
0.6320703841584494 -0.804755573665255
0.6294513105556574 -0.9352458406143527
0.625522505759572 -1.0641965339667596
0.619906450248709 -1.1910525474648912
0.6122180287735849 -1.3150682511897522
0.6020536850926593 -1.4352593966472558
0.5889603292401738 -1.5503882410479328
0.5724156020736438 -1.6589913685524738
0.5518570792683136 -1.7594070257336356
0.5267540580965334 -1.8498147449767766
0.4967642099011438 -1.9283675578384214
0.4619193366989803 -1.9934946025592206
0.42281321420976653 -2.0444279818522566
0.3814270005837563 -2.0818626462460568
0.34399898693840364 -2.1084367814216427
0.30657097329305316 -2.081862646245997
0.2651847596670511 -2.0444279818521385
0.2260786371778499 -1.9934946025590505
0.19123376397570266 -1.9283675578382122
0.16124391578033034 -1.8498147449765363
0.13614089460856824 -1.7594070257333723
0.11558237180325619 -1.6589913685521953
0.09903764463674498 -1.5503882410476484
0.08594428878427805 -1.4352593966469722
0.0757799451033693 -1.3150682511894782
0.06809152362825921 -1.1910525474646319
0.062475468117407965 -1.0641965339665187
0.05854666332133159 -0.9352458406141337
0.05592758971854578 -0.8047555736650609
0.054266203887855 -0.6731460532608899
0.05324465600366267 -0.5407720939360177
0.05255880982496209 -0.4079368883781787
0.05212202409804691 -0.27486873892369074
0.05192601149466806 -0.14177632199091691
0.05188310276240234 -0.008842680869500914
0.6693368136776362 -0.008841359380818124
0.6693099004252504 -0.14176824590907705
0.6691255147332479 -0.274834874435353
0.6686562836086454 -0.4078745103031176
0.6678898641492336 -0.5406758231311842
0.6667103286236192 -0.6729544038951581
0.6647950170332179 -0.8043804621916893
0.6618219987879308 -0.9346039790920988
0.657414358215676 -1.0631899079530998
0.6511533347669936 -1.1895812653145807
0.6426039758606882 -1.3130295119244957
0.6312992852928433 -1.4325401242148161
0.6167185571916584 -1.546859613513393
0.5982914266035896 -1.6545100338746521
0.575408512246 -1.7538257278055613
0.5475257168876401 -1.8430161023552012
0.5143538721938475 -1.920314774558584
0.47609151823107787 -1.9842815779523173
0.4336026432933914 -2.034322912497564
0.3883048970341225 -2.0714850305558574
0.34399898693839653 -2.1000000000000005
0.2996930768426728 -2.0714850305557992
0.2543953305834131 -2.0343229124974487
0.21190645564574143 -1.9842815779521512
0.1736441016829901 -1.9203147745583793
0.14047225698921698 -1.8430161023549654
0.112589461630877 -1.7538257278053027
0.0897065472733077 -1.6545100338743783
0.0712794166852597 -1.5468596135131134
0.05669868858409494 -1.432540124214537
0.04539399801626871 -1.3130295119242255
0.036844639109978664 -1.1895812653143245
0.030583615661308867 -1.0631899079528613
0.026175975089063858 -0.9346039790918819
0.02320295684378383 -0.8043804621914965
0.021287645253386778 -0.6729544038949934
0.020108109727774534 -0.5406758231310478
0.019341690268363434 -0.40787451030301203
0.01887245914376147 -0.27483487443527715
0.01868807345175904 -0.14176824590903186
0.018661160199373368 -0.008841359380803994
SCALARS Stress float 6
LOOKUP_TABLE default
-1006.6674955766484 -1788.4839016252963 -1319.4576504825052 -8.989499208812928 0.0 0.0
1185.2516917985124 685.6638867759438 837.9795196193758 -24.98198208095151 0.0 0.0
515.8458590156649 87.68303274412763 182.7159723709138 -35.235584268729056 0.0 0.0
443.60454160968766 15.872813205313935 138.22352545643952 -3.758409987629742 0.0 0.0
546.8878532175653 46.3427551491819 191.89137908478565 -0.2705674627727892 0.0 0.0
627.6913046369955 77.3803258714407 272.8036934823608 0.4325376786471331 0.0 0.0
721.9194842821769 101.04977438034348 360.79239449991974 -0.037143467611520986 0.0 0.0
813.2955950330853 140.65790507930808 449.1525255679474 -0.741197638245868 0.0 0.0
908.9531250603293 191.14699041433033 533.756262963356 -1.671667296480691 0.0 0.0
1016.6997479754338 257.96007355790755 625.3543393022601 -2.7516014928051526 0.0 0.0
1140.815654541331 344.1094591050197 731.7101384119303 -3.8840724543223546 0.0 0.0
1280.8238314728576 449.4742309613318 854.4233448961808 -4.973571918087538 0.0 0.0
1432.8424085539182 567.8089220810148 989.1153330306169 -5.669083122874648 0.0 0.0
1592.1682653076477 694.3880993145231 1131.4816221898693 -6.261434150439941 0.0 0.0
1751.078863877317 821.5730343645098 1273.8976087847695 -6.717222165581619 0.0 0.0
1901.3995767978533 941.6770272893848 1408.493062360745 -7.0119600069304875 0.0 0.0
2035.8244095701211 1048.4301084689941 1528.5706020511298 -6.9836801237969865 0.0 0.0
2146.8902415567118 1135.5327581719523 1627.3343126417603 -6.44096239994721 0.0 0.0
2230.067442267257 1199.592187311666 1700.790206696127 -5.321915462535487 0.0 0.0
2276.0951972501484 1232.656635323507 1740.3416702430136 -4.80632895007808 0.0 0.0
2273.043120794304 1226.6819182610338 1736.1614696369156 -1.681321748492337e-11 0.0 0.0
2276.0951972495927 1232.6566353229696 1740.3416702425131 4.806328950135409 0.0 0.0
2230.0674422668226 1199.5921873112752 1700.7902066957258 5.3219154625823855 0.0 0.0
2146.8902415570883 1135.5327581724005 1627.3343126418902 6.440962399919687 0.0 0.0
2035.8244095688456 1048.4301084677913 1528.5706020500156 6.983680123789991 0.0 0.0
1901.3995767976521 941.677027289292 1408.493062360497 7.011960006821722 0.0 0.0
1751.0788638766112 821.5730343639227 1273.897608784079 6.717222165578033 0.0 0.0
1592.168265306852 694.3880993138742 1131.4816221891558 6.261434150459964 0.0 0.0
1432.842408553469 567.808922080741 989.1153330301739 5.669083122832239 0.0 0.0
1280.8238314717553 449.47423096041166 854.4233448953321 4.973571918025032 0.0 0.0
1140.8156545402528 344.10945910412926 731.7101384110834 3.88407245434 0.0 0.0
1016.6997479746216 257.96007355731973 625.3543393015719 2.7516014926996917 0.0 0.0
908.953125059119 191.14699041332256 533.756262962418 1.6716672964403756 0.0 0.0
813.2955950330053 140.6579050794961 449.15252556774936 0.7411976383428964 0.0 0.0
721.9194842815049 101.0497743799144 360.7923944993363 0.03714346759343279 0.0 0.0
627.6913046366743 77.38032587139882 272.80369348200793 -0.4325376787174253 0.0 0.0
546.8878532175193 46.342755149432996 191.89137908474038 0.27056746295021483 0.0 0.0
443.60454160943146 15.87281320518337 138.22352545633112 3.758409987497779 0.0 0.0
515.8458590154665 87.68303274422176 182.71597237085146 35.235584268698084 0.0 0.0
1185.2516917980133 685.6638867754049 837.9795196187691 24.981982080936838 0.0 0.0
-1006.6674955740812 -1788.4839016227256 -1319.4576504799618 8.989499208215975 0.0 0.0
-1282.901767723726 -2033.1961328424015 -1541.8989273060852 -7.522988801714806 0.0 0.0
800.9664741268734 385.2262405951265 520.8758620861535 -37.59251770354551 0.0 0.0
355.8642719964091 35.7925463745176 116.55565887129787 -28.243677856630057 0.0 0.0
392.9036632882096 1.718050595288032 118.45682109405786 -16.497025237929034 0.0 0.0
487.81685945475306 19.200557710102164 159.4396404228627 -15.012535144121268 0.0 0.0
572.8869276567735 25.650514682430856 221.25769925866254 -18.362754166058046 0.0 0.0
641.8766374845404 35.41643196772775 293.08315662603127 -20.63493947440358 0.0 0.0
710.9155719362803 50.5901249924993 359.5329210581008 -21.514361359007587 0.0 0.0
776.1281645875804 69.8713886245178 414.4955608067093 -21.714650354288615 0.0 0.0
842.5993032226459 95.59218347700815 465.6122363455028 -21.774157700618385 0.0 0.0
912.2861027078676 127.98054482276518 518.3307772951226 -21.611517414200623 0.0 0.0
984.7419430984601 165.0070965259592 573.5618930714194 -21.30963571290539 0.0 0.0
1057.4369903620689 205.35614706081066 630.1294861501419 -20.7560390356081 0.0 0.0
1127.9312652359754 243.38924549771457 684.2937876152994 -20.138956766478913 0.0 0.0
1189.7787758103502 273.87226872025525 730.3320027810987 -19.583727758974796 0.0 0.0
1237.9798587366888 292.2170960304427 763.4790603329773 -18.893215911402113 0.0 0.0
1269.316251120964 296.080358749243 780.9973431714087 -17.771656981178257 0.0 0.0
1284.2153344465569 287.0237855808962 783.9165637657522 -15.943553069468422 0.0 0.0
1283.8442843359899 267.47770498800185 774.1027470914153 -13.38034024671873 0.0 0.0
1255.3322723708188 225.9924269823958 739.6931607617676 -10.947265119243566 0.0 0.0
1202.8327543749122 170.7467509945838 686.8348507986451 -3.023181704975286e-11 0.0 0.0
1255.332272370767 225.99242698237327 739.6931607617485 10.947265119305051 0.0 0.0
1283.8442843359155 267.4777049879707 774.1027470913895 13.380340246747362 0.0 0.0
1284.2153344464916 287.023785580886 783.9165637656881 15.943553069478003 0.0 0.0
1269.3162511207552 296.0803587491161 780.9973431711927 17.77165698121924 0.0 0.0
1237.979858736448 292.2170960302983 763.4790603327649 18.89321591132869 0.0 0.0
1189.7787758101606 273.8722687201956 730.3320027809023 19.583727759049346 0.0 0.0
1127.9312652357157 243.38924549758656 684.2937876150693 20.13895676649588 0.0 0.0
1057.4369903620332 205.3561470609436 630.1294861500745 20.75603903557147 0.0 0.0
984.7419430980682 165.0070965257562 573.5618930711412 21.309635712897894 0.0 0.0
912.2861027069167 127.98054482202357 518.3307772944396 21.61151741424343 0.0 0.0
842.5993032220571 95.5921834766068 465.6122363450728 21.774157700597183 0.0 0.0
776.1281645869627 69.87138862410862 414.4955608062331 21.71465035418265 0.0 0.0
710.915571936309 50.59012499279807 359.5329210580153 21.514361359078134 0.0 0.0
641.8766374842648 35.41643196773215 293.08315662571727 20.63493947435248 0.0 0.0
572.8869276563497 25.650514682236228 221.2576992583015 18.36275416598879 0.0 0.0
487.81685945447936 19.20055771017512 159.43964042274837 15.012535144196086 0.0 0.0
392.90366328795915 1.7180505951751872 118.45682109395733 16.497025237851172 0.0 0.0
355.86427199638626 35.79254637464566 116.55565887133673 28.24367785655714 0.0 0.0
800.9664741263164 385.22624059459355 520.87586208553 37.59251770352974 0.0 0.0
-1282.9017677218385 -2033.1961328404104 -1541.8989273040602 7.52298880120501 0.0 0.0
-1048.7436190013586 -1764.8556529604236 -1280.0867166358921 -46.877132783869214 0.0 0.0
602.9567739408225 292.2508457428488 381.03031357223625 -102.0199179978784 0.0 0.0
255.47328025505615 43.77464304152283 89.77431132449681 -29.071254508463443 0.0 0.0
335.6106243489909 -1.0782842326633568 100.37821455315185 -36.37444179283436 0.0 0.0
441.03467195786936 12.632157264414671 138.24338685673482 -36.99223027686501 0.0 0.0
541.3362887447124 22.126739536316336 195.70743307640504 -36.418313556283614 0.0 0.0
613.643209669502 33.65064639574139 268.8898315764616 -39.12112618939369 0.0 0.0
684.8796139828635 44.815284343264544 336.9389052864467 -40.67006357911594 0.0 0.0
749.1528801886565 61.87753243274858 393.5891506840277 -41.27719741216921 0.0 0.0
812.872975463974 84.06532466161664 443.327808819759 -41.485514198440114 0.0 0.0
878.619023606369 112.61836890264188 492.94080967866466 -41.20440686239046 0.0 0.0
946.5413545450206 146.54814849204217 544.6644880982994 -40.34369309054714 0.0 0.0
1016.001325581213 182.51198684892728 597.5606530037599 -39.2418671366126 0.0 0.0
1081.8855571846361 217.41721831279665 647.9246827195718 -38.05485471303961 0.0 0.0
1140.520377631483 245.05536908824263 690.9449870877404 -36.930502108040486 0.0 0.0
1186.5946448127086 261.5982081674695 722.130230327871 -35.57573627876232 0.0 0.0
1218.0894142041034 265.7809261157879 739.9028759148274 -33.45684754804905 0.0 0.0
1233.864518248858 257.561085072515 743.7224361530318 -30.218580593427923 0.0 0.0
1230.0218057565792 234.35172720543846 730.4736835843808 -25.8428503354014 0.0 0.0
1211.6541379242574 202.9503064811663 705.9604090370609 -20.259131267420653 0.0 0.0
1144.8799237520673 133.66434462709904 639.2947409411285 1.9981349907993717e-11 0.0 0.0
1211.6541379237528 202.95030648067882 705.9604090367603 20.259131267494197 0.0 0.0
1230.0218057571708 234.3517272060855 730.4736835847441 25.842850335487995 0.0 0.0
1233.8645182485348 257.56108507226844 743.7224361528217 30.218580593493996 0.0 0.0
1218.0894142039763 265.7809261157272 739.9028759146929 33.4568475481115 0.0 0.0
1186.5946448121674 261.5982081670193 722.1302303274567 35.57573627869754 0.0 0.0
1140.520377630995 245.05536908786914 690.9449870873335 36.930502108087225 0.0 0.0
1081.8855571846073 217.41721831290056 647.9246827194972 38.054854713037855 0.0 0.0
1016.0013255807244 182.51198684858937 597.5606530033658 39.241867136567464 0.0 0.0
946.5413545448833 146.54814849209657 544.664488098209 40.3436930905711 0.0 0.0
878.6190236060103 112.6183689025001 492.9408096783629 41.20440686239941 0.0 0.0
812.8729754634595 84.0653246613064 443.3278088194004 41.48551419845092 0.0 0.0
749.1528801887613 61.87753243309814 393.58915068401353 41.277197412112464 0.0 0.0
684.879613982631 44.815284343308214 336.9389052861798 40.67006357911538 0.0 0.0
613.6432096692849 33.650646395839715 268.88983157617855 39.12112618934495 0.0 0.0
541.3362887442162 22.12673953606734 195.70743307603294 36.418313556285554 0.0 0.0
441.03467195762914 12.632157264607569 138.24338685670546 36.99223027686856 0.0 0.0
335.6106243489 -1.078284232631942 100.37821455313514 36.374441792869206 0.0 0.0
255.473280255045 43.774643041358715 89.7743113244443 29.07125450842851 0.0 0.0
602.9567739403539 292.25084574258915 381.03031357175615 102.01991799777852 0.0 0.0
-1048.7436189995424 -1764.8556529585294 -1280.08671663393 46.87713278354876 0.0 0.0
-845.0328312021211 -1530.0456843419684 -1051.3733461443132 -60.85039864521013 0.0 0.0
451.11671092042553 198.3813181039275 269.19867706516095 -143.19197838132425 0.0 0.0
188.673488871458 43.821531804588844 69.74850620281404 -51.3274398765371 0.0 0.0
280.63262208183875 3.6802740473713107 85.29666087562647 -55.35698923662501 0.0 0.0
387.28580960443486 5.263416847474874 117.23702061409372 -60.601243371434876 0.0 0.0
494.8743372917542 17.73932483077739 168.26369680234092 -56.53058393469669 0.0 0.0
584.449045278139 28.93616533638992 240.0372590954447 -59.12863293947247 0.0 0.0
653.6777591321907 39.34531217969296 310.064706946156 -60.18760147681325 0.0 0.0
718.1429115134936 53.92118710484445 369.1510769923481 -60.69130935186914 0.0 0.0
779.4780520571508 72.9649837414633 418.58887268327993 -60.75031461021203 0.0 0.0
841.0248023480145 97.5791128128887 465.32122992345535 -60.08896236550452 0.0 0.0
904.9309208058775 127.02349374260383 513.285500616914 -58.755329199597284 0.0 0.0
969.8256231847691 160.16868030082537 562.7257576603695 -57.03345884517924 0.0 0.0
1032.1689245158796 190.3006378306097 609.0235833942503 -55.46171138898025 0.0 0.0
1087.034729470803 215.0388225745931 648.7361159113036 -53.86598728982447 0.0 0.0
1131.9108309908213 231.14714535441271 679.122040933816 -51.87451736721565 0.0 0.0
1163.9714195619863 235.69066923873817 697.3801925276097 -48.97985503280879 0.0 0.0
1180.0746680888578 227.49988934016096 701.4300042344249 -44.70592161350113 0.0 0.0
1178.670928644289 206.29546904760056 690.4054976689719 -38.55313658050771 0.0 0.0
1165.5940940387345 179.48874746681037 670.7268048270063 -28.927475737991006 0.0 0.0
1070.3506521865888 81.6598465426842 576.3303115801383 4.406253140132321e-11 0.0 0.0
1165.5940940383305 179.48874746646246 670.7268048267157 28.92747573811623 0.0 0.0
1178.6709286443997 206.29546904774656 690.4054976690087 38.5531365807084 0.0 0.0
1180.0746680888228 227.49988934016454 701.4300042343999 44.70592161347065 0.0 0.0
1163.9714195614881 235.69066923832202 697.3801925272278 48.97985503282084 0.0 0.0
1131.9108309905114 231.14714535419066 679.1220409336088 51.874517367188204 0.0 0.0
1087.0347294697976 215.03882257368076 648.7361159105343 53.86598728982416 0.0 0.0
1032.1689245153677 190.30063783022092 609.0235833938888 55.46171138898498 0.0 0.0
969.8256231847486 160.1686803009742 562.725757660301 57.03345884516862 0.0 0.0
904.9309208055715 127.02349374246636 513.2855006166955 58.75532919956648 0.0 0.0
841.0248023479894 97.57911281308957 465.32122992341243 60.08896236557605 0.0 0.0
779.4780520567202 72.96498374130766 418.58887268294035 60.750314610310966 0.0 0.0
718.1429115133485 53.92118710491357 369.1510769921849 60.691309351887895 0.0 0.0
653.6777591320812 39.34531217987471 310.06470694594697 60.18760147679131 0.0 0.0
584.4490452777553 28.936165336303418 240.03725909508543 59.12863293940183 0.0 0.0
494.87433729124575 17.73932483053742 168.26369680202262 56.53058393467404 0.0 0.0
387.2858096042032 5.263416847670125 117.23702061409836 60.60124337136597 0.0 0.0
280.63262208181163 3.680274047444977 85.29666087563791 55.35698923658932 0.0 0.0
188.6734888713484 43.821531804355104 69.74850620271104 51.32743987645199 0.0 0.0
451.1167109199177 198.38131810371988 269.1986770647221 143.1919783811762 0.0 0.0
-845.0328312006968 -1530.04568434039 -1051.3733461426323 60.850398645039476 0.0 0.0
-669.4998683974281 -1324.149238269115 -851.2403172517725 -62.13686538496612 0.0 0.0
340.0542280985832 117.60351361973291 184.30684033469134 -171.86005550447143 0.0 0.0
139.49059725840263 38.0597078268173 53.265091525565964 -79.748667479602 0.0 0.0
229.58951385836633 10.39759256022242 71.9968872817685 -75.85985424652546 0.0 0.0
325.9264719113249 4.201902277342734 98.90894468088352 -82.63387727213271 0.0 0.0
442.85673276771473 6.345013844268256 139.0051952175224 -82.93954339352632 0.0 0.0
542.1171324072972 22.43596262030204 205.84364881732677 -79.35293731456188 0.0 0.0
616.6492712847526 35.5276294629826 279.2202363956976 -79.82192733400225 0.0 0.0
681.876730052 46.36340804846745 340.19006714141153 -79.98686582822863 0.0 0.0
741.2953464370651 62.145051188655806 390.2619146299624 -79.54176219508017 0.0 0.0
799.4796260549213 82.50853760443151 434.9366277933375 -78.36160097772597 0.0 0.0
858.8739319610464 107.58450706164092 479.30733870046436 -76.4506630753699 0.0 0.0
919.5688482598681 135.786521855115 524.54603190452 -74.33242851736298 0.0 0.0
977.4890617875642 163.67887567980077 567.6990543620435 -72.29798405519003 0.0 0.0
1029.4573647600168 185.18848954640362 604.412930475644 -70.3193345263846 0.0 0.0
1072.4800593423713 198.9791424358814 632.7302870407019 -67.89977736901173 0.0 0.0
1105.2404714806073 204.79606133380494 652.0109307111071 -64.39126127275387 0.0 0.0
1124.1046450846743 199.0256960608982 658.654364830527 -59.33515777131555 0.0 0.0
1126.4022534955352 180.6629557983166 650.8936360883026 -51.41842043838075 0.0 0.0
1115.3561168402832 154.41829898970377 632.490494746778 -37.952604167619846 0.0 0.0
984.2924534116225 20.597316974483327 503.29909888820623 5.079670017948956e-11 0.0 0.0
1115.3561168405038 154.4182989899568 632.490494746931 37.952604167719535 0.0 0.0
1126.4022534948047 180.6629557976417 650.8936360878238 51.418420438496135 0.0 0.0
1124.1046450844485 199.02569606073695 658.6543648303812 59.335157771395735 0.0 0.0
1105.2404714807058 204.79606133401688 652.0109307111207 64.39126127285061 0.0 0.0
1072.4800593423597 198.9791424359631 632.7302870406717 67.89977736902918 0.0 0.0
1029.4573647590528 185.1884895455266 604.4129304749373 70.31933452636366 0.0 0.0
977.4890617870115 163.67887567942043 567.6990543616497 72.29798405526807 0.0 0.0
919.5688482600492 135.78652185549876 524.5460319046182 74.33242851753486 0.0 0.0
858.873931960857 107.58450706164015 479.30733870029337 76.45066307535998 0.0 0.0
799.4796260545796 82.50853760427671 434.9366277930379 78.36160097774595 0.0 0.0
741.2953464366839 62.145051188545835 390.2619146296658 79.54176219514059 0.0 0.0
681.8767300513392 46.363408048001105 340.19006714089517 79.98686582817223 0.0 0.0
616.6492712846031 35.5276294631853 279.220236395477 79.82192733403956 0.0 0.0
542.1171324068927 22.435962620191376 205.8436488169708 79.35293731450265 0.0 0.0
442.8567327674123 6.345013844435278 139.0051952174285 82.93954339354522 0.0 0.0
325.92647191114787 4.201902277489388 98.90894468087717 82.6338772721091 0.0 0.0
229.589513858307 10.397592560270436 71.99688728176463 75.85985424640909 0.0 0.0
139.4905972583373 38.05970782673229 53.26509152552088 79.74866747941057 0.0 0.0
340.05422809812757 117.60351361954467 184.30684033433354 171.8600555042816 0.0 0.0
-669.4998683961842 -1324.1492382676338 -851.2403172502729 62.13686538491201 0.0 0.0
-516.2096452702904 -1141.4537082652116 -675.4263493195128 -63.30965167954106 0.0 0.0
252.77450067204592 55.92766307990489 120.68578996158115 -186.5133008853171 0.0 0.0
100.9023980122276 28.601854981350698 38.85127589807348 -106.58109812339023 0.0 0.0
181.86896536779045 15.88959947928418 59.327532242991644 -96.93730826061667 0.0 0.0
267.7969110753628 4.035842938879394 81.5009894196856 -103.74378202187398 0.0 0.0
373.49462840495437 2.1292087639564956 113.10012330116791 -106.80756335414972 0.0 0.0
480.1395533848057 16.02277016532219 169.09451119648577 -101.77310846214219 0.0 0.0
573.0448144356174 27.426523125763772 240.32005655018708 -101.05358116993996 0.0 0.0
636.6782386528038 40.08225301595314 305.2743892553827 -98.61214276404306 0.0 0.0
697.459218246322 51.37365687724673 356.89384144965936 -97.97019168695127 0.0 0.0
752.4770605953878 67.51333694422952 400.530833172191 -96.03896085180229 0.0 0.0
807.5600331921432 88.10162201209886 441.8529958548872 -93.47604073557586 0.0 0.0
863.6179338552391 112.19703655321521 483.4016337301417 -90.88127116630234 0.0 0.0
917.3944530389036 135.1979424150765 522.3606023881384 -88.59205280812918 0.0 0.0
966.139200235747 154.5661069901165 556.5188125886048 -86.35364711570173 0.0 0.0
1007.4738162021728 167.62565491299569 583.7201089384693 -83.45635625850457 0.0 0.0
1040.6784990733977 172.58294177600817 602.8146217573997 -79.60372808355147 0.0 0.0
1063.4408013822194 170.4714291674344 613.1893379920515 -74.02491325144179 0.0 0.0
1071.0996277223828 156.7258355991767 610.4290540692184 -64.66592570507694 0.0 0.0
1061.148636983415 129.29171525364143 592.0270331117517 -47.87217807915831 0.0 0.0
886.34609344466 -48.37407855430163 420.6322419283967 5.340261566288973e-11 0.0 0.0
1061.1486369831764 129.29171525346177 592.0270331116005 47.872178079322914 0.0 0.0
1071.0996277222905 156.7258355991715 610.4290540691816 64.66592570525575 0.0 0.0
1063.4408013816985 170.4714291670163 613.1893379917269 74.02491325167345 0.0 0.0
1040.6784990737428 172.58294177644717 602.8146217575529 79.60372808367211 0.0 0.0
1007.4738162021921 167.62565491311005 583.7201089384566 83.45635625851055 0.0 0.0
966.1392002353055 154.56610698980356 556.5188125882709 86.35364711571603 0.0 0.0
917.3944530387884 135.19794241516223 522.3606023880109 88.59205280828444 0.0 0.0
863.6179338544338 112.19703655249737 483.40163372959466 90.8812711662966 0.0 0.0
807.5600331919709 88.10162201212363 441.85299585475184 93.47604073558578 0.0 0.0
752.4770605954193 67.51333694442778 400.53083317210996 96.03896085175772 0.0 0.0
697.4592182459263 51.37365687708849 356.8938414493507 97.97019168689266 0.0 0.0
636.678238652599 40.082253016022364 305.2743892551351 98.61214276406224 0.0 0.0
573.0448144353006 27.426523125750492 240.32005654986088 101.05358116990247 0.0 0.0
480.13955338427644 16.022770165132343 169.09451119613578 101.77310846218441 0.0 0.0
373.49462840469687 2.1292087642442503 113.10012330116714 106.80756335404241 0.0 0.0
267.7969110754445 4.035842939416998 81.50098941987275 103.74378202177944 0.0 0.0
181.8689653677498 15.889599479290005 59.327532242981285 96.93730826045334 0.0 0.0
100.9023980122388 28.601854981457407 38.85127589810885 106.58109812319071 0.0 0.0
252.77450067164216 55.92766307972483 120.68578996128917 186.5133008851205 0.0 0.0
-516.2096452691715 -1141.4537082638524 -675.4263493181899 63.30965167951127 0.0 0.0
-385.95160037983476 -972.7630807033379 -522.5707086637298 -65.59151028977108 0.0 0.0
184.49061965822224 6.560437994580946 72.9530721695408 -194.1781563990319 0.0 0.0
68.8461602395002 18.480744061484792 26.19807129029549 -128.8860466473296 0.0 0.0
136.7578923193681 19.262251312276653 46.80604308949342 -116.93327785963336 0.0 0.0
210.709145743343 6.138268178899975 65.06345731436367 -122.31696617366258 0.0 0.0
298.7181591898015 -1.4861038632846402 88.46662403784039 -130.1531144411959 0.0 0.0
408.6991450661191 4.850934164928951 130.60691291562654 -128.98544925280424 0.0 0.0
504.6951023747339 21.211710123678035 194.98377168291313 -121.67930641272063 0.0 0.0
585.8654828056287 29.066700895588397 260.4004987373974 -120.18212309886539 0.0 0.0
643.3847520719512 41.32258732409497 315.80572249763605 -115.5425160533239 0.0 0.0
698.3339107395965 52.55089449733787 359.94280112889726 -113.08608370642318 0.0 0.0
749.559918599555 68.41642645242005 399.22588636919403 -109.92785463102041 0.0 0.0
800.84459259958 87.87954023252743 437.3656031845741 -106.85501073714502 0.0 0.0
850.0350130597392 107.11429785155038 472.82166388017487 -104.24468387360646 0.0 0.0
895.206966809607 123.50672684434532 504.04237620362403 -101.79612700194747 0.0 0.0
934.7449689985212 133.7759167853769 529.073465884524 -98.97577899793976 0.0 0.0
967.8354821912474 140.61472746434893 549.1493509465851 -94.44344151995543 0.0 0.0
995.71779408407 142.08784743183926 563.7925534237955 -88.5384425360254 0.0 0.0
1010.4130926694788 133.1718566827252 566.9371131900612 -78.57208837250879 0.0 0.0
1002.5278713239117 105.26610547783554 549.4835469442752 -59.281278987615664 0.0 0.0
774.3643608257033 -125.44693804275173 327.25828494404414 3.9401371054736956e-11 0.0 0.0
1002.5278713239416 105.26610547798052 549.4835469442623 59.281278987839215 0.0 0.0
1010.4130926700177 133.17185668333457 566.9371131904837 78.5720883726646 0.0 0.0
995.7177940834304 142.08784743131133 563.7925534233751 88.53844253619762 0.0 0.0
967.8354821911004 140.614727464312 549.149350946413 94.44344152012206 0.0 0.0
934.7449689984254 133.77591678535055 529.0734658844851 98.97577899794712 0.0 0.0
895.206966809121 123.50672684393544 504.04237620328735 101.79612700192607 0.0 0.0
850.035013059726 107.11429785164107 472.8216638801188 104.24468387358728 0.0 0.0
800.8445925990221 87.87954023211698 437.3656031841423 106.85501073712351 0.0 0.0
749.5599185995185 68.41642645263519 399.2258863691846 109.92785463110428 0.0 0.0
698.3339107390561 52.55089449690214 359.9428011284403 113.08608370639038 0.0 0.0
643.3847520715583 41.322587323846065 315.80572249730807 115.54251605317575 0.0 0.0
585.865482805205 29.066700895403663 260.40049873701696 120.18212309884336 0.0 0.0
504.6951023744436 21.211710123704506 194.98377168264687 121.67930641264317 0.0 0.0
408.69914506562833 4.850934164823311 130.60691291537262 128.9854492527694 0.0 0.0
298.7181591893095 -1.4861038636381596 88.46662403759916 130.15311444101278 0.0 0.0
210.70914574328233 6.138268179100667 65.06345731440527 122.31696617348528 0.0 0.0
136.7578923192502 19.262251312234763 46.80604308944548 116.93327785948344 0.0 0.0
68.84616023948948 18.48074406157051 26.198071290317998 128.8860466471258 0.0 0.0
184.49061965787976 6.560437994419191 72.95307216931387 194.17815639883824 0.0 0.0
-385.95160037892606 -972.7630807021328 -522.5707086626345 65.5915102897851 0.0 0.0
-271.0214018667862 -830.1636714777708 -390.71913114395284 -78.70390925859027 0.0 0.0
125.23585089434819 -30.011157960397615 35.85569745652323 -192.70791016918957 0.0 0.0
40.9005108490072 10.079186405725332 15.293933851261265 -146.23356341111452 0.0 0.0
93.5237146467263 20.63471173867271 34.24832975875519 -134.43503171226942 0.0 0.0
153.86203472801276 8.860653620645236 48.80904412406304 -138.50329638143936 0.0 0.0
222.10823331673637 -0.5657861701950688 66.20725604159455 -148.2854306969775 0.0 0.0
317.7771282042444 -1.6583321721547037 94.98451315041316 -154.91411319799582 0.0 0.0
417.8891344985649 9.029132523524268 143.52339520080727 -145.79253638674874 0.0 0.0
507.59827469452296 21.124280058200352 205.04879866969486 -139.18639569637088 0.0 0.0
577.9430020435371 27.09824313270676 261.1390530582109 -135.3368130105943 0.0 0.0
631.5338567073595 36.69462300861208 307.7745507105394 -129.4506900222145 0.0 0.0
680.268122808902 48.77458141449566 347.2005420400721 -125.49564396195653 0.0 0.0
727.7533180427712 63.50453368233756 383.33896614884117 -122.08271974796932 0.0 0.0
771.869649670957 78.1952274221985 415.4880755103713 -119.19038425196997 0.0 0.0
813.4312737319846 91.08036705959275 443.94411961617834 -116.71641768589245 0.0 0.0
850.3701190985171 100.58885167280143 467.7428704017608 -113.87690498107521 0.0 0.0
883.3644335525852 105.5440296411832 487.1073415518454 -109.36046554277445 0.0 0.0
915.2674562669006 110.97792780321593 505.62935207197336 -102.79898117935572 0.0 0.0
939.8853427424878 111.30997789212076 518.3198979844285 -92.75690198665343 0.0 0.0
937.9004423998956 85.29950202202873 505.0865658524483 -72.89245250180782 0.0 0.0
642.5713096704669 -210.96500298738732 220.34214236368146 6.497558047158236e-11 0.0 0.0
937.9004423999659 85.29950202219645 505.0865658524912 72.89245250202674 0.0 0.0
939.8853427425846 111.309977892236 518.3198979845703 92.75690198677502 0.0 0.0
915.2674562667668 110.97792780326539 505.6293520718942 102.79898117953233 0.0 0.0
883.3644335518516 105.54402964049929 487.1073415512877 109.36046554291835 0.0 0.0
850.3701190982395 100.58885167258867 467.7428704015937 113.87690498107625 0.0 0.0
813.4312737314225 91.08036705914432 443.94411961579846 116.7164176858854 0.0 0.0
771.8696496705554 78.19522742190563 415.4880755101088 119.19038425200996 0.0 0.0
727.7533180429814 63.504533682805004 383.33896614892143 122.08271974813641 0.0 0.0
680.2681228088273 48.774581414530545 347.2005420399969 125.49564396189866 0.0 0.0
631.5338567069574 36.694623008448794 307.7745507101662 129.45069002219856 0.0 0.0
577.9430020430573 27.09824313239298 261.13905305781816 135.33681301052528 0.0 0.0
507.5982746939826 21.124280057918103 205.04879866926643 139.18639569632683 0.0 0.0
417.8891344980297 9.029132523244595 143.52339520046428 145.7925363867346 0.0 0.0
317.777128203951 -1.658332171997079 94.98451315035227 154.9141131978905 0.0 0.0
222.10823331652423 -0.5657861700821116 66.20725604158176 148.28543069671971 0.0 0.0
153.86203472795546 8.860653620665937 48.80904412405008 138.50329638128997 0.0 0.0
93.52371464670236 20.634711738743178 34.2483297587689 134.43503171215127 0.0 0.0
40.900510848939824 10.07918640569766 15.293933851232719 146.23356341088802 0.0 0.0
125.2358508940068 -30.011157960594943 35.85569745631726 192.70791016899312 0.0 0.0
-271.02140186607585 -830.1636714767412 -390.7191311430986 78.70390925863754 0.0 0.0
-191.30224468292556 -690.2197500886231 -291.50551700162436 -89.66179103392791 0.0 0.0
74.05874143334411 -58.37030044892928 7.9921844314244765 -185.20935260180812 0.0 0.0
14.67149029289542 4.208631229919482 5.665535728266869 -158.8552950200467 0.0 0.0
51.92581199250368 20.550118085158616 21.7423830327591 -148.59465829465046 0.0 0.0
96.92225498759078 11.436340269961166 32.50550205267832 -151.44137150873462 0.0 0.0
146.4192076887615 2.0661706071177575 44.50239906904413 -161.89669687933036 0.0 0.0
213.18135864112725 -2.3057348923115715 62.70646277817363 -175.53528709934935 0.0 0.0
304.96342741094884 -4.142680760251023 91.5659710739174 -177.32823974480237 0.0 0.0
398.1093213988207 4.147751734358684 136.2217844166297 -163.29554258124702 0.0 0.0
477.2402563238394 12.460708021055822 187.05356591189548 -152.7233152155481 0.0 0.0
538.1440474121435 19.790652314740505 234.3573269234326 -144.36141351850165 0.0 0.0
588.3348332703893 27.14028796349309 274.0859276137989 -139.57195151177004 0.0 0.0
633.2553770760655 38.371518530826485 310.51071337675603 -135.96547882645504 0.0 0.0
673.1097688444613 48.64695527351047 341.31973174031 -133.08489562763634 0.0 0.0
710.3454458519507 58.12761484062479 368.14527821383115 -130.7688895409068 0.0 0.0
744.8398282083257 65.49867803541072 391.0337840545169 -128.35676859978597 0.0 0.0
778.0771377776624 71.20920648305251 411.84118453774124 -124.12765916178856 0.0 0.0
810.6834094754539 76.3600946534539 431.18905903009187 -116.98745112873435 0.0 0.0
846.1825562379021 84.15153540470817 452.9665390822366 -106.85540508348849 0.0 0.0
862.4274461575391 71.27339922575497 455.9778688622278 -89.74928455720661 0.0 0.0
482.740191442147 -302.1304797460747 97.61470100326174 6.369660354721418e-11 0.0 0.0
862.4274461579529 71.27339922631685 455.9778688625852 89.74928455738493 0.0 0.0
846.1825562374668 84.15153540439643 452.96653908199755 106.85540508377369 0.0 0.0
810.6834094762754 76.36009465456888 431.1890590306421 116.98745112903288 0.0 0.0
778.0771377768302 71.20920648217079 411.84118453710414 124.12765916185371 0.0 0.0
744.8398282080602 65.49867803521778 391.03378405431096 128.3567685997781 0.0 0.0
710.3454458521038 58.12761484097372 368.14527821393386 130.76888954094616 0.0 0.0
673.1097688438175 48.646955273016744 341.31973173986165 133.08489562772183 0.0 0.0
633.2553770757514 38.37151853054538 310.51071337651393 135.96547882655312 0.0 0.0
588.3348332700065 27.140287963236798 274.0859276134719 139.57195151168105 0.0 0.0
538.1440474124989 19.790652315368888 234.35732692359753 144.3614135185256 0.0 0.0
477.240256323216 12.460708020524194 187.0535659114246 152.72331521539334 0.0 0.0
398.1093213985939 4.147751734605539 136.22178441653705 163.29554258131705 0.0 0.0
304.96342741016247 -4.14268076100124 91.56597107344076 177.32823974472328 0.0 0.0
213.18135864082154 -2.305734892154508 62.70646277814961 175.53528709920872 0.0 0.0
146.41920768867638 2.066170607329674 44.502399069088504 161.89669687907684 0.0 0.0
96.92225498770837 11.43634027024223 32.50550205279627 151.44137150859635 0.0 0.0
51.92581199257274 20.55011808533425 21.742383032832656 148.59465829448874 0.0 0.0
14.671490292847267 4.208631229936033 5.665535728257093 158.85529501988697 0.0 0.0
74.05874143301698 -58.37030044905523 7.992184431262533 185.20935260152697 0.0 0.0
-191.3022446824334 -690.2197500877854 -291.505517001037 89.6617910339732 0.0 0.0
-132.34235889801957 -573.9514841245219 -217.26437367974336 -106.03756916155874 0.0 0.0
29.414327995721322 -75.35310063197062 -13.02448743192781 -171.91913818517946 0.0 0.0
-9.778379430660834 0.7565216425677082 -2.706230638489067 -166.8463409559175 0.0 0.0
11.705640001743863 19.544626901897708 9.37538234390619 -158.9080149885196 0.0 0.0
40.485850869554994 13.609125665586708 16.230010493930507 -160.71990007886274 0.0 0.0
70.40012685016562 5.133898307997887 22.609809628058557 -171.7470259178039 0.0 0.0
105.61379784167333 -0.09433370122041151 31.515006803157775 -186.5134563695848 0.0 0.0
154.66855062581678 -1.8734523145211295 45.91330732541025 -192.62323114409182 0.0 0.0
226.74591733582963 -5.584943309302147 66.72942356831541 -190.21594783507743 0.0 0.0
304.64054370558864 -12.84574688842901 91.52462841971138 -179.3892954887652 0.0 0.0
377.7445002863241 -17.57333650233226 118.83658560648688 -169.8957256515744 0.0 0.0
431.0020554862149 -14.205092370700172 148.08206094750017 -158.0178987196691 0.0 0.0
472.75102364270816 -3.9000632417337613 177.98718798334912 -151.27450732434306 0.0 0.0
509.5546387256077 9.518811894549998 207.03419258539336 -147.06204992309497 0.0 0.0
543.785317169051 21.62199972698152 235.5389828605785 -145.26522192565858 0.0 0.0
576.1348336555559 29.670800836915117 262.31105269570264 -146.22465084403623 0.0 0.0
610.1227367254872 35.430814166865204 289.27958149400234 -144.57265473837197 0.0 0.0
646.5383567280923 38.864782980829254 315.03908879805914 -137.17035649578744 0.0 0.0
684.9442064757333 39.76571593323241 338.327799396338 -124.59542036375693 0.0 0.0
740.8612843315267 55.89078464207668 377.1354772301605 -111.45083774338582 0.0 0.0
262.2440226803044 -399.2065914644672 -55.13600651627351 9.241318821295863e-11 0.0 0.0
740.8612843318908 55.89078464263564 377.1354772304695 111.45083774358024 0.0 0.0
684.9442064754676 39.765715933074574 338.3277993961916 124.59542036414013 0.0 0.0
646.5383567290028 38.864782981946156 315.03908879869965 137.17035649599515 0.0 0.0
610.1227367253321 35.43081416677926 289.27958149382795 144.57265473845803 0.0 0.0
576.1348336552559 29.67080083648893 262.3110526955064 146.2246508440532 0.0 0.0
543.7853171697277 21.62199972804467 235.53898286105195 145.26522192567364 0.0 0.0
509.5546387254535 9.518811894386612 207.0341925852163 147.06204992312337 0.0 0.0
472.7510236421898 -3.900063242255742 177.98718798298074 151.27450732435543 0.0 0.0
431.00205548603606 -14.205092370696702 148.0820609473983 158.01789871970527 0.0 0.0
377.74450028599614 -17.573336502770985 118.83658560621605 169.89572565153227 0.0 0.0
304.6405437049429 -12.84574688898247 91.52462841933958 179.38929548859377 0.0 0.0
226.74591733555272 -5.584943309295737 66.72942356822595 190.21594783511105 0.0 0.0
154.66855062548103 -1.8734523147917432 45.91330732522908 192.6232311440034 0.0 0.0
105.6137978415464 -0.0943337012959713 31.51500680309883 186.51345636944956 0.0 0.0
70.40012685017824 5.133898308068652 22.6098096280825 171.74702591760308 0.0 0.0
40.48585086944619 13.60912566536013 16.230010493830427 160.71990007871156 0.0 0.0
11.705640001852789 19.54462690213961 9.375382344011351 158.9080149884029 0.0 0.0
-9.778379430627968 0.7565216426761214 -2.7062306384469546 166.84634095573116 0.0 0.0
29.414327995464028 -75.35310063204756 -13.024487432038041 171.9191381849874 0.0 0.0
-132.3423588979144 -573.9514841239215 -217.264373679468 106.03756916155307 0.0 0.0
-106.0658496984712 -459.3797558915307 -170.058736566827 -107.34859772097565 0.0 0.0
-2.2573561935834014 -86.50865155167332 -26.57359114138168 -160.4545822736901 0.0 0.0
-32.26411453731076 -1.739627972031262 -10.19778577037805 -170.8976187739537 0.0 0.0
-26.94899569108744 18.27978423137852 -2.6000384873717115 -165.15809890388988 0.0 0.0
-15.12069437473677 15.28107662255066 0.04853636374284198 -165.93102655903095 0.0 0.0
-6.26006540653913 8.30946663147725 0.615400543484141 -175.85321391993085 0.0 0.0
-2.2718028010571736 2.0790135032255277 -0.062168799684307885 -190.90388089296502 0.0 0.0
-0.4518669305218985 0.27002734372559045 -0.053025397546344166 -197.39633119722123 0.0 0.0
-0.016057853220893037 -0.14568075396231173 -0.04857701666690417 -194.77171224481563 0.0 0.0
0.10258976654328222 0.026334417826430645 0.04785738193545619 -183.45885279092485 0.0 0.0
0.3285463462465117 -0.6192103921755265 -0.252941375688998 -177.33513395368806 0.0 0.0
-0.502181108428104 0.4189756610852662 0.052994871356546014 -174.4390276620598 0.0 0.0
-1.9986460416131422 1.1617176633444224 -0.0936609728331419 -173.2376250347301 0.0 0.0
-3.0623090641236814 1.5917635258908298 -0.1518923471222422 -170.05778913771206 0.0 0.0
1.6310566856281241 1.2475301331128748 0.8254440840279145 -163.6017361427074 0.0 0.0
14.180622454862998 5.08512857770738 2.782770815915967 -155.89486325023833 0.0 0.0
47.79087870946479 12.758562809430494 7.799677917588824 -149.85101527891652 0.0 0.0
129.80122122176573 12.637345088668361 14.206825235411102 -144.26190360066096 0.0 0.0
304.84197803220184 -49.85918866525402 34.22159846320572 -140.1064642273346 0.0 0.0
459.3339555779445 -30.134498015738068 151.85701900048116 -153.4132081145315 0.0 0.0
-271.7084703054944 -571.9069857281129 -352.3834803064952 2.2943424937693635e-11 0.0 0.0
459.33395557816164 -30.134498015457382 151.85701900058365 153.41320811470376 0.0 0.0
304.84197803190796 -49.85918866551842 34.221598462974086 140.10646422791515 0.0 0.0
129.80122122290092 12.6373450907207 14.206825236650275 144.26190360110934 0.0 0.0
47.79087870958895 12.75856280932193 7.799677917607994 149.8510152791472 0.0 0.0
14.18062245433822 5.085128576753952 2.7827708154003545 155.8948632502855 0.0 0.0
1.6310566861065183 1.2475301335762197 0.8254440843448805 163.6017361427453 0.0 0.0
-3.0623090636675485 1.5917635260351304 -0.15189234692682874 170.05778913770524 0.0 0.0
-1.9986460409918507 1.161717663798548 -0.09366097250317296 173.23762503487563 0.0 0.0
-0.5021811081264786 0.41897566076847426 0.05299487134737646 174.43902766207773 0.0 0.0
0.3285463463557363 -0.6192103926731622 -0.2529413758082768 177.33513395355757 0.0 0.0
0.10258976654850116 0.026334417341097982 0.0478573817908714 183.4588527908237 0.0 0.0
-0.01605785317211783 -0.14568075425791838 -0.0485770167377666 194.77171224482166 0.0 0.0
-0.45186693020295543 0.2700273442032326 -0.05302539730585831 197.39633119717632 0.0 0.0
-2.2718028010444424 2.0790135030957058 -0.062168799719876766 190.90388089271704 0.0 0.0
-6.260065406431734 8.30946663157466 0.6154005435456709 175.85321391960372 0.0 0.0
-15.120694375035626 15.281076621757814 0.048536363415180084 165.93102655888032 0.0 0.0
-26.94899569105523 18.27978423145679 -2.6000384873388587 165.15809890374496 0.0 0.0
-32.26411453724986 -1.739627971897173 -10.197785770319763 170.89761877379001 0.0 0.0
-2.257356193606931 -86.50865155170389 -26.573591141395326 160.45458227353302 0.0 0.0
-106.06584969834061 -459.3797558908945 -170.05873656662092 107.34859772081161 0.0 0.0
-87.54748607851594 -361.0474499558854 -134.5699279153073 -101.59350584216627 0.0 0.0
-22.528508416777164 -90.48795324279108 -33.9055922876852 -150.734707742631 0.0 0.0
-53.12886854953817 -4.017464446614488 -17.144816599871824 -170.95742650930254 0.0 0.0
-63.83163045611312 16.991958710248305 -14.050291652868266 -167.22013693444606 0.0 0.0
-69.60718033270965 16.318597827419225 -15.982835769134345 -166.8544759331619 0.0 0.0
-81.89566730009918 11.18256322548257 -21.207057522904723 -173.97528787257713 0.0 0.0
-110.27116054759546 4.462339296145881 -31.52279480534323 -188.42282706361584 0.0 0.0
-155.65292189287825 2.2852740166071905 -46.09623706688876 -192.84072670354544 0.0 0.0
-226.64002405908914 5.274832418561771 -66.80626400678901 -190.18832090119156 0.0 0.0
-304.4080965669108 12.821242569779672 -91.45229541560883 -179.34113457061224 0.0 0.0
-379.06228647773554 18.26176446848686 -118.43684512916602 -170.16954554540877 0.0 0.0
-430.782294353133 14.007861098460959 -148.33194677249656 -157.90862833220208 0.0 0.0
-473.4560203454721 3.911250095755289 -178.6243594443531 -150.7186288176329 0.0 0.0
-510.554166648829 -9.04090568166594 -207.69249228188502 -146.3602791286588 0.0 0.0
-542.0616393393539 -17.115113618745944 -232.51205915030835 -145.1894135406387 0.0 0.0
-563.6909232270176 -17.50347076803999 -246.6320341916532 -147.72219021317687 0.0 0.0
-572.9280448444168 -12.384692911364226 -247.23560130704848 -153.54142908990295 0.0 0.0
-570.2169068430874 -2.116962806181448 -229.57750147229058 -164.68662315677784 0.0 0.0
-556.0690054847162 33.36430121154366 -189.85150042381116 -172.20402957897625 0.0 0.0
-336.41196935010333 55.39643565553649 -85.03741201129877 -115.8099600045827 0.0 0.0
-784.2234921334642 -780.0582906190615 -766.3035824053618 -9.595169103704393e-11 0.0 0.0
-336.41196934998715 55.39643565573173 -85.03741201115471 115.80996000507596 0.0 0.0
-556.0690054849595 33.36430121119574 -189.85150042395458 172.20402957929147 0.0 0.0
-570.2169068416074 -2.1169628042351576 -229.57750147132987 164.68662315685302 0.0 0.0
-572.9280448442802 -12.384692911390651 -247.23560130696933 153.54142908990542 0.0 0.0
-563.6909232269819 -17.503470768277957 -246.63203419161246 147.722190213122 0.0 0.0
-542.0616393388558 -17.115113618370394 -232.51205914989595 145.18941354062807 0.0 0.0
-510.5541666484998 -9.040905681301073 -207.6924922815707 146.3602791286551 0.0 0.0
-473.4560203453682 3.911250095553587 -178.6243594443336 150.71862881781354 0.0 0.0
-430.7822943528064 14.00786109845013 -148.33194677226123 157.9086283322382 0.0 0.0
-379.06228647708076 18.26176446873286 -118.43684512881183 170.1695455453626 0.0 0.0
-304.40809656644115 12.821242569464477 -91.45229541554272 179.3411345705106 0.0 0.0
-226.64002405859247 5.274832418443189 -66.80626400666962 190.18832090117132 0.0 0.0
-155.65292189234782 2.2852740169512336 -46.09623706662197 192.84072670354152 0.0 0.0
-110.2711605473452 4.462339296167085 -31.522794805263285 188.422827063411 0.0 0.0
-81.8956672998889 11.18256322549585 -21.207057522840785 173.9752878722896 0.0 0.0
-69.60718033261873 16.3185978273243 -15.9828357691354 166.85447593300754 0.0 0.0
-63.83163045609673 16.991958710155657 -14.050291652890582 167.22013693427706 0.0 0.0
-53.12886854948313 -4.0174644465330065 -17.144816599831124 170.95742650922705 0.0 0.0
-22.528508416847572 -90.4879532428364 -33.905592287720324 150.73470774243395 0.0 0.0
-87.54748607847075 -361.04744995545536 -134.56992791516964 101.59350584204807 0.0 0.0
-70.89613805247637 -276.58515173347814 -104.24438693578634 -91.78592437393218 0.0 0.0
-37.043459879313936 -88.49259771409109 -37.66109046784202 -140.22032405190265 0.0 0.0
-72.35397814108448 -5.727827522661592 -23.42418692527665 -167.1049556687398 0.0 0.0
-98.99085060845236 15.510408527870798 -25.046241805926442 -165.04367734470418 0.0 0.0
-122.53107637293674 16.676503287451606 -31.760788101606977 -163.04915536334696 0.0 0.0
-157.34788835595137 14.010989211809175 -42.74921349473418 -169.3701044906499 0.0 0.0
-215.53581802601653 5.737627053959158 -62.70264349513156 -174.78337905452474 0.0 0.0
-305.25649720200715 4.243823847138436 -91.732433177875 -177.5246635783878 0.0 0.0
-398.1091282236804 -4.429935460730526 -136.2979173791649 -163.2943723347099 0.0 0.0
-477.2383785060552 -12.580601326572925 -187.0526799929349 -152.65678962458585 0.0 0.0
-537.9994191649114 -19.65826852387275 -234.25538224225951 -144.27870660283492 0.0 0.0
-588.3482042054978 -27.042262427815032 -274.11948585512016 -139.46002402715231 0.0 0.0
-633.6903603206449 -38.160784759516886 -310.75690769689214 -135.3615785147532 0.0 0.0
-673.5606113440743 -47.76840477764793 -341.314967183351 -132.05987137395203 0.0 0.0
-708.3507792252595 -54.666231043304506 -365.67129492768214 -130.23864794612845 0.0 0.0
-733.0960217490682 -54.69631937766012 -380.0585451179611 -130.75691494628796 0.0 0.0
-744.645816681199 -47.40673091750463 -383.01448461943914 -134.87730779603635 0.0 0.0
-741.5258529049215 -35.93575893569063 -376.04915091311045 -143.09417730723197 0.0 0.0
-711.7882898706787 -7.633494505560549 -348.8964192011718 -152.79573092344123 0.0 0.0
-671.0700659282433 19.651873743128274 -317.11986603802245 -154.97552068189427 0.0 0.0
-1478.4504229911608 -1041.3134680554492 -1209.1077743418928 8.801492867860361e-11 0.0 0.0
-671.0700659279858 19.651873743123005 -317.11986603793696 154.97552068223283 0.0 0.0
-711.7882898708161 -7.633494505878957 -348.89641920122 152.7957309238243 0.0 0.0
-741.5258529047009 -35.93575893565156 -376.0491509130439 143.09417730740213 0.0 0.0
-744.6458166810199 -47.406730917431794 -383.0144846193376 134.8773077961755 0.0 0.0
-733.0960217487739 -54.69631937745815 -380.05854511777596 130.7569149462562 0.0 0.0
-708.3507792245754 -54.66623104271284 -365.6712949272061 130.2386479461896 0.0 0.0
-673.5606113440439 -47.76840477782274 -341.31496718332073 132.05987137401218 0.0 0.0
-633.6903603206233 -38.160784759889154 -310.75690769687225 135.36157851482957 0.0 0.0
-588.3482042053092 -27.042262427896322 -274.11948585493167 139.4600240272276 0.0 0.0
-537.9994191645321 -19.658268523747047 -234.25538224195 144.27870660277256 0.0 0.0
-477.2383785053537 -12.580601326194564 -187.05267999242503 152.65678962453563 0.0 0.0
-398.1091282229068 -4.429935460347574 -136.2979173786918 163.29437233474255 0.0 0.0
-305.25649720134885 4.2438238473488665 -91.73243317758632 177.52466357843795 0.0 0.0
-215.53581802556295 5.737627053966802 -62.70264349500398 174.78337905431604 0.0 0.0
-157.34788835560707 14.010989212009676 -42.74921349457198 169.3701044904755 0.0 0.0
-122.53107637260347 16.67650328779931 -31.760788101403772 163.04915536317475 0.0 0.0
-98.9908506083241 15.510408527842499 -25.046241805900937 165.04367734444517 0.0 0.0
-72.35397814097873 -5.727827522546201 -23.4241869252098 167.10495566866507 0.0 0.0
-37.043459879318334 -88.49259771411865 -37.66109046785128 140.22032405171086 0.0 0.0
-70.89613805236445 -276.5851517331408 -104.24438693565155 91.78592437384424 0.0 0.0
-57.119282878722885 -204.6414053223648 -78.52820646032627 -80.47054853626945 0.0 0.0
-48.18237047582421 -81.98083866725418 -39.04891144999906 -127.98093663385932 0.0 0.0
-90.29780463873237 -6.768257535119382 -29.121014567250985 -159.25316842589993 0.0 0.0
-132.51919262476298 13.867546050072471 -35.59208206403336 -158.74886271550142 0.0 0.0
-174.07750086242388 16.486417855083825 -47.21347389149528 -155.33724010856588 0.0 0.0
-228.4734444874868 13.831677570072348 -64.38082722032678 -154.5589605135665 0.0 0.0
-319.82303028604576 6.313924263490932 -94.27096752950463 -158.43766351599126 0.0 0.0
-418.1384280445882 -9.133685141733546 -143.65168506193675 -146.2730023216127 0.0 0.0
-507.67151168038805 -21.420094627533295 -205.12955821518355 -139.14375661576526 0.0 0.0
-578.012885593529 -27.212340168707996 -261.20097247372615 -135.28868849439544 0.0 0.0
-631.3331130628877 -36.517106939237834 -307.6458548841023 -129.38320770430312 0.0 0.0
-680.1748845266186 -48.58291400652439 -347.0949280141948 -125.33814968922015 0.0 0.0
-727.9472146075041 -63.307728754385614 -383.3876643025305 -121.45713851465234 0.0 0.0
-772.4172146865056 -77.80933888622187 -415.6672563508818 -117.91069510621907 0.0 0.0
-812.6437533206267 -89.11987069881658 -442.73427633687965 -115.70414857674359 0.0 0.0
-841.7879047651165 -92.39993663174221 -459.6315397030926 -116.13185906987755 0.0 0.0
-855.4116077097738 -83.97274754745108 -462.6410146668377 -120.5883624268379 0.0 0.0
-844.5401249530524 -59.15112504511046 -445.5457179985233 -128.28712545907567 0.0 0.0
-808.0827786886225 -18.749831845443637 -408.75510372768093 -135.6945721447372 0.0 0.0
-724.0153246974783 52.64588851254561 -337.2045653302252 -141.15338093465644 0.0 0.0
-1912.1947805446005 -1277.4817716371251 -1553.9458216250164 8.391864980694663e-11 0.0 0.0
-724.015324697524 52.64588851230165 -337.2045653303696 141.1533809349579 0.0 0.0
-808.0827786891192 -18.749831846135407 -408.7551037279645 135.69457214504916 0.0 0.0
-844.5401249533398 -59.15112504559876 -445.54571799876635 128.28712545932183 0.0 0.0
-855.4116077098499 -83.97274754765311 -462.641014666905 120.58836242696117 0.0 0.0
-841.7879047645898 -92.39993663129829 -459.6315397027358 116.13185906983391 0.0 0.0
-812.6437533203746 -89.11987069872009 -442.73427633666086 115.7041485768105 0.0 0.0
-772.4172146863983 -77.80933888637618 -415.6672563508202 117.91069510630331 0.0 0.0
-727.9472146068924 -63.307728753897585 -383.38766430211155 121.4571385146732 0.0 0.0
-680.1748845266148 -48.582914006742826 -347.09492801411875 125.33814968917052 0.0 0.0
-631.3331130623536 -36.517106938948004 -307.6458548837354 129.38320770423957 0.0 0.0
-578.0128855932284 -27.212340168786728 -261.20097247345944 135.28868849445044 0.0 0.0
-507.6715116796297 -21.420094627075333 -205.12955821460758 139.1437566157337 0.0 0.0
-418.13842804407284 -9.133685141650853 -143.65168506162772 146.27300232167855 0.0 0.0
-319.82303028545783 6.313924263554855 -94.2709675292966 158.4376635158656 0.0 0.0
-228.47344448696012 13.831677570406146 -64.38082722007832 154.55896051338286 0.0 0.0
-174.07750086208856 16.48641785529987 -47.21347389133524 155.33724010834888 0.0 0.0
-132.51919262460822 13.867546050045124 -35.59208206399447 158.74886271534996 0.0 0.0
-90.29780463861265 -6.768257535059087 -29.12101456719656 159.2531684257678 0.0 0.0
-48.182370475856516 -81.98083866731707 -39.04891145002766 127.9809366337216 0.0 0.0
-57.119282878644505 -204.64140532211633 -78.52820646022823 80.47054853619167 0.0 0.0
-46.61158070753578 -144.46368219351575 -57.322578870315446 -68.62006814165858 0.0 0.0
-57.11982882426615 -72.36150977442603 -38.84440157960764 -113.8615990108048 0.0 0.0
-107.247678525379 -6.990488415133771 -34.272001097612126 -147.54529805222637 0.0 0.0
-164.5163229225872 11.917237972098482 -45.786012525542084 -148.13879511202762 0.0 0.0
-222.89778542756505 15.194379797921766 -62.267488329587394 -142.55020089056973 0.0 0.0
-303.8052132158532 14.721082298400484 -85.69371514316259 -140.00045582106281 0.0 0.0
-405.8476132456369 -3.1206189073049604 -130.19417697070384 -129.35660431721627 0.0 0.0
-504.67987433882115 -21.484029813003154 -195.00999990070076 -121.97357711760925 0.0 0.0
-586.0641628141383 -29.400775471492892 -260.5699660809061 -120.1083395347344 0.0 0.0
-643.4370981531247 -41.385424345693046 -315.87648894343107 -115.50378785289324 0.0 0.0
-698.1518435287956 -52.325815300467994 -359.7906794593282 -113.05154950759898 0.0 0.0
-749.286157095249 -68.07442675519899 -398.9477205009837 -109.76810386580112 0.0 0.0
-800.6447910842032 -87.46263888458205 -437.0864350672929 -106.26200074150987 0.0 0.0
-850.5634013660397 -107.05814143980817 -473.1056501784555 -102.92097108235937 0.0 0.0
-896.2840341051094 -123.71536033633167 -504.74655393901685 -100.53686471472753 0.0 0.0
-931.1297205422821 -130.1082925386815 -525.6102957787563 -100.7637511865805 0.0 0.0
-943.6027717863341 -119.99446288462045 -527.212151770368 -104.29580268158146 0.0 0.0
-924.3741918643273 -82.96130734064191 -499.82273926234757 -110.92862258599357 0.0 0.0
-866.9501639226384 -18.48054418719488 -440.5895330512904 -117.7952718372713 0.0 0.0
-752.4444260072647 84.81176465182868 -336.8323308761644 -124.02906671720685 0.0 0.0
-2249.414054465284 -1514.0266513104298 -1848.3470999245471 -7.393197165583842e-12 0.0 0.0
-752.4444260071882 84.81176465173769 -336.8323308760898 124.02906671739845 0.0 0.0
-866.9501639221986 -18.480544186910635 -440.589533050926 117.7952718375109 0.0 0.0
-924.3741918647313 -82.96130734121202 -499.8227392625814 110.92862258621187 0.0 0.0
-943.6027717863171 -119.99446288471596 -527.2121517703652 104.29580268165097 0.0 0.0
-931.1297205419476 -130.10829253841575 -525.6102957784776 100.76375118661356 0.0 0.0
-896.2840341046676 -123.71536033600452 -504.7465539386645 100.53686471471093 0.0 0.0
-850.5634013657744 -107.05814143967768 -473.10565017828895 102.92097108237104 0.0 0.0
-800.6447910837018 -87.4626388842695 -437.0864350669419 106.26200074151964 0.0 0.0
-749.2861570949411 -68.07442675510389 -398.9477205007522 109.7681038657902 0.0 0.0
-698.1518435283773 -52.32581530025449 -359.7906794590566 113.05154950759027 0.0 0.0
-643.4370981530838 -41.385424346034824 -315.8764889433269 115.50378785291574 0.0 0.0
-586.0641628138816 -29.400775471636873 -260.5699660806186 120.10833953476677 0.0 0.0
-504.67987433847435 -21.48402981312185 -195.0099999004039 121.97357711764212 0.0 0.0
-405.8476132450833 -3.120618907203941 -130.1941769704183 129.35660431720027 0.0 0.0
-303.8052132152011 14.72108229857617 -85.69371514294252 140.00045582090965 0.0 0.0
-222.89778542721953 15.194379798145354 -62.26748832941838 142.55020089044953 0.0 0.0
-164.51632292239933 11.917237972151703 -45.786012525470476 148.13879511194796 0.0 0.0
-107.24767852523821 -6.990488415100803 -34.27200109755976 147.5452980520415 0.0 0.0
-57.119828824259244 -72.36150977446482 -38.84440157961722 113.86159901067194 0.0 0.0
-46.6115807075248 -144.46368219335463 -57.32257887026381 68.62006814164128 0.0 0.0
-39.205768778733116 -95.59250752248015 -40.43948289036397 -56.488035847774434 0.0 0.0
-64.41885550509744 -60.8813830271236 -37.590071559666306 -97.98666949593414 0.0 0.0
-123.3151193930969 -6.378699081005936 -38.908439911909035 -132.05935908935624 0.0 0.0
-195.04805070342226 9.819258194662488 -55.57276496155967 -133.4866653130453 0.0 0.0
-269.1961091288222 12.503807049640098 -77.0705671931615 -125.14237078990311 0.0 0.0
-373.2100708706871 9.731952091993756 -109.34728959518428 -117.6118796659976 0.0 0.0
-478.4999799159486 -13.566897649650333 -168.0108143521261 -103.84951690354175 0.0 0.0
-573.2295961576201 -27.897492894045413 -240.45737388271883 -101.13540007483044 0.0 0.0
-636.8522529089739 -40.28832958735127 -305.4220883711813 -98.53877136246928 0.0 0.0
-697.492030000291 -51.389997187102495 -356.94575709217855 -97.95387865798156 0.0 0.0
-752.3007688745375 -67.30460281299527 -400.3820529776725 -96.00517120349812 0.0 0.0
-807.1251517674782 -87.61929785046036 -441.42434979402174 -93.31231441142117 0.0 0.0
-862.9297152960488 -111.42618715786473 -482.7001015808671 -90.35229461772899 0.0 0.0
-917.5719648817841 -135.14462502652623 -522.4399045533564 -87.43887847294613 0.0 0.0
-969.0153018920914 -156.97829554752678 -559.1488082722186 -85.15250306067024 0.0 0.0
-1008.8464545849197 -168.61999614406975 -585.0296570301102 -84.49345646153158 0.0 0.0
-1021.4616754200777 -154.7013365471047 -584.7939812489378 -86.95264951362155 0.0 0.0
-990.4237650283101 -104.64132530617036 -545.0454947793535 -92.40298963134343 0.0 0.0
-908.9502143795961 -15.456303288358228 -461.30559649965573 -99.05983761967394 0.0 0.0
-768.898747467814 113.85115183171074 -330.4780180690767 -108.40264669661718 0.0 0.0
-2547.2496629731186 -1746.1356868437035 -2118.7444984470967 6.265921115300443e-11 0.0 0.0
-768.8987474677821 113.8511518316767 -330.4780180691 108.40264669675076 0.0 0.0
-908.950214378938 -15.45630328778843 -461.3055964991464 99.05983761988044 0.0 0.0
-990.4237650281331 -104.641325306064 -545.0454947792248 92.4029896314196 0.0 0.0
-1021.4616754200744 -154.70133654719098 -584.7939812489259 86.95264951368235 0.0 0.0
-1008.8464545846468 -168.6199961439554 -585.029657029842 84.49345646161572 0.0 0.0
-969.0153018918251 -156.97829554739747 -559.1488082719914 85.15250306075868 0.0 0.0
-917.5719648817126 -135.14462502661718 -522.4399045532231 87.43887847298338 0.0 0.0
-862.9297152955319 -111.42618715751493 -482.7001015805299 90.35229461775661 0.0 0.0
-807.1251517672373 -87.6192978503521 -441.424349793812 93.31231441131237 0.0 0.0
-752.3007688739176 -67.30460281257696 -400.38205297723454 96.00517120340125 0.0 0.0
-697.4920299998284 -51.389997186860434 -356.9457570918136 97.95387865789763 0.0 0.0
-636.852252908805 -40.288329587566366 -305.4220883709452 98.53877136253831 0.0 0.0
-573.2295961571033 -27.89749289389445 -240.45737388225774 101.1354000748502 0.0 0.0
-478.49997991521224 -13.566897649262936 -168.01081435163516 103.84951690354121 0.0 0.0
-373.2100708702854 9.731952091853268 -109.34728959508641 117.61187966594584 0.0 0.0
-269.1961091284611 12.503807049650238 -77.0705671930693 125.14237078974756 0.0 0.0
-195.0480507032128 9.819258194799563 -55.57276496145544 133.4866653129193 0.0 0.0
-123.31511939295396 -6.378699080917212 -38.90843991183942 132.05935908923112 0.0 0.0
-64.41885550498861 -60.8813830270733 -37.590071559618565 97.9866694958447 0.0 0.0
-39.205768778625156 -95.59250752239193 -40.43948289030513 56.4880358476682 0.0 0.0
-34.51008505808476 -57.816151419643546 -27.69787094331849 -44.20444730953366 0.0 0.0
-70.17019463856856 -48.54402360405666 -35.61426547278756 -80.51407770159035 0.0 0.0
-138.48306823764392 -5.142218401205378 -43.08758599165479 -112.91604281756221 0.0 0.0
-224.0710539194218 7.654458747079104 -64.93118241977493 -114.6275421660016 0.0 0.0
-318.29809283873004 9.536378989020987 -92.0916218720221 -105.3854885703792 0.0 0.0
-428.455551579836 -3.3060923575525747 -136.2077762733473 -88.35672118466233 0.0 0.0
-540.6448803941215 -20.437625084949936 -204.51937864824126 -80.94229717671149 0.0 0.0
-616.7459298879118 -35.80191024283825 -279.2794750752347 -79.7089143173266 0.0 0.0
-682.0289528659538 -46.4678615029494 -340.3172590089193 -79.92437128489208 0.0 0.0
-741.3274785003975 -62.15042014058956 -390.30706197723094 -79.54843360380237 0.0 0.0
-799.298211804583 -82.29948783662954 -434.7758471578501 -78.32987516590367 0.0 0.0
-858.3088893189902 -106.99226018935794 -478.75914513862807 -76.27855906104139 0.0 0.0
-918.5049499561152 -134.73916529740467 -523.5197030312777 -73.88779669159887 0.0 0.0
-977.0824324989978 -163.3330703810204 -567.3323385203116 -71.4724021114082 0.0 0.0
-1032.5957927540987 -188.2726875901662 -607.4891803749342 -69.42663971448654 0.0 0.0
-1077.7835866401365 -203.87865213408665 -637.8940655902626 -68.13074328432175 0.0 0.0
-1092.9881749265328 -192.41609371247299 -640.1822927209133 -68.66845393972989 0.0 0.0
-1051.5092052662544 -129.96072513207747 -589.1016325840221 -72.79977405655306 0.0 0.0
-944.73485924525 -13.9019097066043 -479.0702464363045 -80.6598484341774 0.0 0.0
-774.1316487191419 145.17755813988646 -316.8759994660378 -94.69916437789564 0.0 0.0
-2816.519657704446 -1967.3470859696663 -2368.4643823919696 9.835687819759187e-11 0.0 0.0
-774.1316487192862 145.17755813972462 -316.87599946617127 94.69916437793599 0.0 0.0
-944.7348592454175 -13.9019097068809 -479.0702464363808 80.65984843434667 0.0 0.0
-1051.5092052660837 -129.96072513195267 -589.1016325839303 72.79977405661667 0.0 0.0
-1092.9881749264844 -192.4160937125171 -640.182292720857 68.66845393974374 0.0 0.0
-1077.7835866398716 -203.87865213393263 -637.8940655900208 68.13074328437001 0.0 0.0
-1032.5957927536876 -188.27268758987032 -607.4891803746124 69.4266397145247 0.0 0.0
-977.0824324982055 -163.33307038037773 -567.3323385196691 71.47240211138218 0.0 0.0
-918.5049499560902 -134.73916529757548 -523.5197030313053 73.88779669168528 0.0 0.0
-858.3088893185541 -106.99226018911004 -478.7591451382888 76.2785590610302 0.0 0.0
-799.2982118036989 -82.2994878359279 -434.7758471572533 78.32987516586594 0.0 0.0
-741.3274784999544 -62.15042014036495 -390.30706197688744 79.54843360368861 0.0 0.0
-682.0289528653568 -46.46786150266263 -340.3172590084329 79.9243712849676 0.0 0.0
-616.7459298875702 -35.801910242890166 -279.27947507488767 79.70891431740547 0.0 0.0
-540.6448803935538 -20.437625084681773 -204.51937864776596 80.94229717665297 0.0 0.0
-428.45555157954374 -3.3060923578389927 -136.2077762732787 88.35672118459844 0.0 0.0
-318.29809283840945 9.536378989013837 -92.0916218719296 105.38548857033145 0.0 0.0
-224.07105391916625 7.654458747192748 -64.93118241966481 114.62754216587564 0.0 0.0
-138.48306823744733 -5.142218401079753 -43.087585991558115 112.91604281754428 0.0 0.0
-70.17019463847784 -48.54402360400789 -35.61426547274572 80.51407770155305 0.0 0.0
-34.510085058084755 -57.816151419628156 -27.697870943313863 44.20444730938419 0.0 0.0
-31.87485391037804 -31.026019790135575 -18.870262110154084 -32.05111131583774 0.0 0.0
-74.05925756076847 -36.218665473002346 -33.08337691013124 -61.64378097875196 0.0 0.0
-152.45543373403652 -3.608290869987116 -46.81911738120708 -90.04978804032794 0.0 0.0
-252.1540933602461 5.251064016162712 -74.07238841861083 -91.53864977733095 0.0 0.0
-366.8605599618648 4.280536104297294 -108.1014747421123 -80.51848067449647 0.0 0.0
-486.6007346824303 -11.337771358920065 -163.4242526966856 -63.77740550580035 0.0 0.0
-582.7767161089849 -28.12461511556929 -239.05290759963918 -59.7776766344633 0.0 0.0
-653.6199253508101 -39.22093052579204 -309.9692191823086 -60.02014658009673 0.0 0.0
-718.2867485724588 -53.981525027821824 -369.26603309520925 -60.647269264940185 0.0 0.0
-779.5263802218892 -72.98129477352037 -418.6423744973804 -60.77240524891441 0.0 0.0
-840.8113519945346 -97.34644934194094 -465.125096138093 -60.05653039611496 0.0 0.0
-904.2890246682665 -126.38295515721856 -512.6722670521355 -58.5835056826866 0.0 0.0
-968.6367369208203 -159.07082935624305 -561.6112800654487 -56.692826235280904 0.0 0.0
-1031.2016974268843 -189.56310995512553 -608.1922058249249 -54.98890478534458 0.0 0.0
-1088.4772335893917 -216.73219061680027 -650.3010090695441 -53.385224493121505 0.0 0.0
-1136.8542247158216 -235.98863300528362 -684.037363994857 -51.63173160448661 0.0 0.0
-1160.083621805178 -231.27310895378363 -693.569429089697 -50.26141146261344 0.0 0.0
-1116.7686361956753 -165.48852753400473 -639.9648299432392 -52.44833191313535 0.0 0.0
-982.717367263987 -20.727036573145426 -501.8810089119156 -62.09814044142889 0.0 0.0
-766.9416765747103 184.13786456587349 -293.1381292706469 -81.73115825895067 0.0 0.0
-3057.3226561119263 -2167.883418966451 -2593.043345943008 5.6139981552405516e-11 0.0 0.0
-766.9416765748945 184.13786456566547 -293.1381292707183 81.73115825901668 0.0 0.0
-982.7173672636387 -20.72703657289307 -501.88100891163486 62.09814044158177 0.0 0.0
-1116.76863619581 -165.48852753420124 -639.9648299433387 52.448331913266635 0.0 0.0
-1160.0836218051381 -231.27310895379694 -693.5694290896179 50.261411462559565 0.0 0.0
-1136.8542247155922 -235.98863300518877 -684.037363994672 51.63173160450669 0.0 0.0
-1088.4772335889154 -216.73219061643127 -650.3010090691581 53.38522449315627 0.0 0.0
-1031.2016974257306 -189.563109954095 -608.1922058240644 54.988904785293606 0.0 0.0
-968.6367369209037 -159.0708293565154 -561.6112800655142 56.69282623529506 0.0 0.0
-904.2890246675272 -126.38295515669046 -512.6722670516 58.583505682772945 0.0 0.0
-840.8113519942323 -97.34644934186207 -465.1250961378924 60.056530396120095 0.0 0.0
-779.5263802218835 -72.9812947737346 -418.6423744973391 60.77240524880189 0.0 0.0
-718.286748571993 -53.98152502761563 -369.26603309481686 60.647269264881544 0.0 0.0
-653.6199253507759 -39.22093052611326 -309.9692191821508 60.02014658018591 0.0 0.0
-582.7767161087187 -28.124615115664444 -239.0529075993167 59.777676634413005 0.0 0.0
-486.60073468208464 -11.337771358993521 -163.42425269646597 63.777405505670345 0.0 0.0
-366.86055996135735 4.2805361043204515 -108.10147474197251 80.51848067446682 0.0 0.0
-252.15409335989904 5.2510640164877955 -74.07238841840628 91.53864977728472 0.0 0.0
-152.45543373394312 -3.6082908700296787 -46.81911738119183 90.04978804024825 0.0 0.0
-74.05925756075445 -36.218665473030285 -33.083376910135414 61.64378097870261 0.0 0.0
-31.87485391031616 -31.026019790067338 -18.870262110115046 32.05111131575206 0.0 0.0
-30.185199021190314 -14.964504952328348 -13.544911192055599 -20.739830914355434 0.0 0.0
-75.28137583513823 -24.835823110080764 -30.03515968356569 -41.64421641346204 0.0 0.0
-164.79303243380338 -2.3401639141086803 -50.13995890437361 -63.045752254698364 0.0 0.0
-279.8583643234993 2.616971606444258 -83.16784490355555 -63.91408053320631 0.0 0.0
-410.2802083174279 -5.848287637016527 -126.72490544359403 -51.813188979892736 0.0 0.0
-533.9072906984401 -19.29678636009786 -191.61385080039742 -40.61127320901738 0.0 0.0
-612.1520996386561 -32.777220570581555 -267.93459664736395 -39.29280047704839 0.0 0.0
-684.6257481183525 -44.27701599149182 -336.6077892746591 -40.53332125904784 0.0 0.0
-749.340991258872 -61.97772383079055 -393.7490456489271 -41.25250726483578 0.0 0.0
-812.9184312269997 -84.07228173972564 -443.3694520239234 -41.50918440607462 0.0 0.0
-878.3541170054756 -112.34567076588365 -492.69328793411364 -41.1737230330488 0.0 0.0
-945.8835238076765 -145.92739231750602 -544.0485405895959 -40.19718911162072 0.0 0.0
-1014.9024571296475 -181.55193403172285 -596.5604200183324 -39.01821518209862 0.0 0.0
-1080.5349422870222 -216.3558908256873 -646.7573656096044 -37.85754854928601 0.0 0.0
-1139.2776234004427 -244.21009112291205 -689.9528642863098 -36.784060284317725 0.0 0.0
-1185.4150427781487 -260.77179009882383 -721.196837176199 -35.267167699359995 0.0 0.0
-1214.3685771362552 -262.2084740400128 -736.4205189234041 -32.84992372369806 0.0 0.0
-1198.4507911449286 -223.02003949415231 -709.60362468791 -32.08752529384894 0.0 0.0
-1042.5808522193397 -53.90888144355631 -548.6351852583941 -41.58134742313402 0.0 0.0
-739.6415155036847 240.2841244973355 -250.90173457010306 -68.19565893639722 0.0 0.0
-3254.5144603738095 -2329.2404166982096 -2775.8615080623076 -2.212097172105132e-11 0.0 0.0
-739.6415155036541 240.28412449730757 -250.90173457005045 68.19565893649016 0.0 0.0
-1042.5808522194852 -53.90888144375548 -548.6351852584845 41.58134742320166 0.0 0.0
-1198.450791144579 -223.02003949386716 -709.603624687625 32.08752529392165 0.0 0.0
-1214.3685771364067 -262.2084740402605 -736.4205189234992 32.849923723727976 0.0 0.0
-1185.4150427771842 -260.77179009796055 -721.1968371754848 35.26716769943452 0.0 0.0
-1139.2776234005182 -244.21009112308275 -689.9528642863199 36.784060284219954 0.0 0.0
-1080.5349422863285 -216.35589082513988 -646.7573656090736 37.857548549257444 0.0 0.0
-1014.9024571288612 -181.55193403110877 -596.5604200178105 39.018215182049765 0.0 0.0
-945.8835238071052 -145.9273923171354 -544.0485405892168 40.197189111717385 0.0 0.0
-878.3541170053695 -112.34567076598901 -492.6932879340244 41.17372303302156 0.0 0.0
-812.9184312267914 -84.07228173975398 -443.369452023726 41.50918440598255 0.0 0.0
-749.3409912583495 -61.977723830539745 -393.7490456485046 41.252507264836325 0.0 0.0
-684.6257481180077 -44.27701599145321 -336.6077892743036 40.53332125911893 0.0 0.0
-612.1520996383092 -32.77722057055756 -267.93459664698764 39.29280047702578 0.0 0.0
-533.9072906979663 -19.29678635993025 -191.6138508000345 40.61127320894192 0.0 0.0
-410.2802083170361 -5.8482876370989025 -126.7249054434861 51.81318897990488 0.0 0.0
-279.8583643231405 2.6169716066818984 -83.16784490337913 63.914080533108695 0.0 0.0
-164.79303243361224 -2.340163914036304 -50.13995890429457 63.04575225463357 0.0 0.0
-75.2813758350848 -24.835823110037342 -30.035159683536655 41.64421641347682 0.0 0.0
-30.185199021199676 -14.964504952338302 -13.544911192061392 20.739830914317096 0.0 0.0
-27.321923651383237 -8.73995997411951 -10.818565087650823 -11.86908038338938 0.0 0.0
-72.4197993002645 -15.824829364240024 -26.47338859935136 -20.846948410095226 0.0 0.0
-174.73376258145456 -2.072157373000184 -53.041775986336404 -30.845871347644195 0.0 0.0
-308.53923977839105 0.006143828447775501 -92.54127732751732 -31.160419734717845 0.0 0.0
-457.6556343338456 -13.101925138033453 -146.38247295216962 -23.171794205300127 0.0 0.0
-567.2981256802444 -26.23488828381109 -218.77652171460022 -19.836838144818337 0.0 0.0
-639.8612386538708 -33.69234070478009 -291.6364000321122 -20.75280824527772 0.0 0.0
-710.616531254855 -50.19070105329854 -359.307489970041 -21.456536256637065 0.0 0.0
-776.3627457687596 -69.93104955220343 -414.6438357727616 -21.702302574792686 0.0 0.0
-842.6304881037366 -95.58047662043117 -465.63364479286366 -21.78641606025252 0.0 0.0
-911.9683676831353 -127.66743341831138 -518.0326824079452 -21.589108696347047 0.0 0.0
-984.1076025366699 -164.44234325691232 -572.9816697394365 -21.22048191495694 0.0 0.0
-1056.5274571677412 -204.61409902128895 -629.3349535608667 -20.65072882740207 0.0 0.0
-1126.293135696096 -242.03659786407087 -682.8556408893024 -20.10228167069837 0.0 0.0
-1185.7696405171466 -270.30198989541685 -726.6394914908591 -19.586033854719776 0.0 0.0
-1228.3620197517637 -283.3380635340004 -754.3876903207484 -18.655147468565946 0.0 0.0
-1251.086372674805 -279.22325594412655 -763.6424977228529 -16.758203413362757 0.0 0.0
-1260.6706602801437 -266.0142090322217 -761.980345407344 -14.279955270789198 0.0 0.0
-1197.239586004595 -186.83760245820577 -691.9086932033432 -18.525380899560034 0.0 0.0
-727.1104750106689 280.7042327258177 -224.08556432499213 -48.062315751101124 0.0 0.0
-3275.597178420582 -2315.1104673925297 -2783.4531106851064 1.4996004438216914e-11 0.0 0.0
-727.1104750106454 280.7042327258394 -224.0855643249631 48.0623157510871 0.0 0.0
-1197.2395860053296 -186.83760245901 -691.9086932038939 18.525380899570976 0.0 0.0
-1260.6706602796403 -266.0142090317611 -761.9803454069485 14.279955270833861 0.0 0.0
-1251.0863726745238 -279.22325594394 -763.6424977226685 16.75820341334162 0.0 0.0
-1228.3620197509251 -283.33806353325576 -754.3876903201051 18.655147468651148 0.0 0.0
-1185.76964051731 -270.30198989569504 -726.6394914909031 19.586033854614605 0.0 0.0
-1126.293135695868 -242.0365978639955 -682.8556408891009 20.102281670685016 0.0 0.0
-1056.5274571669283 -204.61409902063977 -629.3349535603087 20.650728827367356 0.0 0.0
-984.1076025365762 -164.44234325703036 -572.9816697393769 21.220481914968886 0.0 0.0
-911.968367682781 -127.66743341818247 -518.0326824077002 21.58910869638244 0.0 0.0
-842.6304881031183 -95.58047662003005 -465.63364479239436 21.786416060182813 0.0 0.0
-776.3627457683282 -69.93104955204059 -414.6438357724145 21.702302574804254 0.0 0.0
-710.6165312543573 -50.1907010530535 -359.3074899695991 21.45653625662601 0.0 0.0
-639.8612386536691 -33.692340704903344 -291.6364000318329 20.752808245280022 0.0 0.0
-567.2981256796602 -26.234888283514938 -218.7765217141318 19.836838144756733 0.0 0.0
-457.65563433329737 -13.101925137861386 -146.38247295191087 23.171794205284176 0.0 0.0
-308.53923977813014 0.006143828270801066 -92.54127732750999 31.16041973458143 0.0 0.0
-174.73376258118077 -2.072157372736422 -53.04177598617514 30.845871347659624 0.0 0.0
-72.41979930018998 -15.824829364184609 -26.473388599312376 20.846948410033093 0.0 0.0
-27.32192365140145 -8.739959974152603 -10.818565087666215 11.869080383408441 0.0 0.0
-16.589894455483844 -4.205584004185782 -6.238643537900886 -7.52236079067232 0.0 0.0
-61.79166564788264 -8.732511903833526 -21.15725326551485 -8.654876077100138 0.0 0.0
-180.89278818811033 -3.098033589409031 -55.19724653325581 -10.552380739841361 0.0 0.0
-344.0502183950632 -10.147227137045576 -106.19379364277098 -9.991501244636808 0.0 0.0
-516.4564536086981 -40.511713079776726 -177.8996741035788 -3.5163640819572066 0.0 0.0
-632.6908083089558 -73.62272931659925 -269.7190803992551 -0.4123232449982872 0.0 0.0
-720.3267455201727 -99.60059373614521 -359.72144022057523 -0.01832276566446822 0.0 0.0
-813.6006295002633 -140.62734491460117 -449.3761752800481 -0.7206770159725586 0.0 0.0
-909.3236664941033 -191.39222216495068 -534.0690561279155 -1.6742022456668995 0.0 0.0
-1016.7381825313702 -257.95388050233237 -625.3861572803427 -2.762294965369554 0.0 0.0
-1140.2851330254036 -343.5920240696901 -731.2074379668504 -3.879497754168467 0.0 0.0
-1279.874588689267 -448.61273781450643 -853.5371794410248 -4.9379656378362515 0.0 0.0
-1431.7477766504514 -566.8870767925697 -988.1391546422158 -5.6467342553204976 0.0 0.0
-1590.0285933620378 -692.5151388244069 -1129.5609697401453 -6.3259432677263785 0.0 0.0
-1742.621486805333 -813.5729815429222 -1265.8844637483935 -6.847122357236387 0.0 0.0
-1872.2096230429531 -913.4674339893061 -1380.2598676870978 -6.992885932263075 0.0 0.0
-1957.6219928129422 -972.4498077404542 -1452.3859606114734 -6.4236418547705725 0.0 0.0
-1975.6965632375075 -968.7925299083255 -1459.9059351225674 -4.518676502207452 0.0 0.0
-1962.759957627743 -939.7236612715392 -1438.8078557351153 -5.910036831207931 0.0 0.0
-1889.993503679883 -863.4251731089405 -1360.7880940866592 -35.42751935459422 0.0 0.0
-4903.5492136845405 -3914.7731816984788 -4380.158116062675 1.0189182830799837e-11 0.0 0.0
-1889.993503680445 -863.4251731095386 -1360.7880940869563 35.427519354588824 0.0 0.0
-1962.7599576279438 -939.723661271789 -1438.8078557351928 5.910036831236482 0.0 0.0
-1975.6965632369822 -968.7925299078689 -1459.905935122069 4.518676502217957 0.0 0.0
-1957.6219928119112 -972.4498077395139 -1452.3859606106132 6.423641854796031 0.0 0.0
-1872.2096230421698 -913.4674339886129 -1380.2598676864213 6.992885932355627 0.0 0.0
-1742.621486804927 -813.5729815426528 -1265.8844637478317 6.84712235718964 0.0 0.0
-1590.0285933618254 -692.5151388243481 -1129.5609697398158 6.325943267706922 0.0 0.0
-1431.7477766496959 -566.8870767919947 -988.1391546415664 5.646734255370003 0.0 0.0
-1279.8745886888964 -448.6127378143533 -853.5371794406433 4.937965637836886 0.0 0.0
-1140.2851330243539 -343.59202406885504 -731.2074379660728 3.879497754276205 0.0 0.0
-1016.7381825306477 -257.9538805018445 -625.3861572797491 2.762294965378704 0.0 0.0
-909.3236664935949 -191.39222216468653 -534.0690561274731 1.6742022456113794 0.0 0.0
-813.6006294995498 -140.62734491417018 -449.37617527944246 0.720677015865892 0.0 0.0
-720.3267455201119 -99.600593736421 -359.7214402203417 0.018322765736805025 0.0 0.0
-632.69080830833 -73.62272931624983 -269.719080398703 0.41232324487194205 0.0 0.0
-516.4564536078198 -40.51171307906658 -177.8996741030336 3.5163640819374464 0.0 0.0
-344.050218394832 -10.147227137347631 -106.19379364278595 9.991501244596119 0.0 0.0
-180.89278818778826 -3.0980335892057944 -55.19724653309822 10.552380739894392 0.0 0.0
-61.791665647838514 -8.732511903867398 -21.157253265511766 8.65487607696243 0.0 0.0
-16.5898944554558 -4.205584004176773 -6.2386435378897716 7.522360790758782 0.0 0.0
SCALARS Strain float 6
LOOKUP_TABLE default
0.011102383607808936 -0.019331601703177825 0.0 -0.000660992715641154 0.0 0.0
0.006846505547487247 -0.0014287153510995781 0.0 -0.005923144714153566 0.0 0.0
0.002198933127929983 -0.0006264433996685706 0.0 -0.0005798729983131637 0.0 0.0
0.0019926304009100474 -0.0007972286403671652 0.0 -4.3388553206295435e-05 0.0 0.0
0.0026251497771562667 -0.001054905802253201 0.0 6.281551608153809e-05 0.0 0.0
0.003939245257806523 -0.0019834946098249272 0.0 0.0001397320668573674 0.0 0.0
0.006109722817660779 -0.003742199511335897 0.0 0.00018099513824478754 0.0 0.0
0.009208229412128588 -0.0064020173607679115 0.0 0.00019651493587523027 0.0 0.0
0.013323692993750528 -0.0100559802368745 0.0 0.00019654892629401282 0.0 0.0
0.018507883145264522 -0.014707854823593311 0.0 0.00017088014686938394 0.0 0.0
0.024822077565722113 -0.02038880706160555 0.0 0.0001630076250574972 0.0 0.0
0.032379821387822506 -0.02721037857316176 0.0 0.00016870560381227417 0.0 0.0
0.041311611412829886 -0.03533207808549875 0.0 0.00011674882351632237 0.0 0.0
0.05173316041387771 -0.04489708444025363 0.0 5.546206529505847e-05 0.0 0.0
0.06366209560463242 -0.055968996590579204 0.0 -7.625004525104177e-05 0.0 0.0
0.07685447958698535 -0.06835134025408936 0.0 -0.00030003807034238174 0.0 0.0
0.09068584379730099 -0.08146019355712064 0.0 -0.000583474095311821 0.0 0.0
0.10412745345508517 -0.09430793883034422 0.0 -0.0008152715670156517 0.0 0.0
0.11586388923808252 -0.10560298956553249 0.0 -0.0008317210704725572 0.0 0.0
0.12440932506579622 -0.11391113806016293 0.0 -0.0008211924683255954 0.0 0.0
0.12768905106838493 -0.11721727805100046 0.0 1.6410484082740595e-15 0.0 0.0
0.124409325065783 -0.11391113806015274 0.0 0.0008211924683309791 0.0 0.0
0.11586388923805485 -0.1056029895655072 0.0 0.0008317210704779357 0.0 0.0
0.10412745345504543 -0.09430793883030261 0.0 0.0008152715670188991 0.0 0.0
0.09068584379725567 -0.0814601935570824 0.0 0.0005834740953123583 0.0 0.0
0.07685447958693802 -0.06835134025404312 0.0 0.0003000380703385313 0.0 0.0
0.0636620956045841 -0.055968996590534836 0.0 7.625004525072974e-05 0.0 0.0
0.05173316041382899 -0.04489708444020921 0.0 -5.546206529590892e-05 0.0 0.0
0.04131161141278124 -0.035332078085452454 0.0 -0.00011674882351781369 0.0 0.0
0.03237982138777686 -0.027210378573121884 0.0 -0.00016870560381483592 0.0 0.0
0.02482207756568243 -0.02038880706157149 0.0 -0.00016300762505829815 0.0 0.0
0.018507883145232544 -0.014707854823565531 0.0 -0.00017088014687158628 0.0 0.0
0.013323692993725145 -0.01005598023685542 0.0 -0.00019654892629512605 0.0 0.0
0.009208229412109446 -0.006402017360748939 0.0 -0.00019651493587378213 0.0 0.0
0.006109722817647765 -0.003742199511326252 0.0 -0.00018099513824512445 0.0 0.0
0.0039392452577992265 -0.0019834946098190647 0.0 -0.00013973206685772758 0.0 0.0
0.0026251497771538116 -0.0010549058022504255 0.0 -6.281551607872052e-05 0.0 0.0
0.001992630400909292 -0.0007972286403673992 0.0 4.338855320459876e-05 0.0 0.0
0.002198933127928355 -0.0006264433996672749 0.0 0.000579872998311988 0.0 0.0
0.0068465055474823 -0.0014287153510979186 0.0 0.005923144714144733 0.0 0.0
0.011102383607801514 -0.019331601703155073 0.0 0.0006609927156042495 0.0 0.0
0.007499780021157478 -0.017215773676901913 0.0 -0.00020780967862188676 0.0 0.0
0.00445779291818163 -0.0010436557645653213 0.0 -0.00463735499634654 0.0 0.0
0.0015207830472059344 -0.0005043580927214849 0.0 -0.00038754948957801593 0.0 0.0
0.001785557719111527 -0.0007594006491564159 0.0 -0.00021166688194661028 0.0 0.0
0.002303827556870636 -0.0009709134416952003 0.0 -0.00016783117788562 0.0 0.0
0.0034220325538991832 -0.001782442270703451 0.0 -0.00019088290016914663 0.0 0.0
0.005358429063322072 -0.003417676611165471 0.0 -0.00036254345864857507 0.0 0.0
0.00817217078458236 -0.005930093548608603 0.0 -0.0005867411386740642 0.0 0.0
0.011921248889471069 -0.009400258661433453 0.0 -0.0008756418683898107 0.0 0.0
0.016625782385313922 -0.013818174939223602 0.0 -0.0012137586197138843 0.0 0.0
0.022318191241900258 -0.01920099639224876 0.0 -0.0015610522613179452 0.0 0.0
0.029090720981514443 -0.025644099116122747 0.0 -0.001904890504373574 0.0 0.0
0.03709591763020295 -0.03331007238305689 0.0 -0.00230669002790649 0.0 0.0
0.04647277214950606 -0.042361543552808065 0.0 -0.0027896368754717175 0.0 0.0
0.057250309500129604 -0.0528623434055062 0.0 -0.0033493629089361154 0.0 0.0
0.06922083975846184 -0.06463348772826165 0.0 -0.0039597396568638935 0.0 0.0
0.08182146706624104 -0.07712867916015773 0.0 -0.0044726221896719725 0.0 0.0
0.09412624565935605 -0.08941593429176968 0.0 -0.004608677599116544 0.0 0.0
0.10490780021496646 -0.10025695074213556 0.0 -0.004107537236698399 0.0 0.0
0.11261148048882486 -0.10816944476859487 0.0 -0.003102315040911268 0.0 0.0
0.11547506235572315 -0.11135423364338692 0.0 3.7175124090182976e-15 0.0 0.0
0.11261148048881225 -0.10816944476858248 0.0 0.003102315040923295 0.0 0.0
0.10490780021494164 -0.10025695074211104 0.0 0.00410753723671132 0.0 0.0
0.09412624565932164 -0.08941593429173549 0.0 0.004608677599124403 0.0 0.0
0.08182146706620143 -0.0771286791601193 0.0 0.004472622189674239 0.0 0.0
0.06922083975841932 -0.06463348772822015 0.0 0.003959739656859985 0.0 0.0
0.057250309500085736 -0.05286234340546327 0.0 0.003349362908936383 0.0 0.0
0.046472772149462355 -0.04236154355276559 0.0 0.002789636875470706 0.0 0.0
0.037095917630159674 -0.033310072383013575 0.0 0.002306690027903675 0.0 0.0
0.029090720981473563 -0.025644099116083594 0.0 0.0019048905043702379 0.0 0.0
0.022318191241864245 -0.019200996392217503 0.0 0.0015610522613150953 0.0 0.0
0.016625782385284532 -0.013818174939197047 0.0 0.0012137586197106761 0.0 0.0
0.011921248889448195 -0.009400258661413587 0.0 0.00087564186838627 0.0 0.0
0.008172170784565384 -0.005930093548591139 0.0 0.0005867411386732658 0.0 0.0
0.005358429063310885 -0.0034176766111554536 0.0 0.00036254345864698503 0.0 0.0
0.003422032553893252 -0.0017824422706994771 0.0 0.00019088290016820885 0.0 0.0
0.0023038275568683635 -0.0009709134416935577 0.0 0.00016783117788692021 0.0 0.0
0.0017855577191107723 -0.0007594006491565888 0.0 0.00021166688194558726 0.0 0.0
0.0015207830472057922 -0.0005043580927210549 0.0 0.00038754948957696404 0.0 0.0
0.0044577929181761535 -0.0010436557645632724 0.0 0.004637354996336681 0.0 0.0
0.007499780021146363 -0.01721577367687899 0.0 0.00020780967859412955 0.0 0.0
0.0053822681749402124 -0.013569640152135562 0.0 -0.0027155683330185925 0.0 0.0
0.003103061844099435 -0.0005505859775876195 0.0 -0.0044926248280420565 0.0 0.0
0.001077041601910583 -0.000298997132668431 0.0 -0.000377925821041041 0.0 0.0
0.0015295472578934364 -0.0006597261485544777 0.0 -0.00047324339403025844 0.0 0.0
0.0020125096553415362 -0.0008286892231834979 0.0 -0.00046870690266351874 0.0 0.0
0.002927604898681623 -0.0014092639759667553 0.0 -0.0004763204013063313 0.0 0.0
0.004607302751366878 -0.00277493537608347 0.0 -0.0007896504523195349 0.0 0.0
0.007125427692335075 -0.004992160085109924 0.0 -0.0012403723418196995 0.0 0.0
0.010494054302782826 -0.008084815176171956 0.0 -0.001814935888984349 0.0 0.0
0.014711860798900838 -0.012031328581010138 0.0 -0.002475308350842892 0.0 0.0
0.019786141963901476 -0.016817785559526108 0.0 -0.003166407001917178 0.0 0.0
0.025788781525117196 -0.022513273542846452 0.0 -0.0038515045936593512 0.0 0.0
0.032865274623218046 -0.02927312669235027 0.0 -0.004571104974417072 0.0 0.0
0.04118020131790469 -0.037285746401470664 0.0 -0.005427266579127117 0.0 0.0
0.050786568936108764 -0.04663352746849385 0.0 -0.006439962736835278 0.0 0.0
0.061511389333595116 -0.057170743166978955 0.0 -0.007513035635483248 0.0 0.0
0.07288152669384475 -0.06843398026137526 0.0 -0.008384610465363736 0.0 0.0
0.08407982711608458 -0.07960953103713578 0.0 -0.008604185038393644 0.0 0.0
0.09393826619663723 -0.08954857176354443 0.0 -0.0077601194633329556 0.0 0.0
0.10101998997747845 -0.09677886027059344 0.0 -0.00573176029850797 0.0 0.0
0.10367574189901346 -0.0998400638803728 0.0 8.767726128455777e-15 0.0 0.0
0.10101998997746689 -0.09677886027058456 0.0 0.005731760298529377 0.0 0.0
0.09393826619661555 -0.08954857176351957 0.0 0.007760119463356341 0.0 0.0
0.08407982711605466 -0.07960953103710736 0.0 0.008604185038407429 0.0 0.0
0.07288152669380973 -0.06843398026134094 0.0 0.0083846104653671 0.0 0.0
0.06151138933355732 -0.057170743166944024 0.0 0.00751303563547921 0.0 0.0
0.05078656893606974 -0.04663352746845735 0.0 0.006439962736834583 0.0 0.0
0.04118020131786569 -0.03728574640143169 0.0 0.005427266579124275 0.0 0.0
0.0328652746231796 -0.029273126692314237 0.0 0.004571104974412154 0.0 0.0
0.025788781525080764 -0.022513273542810384 0.0 0.0038515045936536405 0.0 0.0
0.01978614196386951 -0.01681778555949575 0.0 0.003166407001911076 0.0 0.0
0.014711860798874564 -0.01203132858098623 0.0 0.0024753083508376613 0.0 0.0
0.010494054302761926 -0.00808481517615018 0.0 0.0018149358889793786 0.0 0.0
0.00712542769231956 -0.00499216008509532 0.0 0.0012403723418164393 0.0 0.0
0.004607302751357018 -0.002774935376074411 0.0 0.0007896504523171748 0.0 0.0
0.0029276048986769253 -0.0014092639759642912 0.0 0.00047632040130617386 0.0 0.0
0.0020125096553398614 -0.0008286892231819762 0.0 0.0004687069026637215 0.0 0.0
0.0015295472578929787 -0.0006597261485541723 0.0 0.0004732433940307049 0.0 0.0
0.0010770416019108533 -0.0002989971326691569 0.0 0.00037792582104058706 0.0 0.0
0.003103061844094431 -0.0005505859775850306 0.0 0.004492624828030618 0.0 0.0
0.005382268174929733 -0.013569640152113736 0.0 0.0027155683330001047 0.0 0.0
0.003991223129660535 -0.010844126853037345 0.0 -0.0031267389391057667 0.0 0.0
0.0022482471525617507 -0.00041085374038272245 0.0 -0.0041165599491767135 0.0 0.0
0.0007730123873461857 -0.00016852533358846378 0.0 -0.000667256718394982 0.0 0.0
0.0012697510025699427 -0.0005305318885602695 0.0 -0.0007196927667832007 0.0 0.0
0.0017383966982454009 -0.0007188242041133939 0.0 -0.0007759939763218925 0.0 0.0
0.002473114456652026 -0.0011113597388022803 0.0 -0.0007644951678862735 0.0 0.0
0.0038716215323117307 -0.002164776592891781 0.0 -0.0010765458631982125 0.0 0.0
0.006073620605356061 -0.004067445048839982 0.0 -0.0017251940332136044 0.0 0.0
0.009052670105942141 -0.00677023975472077 0.0 -0.0025202297275218953 0.0 0.0
0.012778213586631119 -0.010236149769667325 0.0 -0.0034331793761185783 0.0 0.0
0.017236184310566005 -0.014428334020397279 0.0 -0.004387271082991785 0.0 0.0
0.02247863039239527 -0.01938815056206446 0.0 -0.005334071180487238 0.0 0.0
0.028639100142689486 -0.025253660020397556 0.0 -0.006314186762166619 0.0 0.0
0.03588018713102343 -0.03221720083954195 0.0 -0.007436486329451406 0.0 0.0
0.044288799106706606 -0.0403871797707932 0.0 -0.008759564416249805 0.0 0.0
0.05375111058105116 -0.049666750546493055 0.0 -0.010180090908580979 0.0 0.0
0.06387760561677018 -0.05968352105411351 0.0 -0.011347888665084275 0.0 0.0
0.07396520605677828 -0.06974719693345144 0.0 -0.011703001366033269 0.0 0.0
0.08296327178648778 -0.07881252799576594 0.0 -0.010673266403903727 0.0 0.0
0.08957579652829681 -0.08554417723563182 0.0 -0.007711819223361476 0.0 0.0
0.09211520848283707 -0.08865852686221826 0.0 1.2323041892470243e-14 0.0 0.0
0.0895757965282864 -0.08554417723562337 0.0 0.007711819223391072 0.0 0.0
0.08296327178646842 -0.07881252799574605 0.0 0.010673266403934591 0.0 0.0
0.07396520605675173 -0.06974719693342493 0.0 0.011703001366048876 0.0 0.0
0.0638776056167396 -0.05968352105408552 0.0 0.011347888665087597 0.0 0.0
0.05375111058101803 -0.049666750546461386 0.0 0.010180090908576644 0.0 0.0
0.044288799106672355 -0.04038717977076436 0.0 0.008759564416247 0.0 0.0
0.035880187130989144 -0.032217200839510185 0.0 0.007436486329448032 0.0 0.0
0.028639100142656096 -0.025253660020364048 0.0 0.0063141867621605945 0.0 0.0
0.022478630392364106 -0.01938815056203465 0.0 0.005334071180479229 0.0 0.0
0.017236184310538034 -0.01442833402036904 0.0 0.00438727108298456 0.0 0.0
0.012778213586607688 -0.010236149769645746 0.0 0.0034331793761126217 0.0 0.0
0.00905267010592381 -0.006770239754702913 0.0 0.0025202297275166772 0.0 0.0
0.006073620605342958 -0.004067445048827152 0.0 0.0017251940332092784 0.0 0.0
0.003871621532303848 -0.00216477659288556 0.0 0.0010765458631952123 0.0 0.0
0.0024731144566484575 -0.0011113597388008453 0.0 0.000764495167885827 0.0 0.0
0.0017383966982442971 -0.0007188242041123538 0.0 0.0007759939763212947 0.0 0.0
0.0012697510025696213 -0.0005305318885598322 0.0 0.000719692766782693 0.0 0.0
0.0007730123873461428 -0.0001685253335893136 0.0 0.0006672567183938758 0.0 0.0
0.0022482471525568136 -0.0004108537403800958 0.0 0.004116559949165591 0.0 0.0
0.003991223129650773 -0.010844126853018207 0.0 0.0031267389390932324 0.0 0.0
0.0029779480621019935 -0.008667726909938625 0.0 -0.0028315670893427265 0.0 0.0
0.0016536266811322772 -0.0003696975170262621 0.0 -0.0037114711417296983 0.0 0.0
0.0005604657872634382 -9.883499404186634e-05 0.0 -0.0010367326772348262 0.0 0.0
0.001024375075999873 -0.0004004070885991583 0.0 -0.0009862025401891684 0.0 0.0
0.0014720075667057492 -0.000613932928966647 0.0 -0.0010725049556287042 0.0 0.0
0.0020665895306365605 -0.0008901756469775492 0.0 -0.0010673728515383524 0.0 0.0
0.003173899631316547 -0.0016331061436266944 0.0 -0.001299496230610929 0.0 0.0
0.005025996633068233 -0.003163202358781367 0.0 -0.0019983139846925205 0.0 0.0
0.007608116807803133 -0.005471256397319374 0.0 -0.002984475160213999 0.0 0.0
0.010835604241022744 -0.008448199616511378 0.0 -0.004079584607274749 0.0 0.0
0.014680414553995505 -0.012046564971090124 0.0 -0.00522223452141831 0.0 0.0
0.019170580177814575 -0.016279048622368272 0.0 -0.006351151670525322 0.0 0.0
0.02442108686684726 -0.021261284062808226 0.0 -0.007511413321619028 0.0 0.0
0.03059609877284887 -0.02717836478919005 0.0 -0.008817714803268253 0.0 0.0
0.03779517006919666 -0.03415705249963251 0.0 -0.010334341281706379 0.0 0.0
0.04596164478222068 -0.04215326580458275 0.0 -0.011951204998324564 0.0 0.0
0.05481585013091935 -0.0508917552038683 0.0 -0.013323910920316547 0.0 0.0
0.06378024393934188 -0.0598166745273897 0.0 -0.013863065357702807 0.0 0.0
0.07195740433972504 -0.06804148664896074 0.0 -0.012785255740552958 0.0 0.0
0.07819900410387237 -0.07439447428271873 0.0 -0.009230365892087289 0.0 0.0
0.08068074830626626 -0.0776643705677176 0.0 1.3988810110276972e-14 0.0 0.0
0.07819900410386305 -0.07439447428270814 0.0 0.00923036589212059 0.0 0.0
0.07195740433970742 -0.06804148664894687 0.0 0.012785255740584752 0.0 0.0
0.06378024393931883 -0.059816674527367705 0.0 0.01386306535772229 0.0 0.0
0.05481585013089301 -0.050891755203841336 0.0 0.013323910920321768 0.0 0.0
0.04596164478219183 -0.04215326580455382 0.0 0.011951204998320543 0.0 0.0
0.03779517006916737 -0.03415705249960832 0.0 0.010334341281702481 0.0 0.0
0.030596098772819817 -0.027178364789163658 0.0 0.008817714803265373 0.0 0.0
0.02442108686681875 -0.021261284062778402 0.0 0.007511413321614348 0.0 0.0
0.019170580177787912 -0.016279048622342335 0.0 0.0063511516705159815 0.0 0.0
0.01468041455397183 -0.012046564971068041 0.0 0.005222234521408178 0.0 0.0
0.010835604241002468 -0.008448199616492676 0.0 0.004079584607266949 0.0 0.0
0.00760811680778716 -0.005471256397306687 0.0 0.002984475160207265 0.0 0.0
0.005025996633057087 -0.0031632023587705544 0.0 0.0019983139846882743 0.0 0.0
0.003173899631310264 -0.0016331061436221548 0.0 0.0012994962306082949 0.0 0.0
0.002066589530634018 -0.0008901756469754654 0.0 0.001067372851538408 0.0 0.0
0.0014720075667047174 -0.0006139329289656883 0.0 0.0010725049556284986 0.0 0.0
0.0010243750759994991 -0.00040040708859881495 0.0 0.000986202540187641 0.0 0.0
0.0005604657872633069 -9.883499404212578e-05 0.0 0.0010367326772323373 0.0 0.0
0.0016536266811282216 -0.00036969751702420843 0.0 0.0037114711417198477 0.0 0.0
0.0029779480620941144 -0.008667726909922303 0.0 0.002831567089334805 0.0 0.0
0.002205110547714268 -0.006871289953424299 0.0 -0.0023937722729092995 0.0 0.0
0.001214638385317361 -0.00035586247789029746 0.0 -0.003319343970466849 0.0 0.0
0.00040333229374200176 -6.662123595869812e-05 0.0 -0.0013855542756040732 0.0 0.0
0.0007965183432145511 -0.00028234614903441875 0.0 -0.001260183828564409 0.0 0.0
0.0012094208584927653 -0.0005027533716249099 0.0 -0.0013471197766805364 0.0 0.0
0.0016961380193103747 -0.0007186900983702172 0.0 -0.00136918554777692 0.0 0.0
0.002540561126456643 -0.0012100474569634151 0.0 -0.0015346891152588193 0.0 0.0
0.004010935766069538 -0.002329352977846401 0.0 -0.0021219826379732755 0.0 0.0
0.006163297113013912 -0.004199227351165629 0.0 -0.0031711477614272043 0.0 0.0
0.008895528730353519 -0.006684075297207062 0.0 -0.004403314792400408 0.0 0.0
0.012128286657518498 -0.009687244196094884 0.0 -0.005657811353084229 0.0 0.0
0.015875235189168512 -0.013200205887050252 0.0 -0.006897744363774206 0.0 0.0
0.020228844477756903 -0.01731041126947971 0.0 -0.008154394513756933 0.0 0.0
0.02533786577746565 -0.022187959781781424 0.0 -0.009544262122457728 0.0 0.0
0.03132553477441638 -0.027971086534787453 0.0 -0.01114636080752309 0.0 0.0
0.03818458196862041 -0.03466694280851311 0.0 -0.012848987970697513 0.0 0.0
0.04571810803182791 -0.04208595590661429 0.0 -0.014318208085050323 0.0 0.0
0.05351499086833495 -0.04982078773125155 0.0 -0.015007757521296829 0.0 0.0
0.060878624034741924 -0.057202114999960335 0.0 -0.014060844840708818 0.0 0.0
0.06680908536818825 -0.0632441505974906 0.0 -0.010328767811878695 0.0 0.0
0.06927390754843558 -0.06675669903479808 0.0 1.424338078037657e-14 0.0 0.0
0.06680908536817971 -0.06324415059748328 0.0 0.010328767811912724 0.0 0.0
0.06087862403472677 -0.057202114999945486 0.0 0.014060844840741608 0.0 0.0
0.053514990868315425 -0.04982078773123452 0.0 0.015007757521319127 0.0 0.0
0.045718108031805246 -0.042085955906589735 0.0 0.014318208085054275 0.0 0.0
0.03818458196859573 -0.03466694280848822 0.0 0.012848987970692434 0.0 0.0
0.03132553477439192 -0.027971086534765162 0.0 0.011146360807518312 0.0 0.0
0.025337865777441577 -0.022187959781757655 0.0 0.009544262122455011 0.0 0.0
0.020228844477733154 -0.017310411269460098 0.0 0.008154394513750675 0.0 0.0
0.01587523518914621 -0.013200205887028508 0.0 0.006897744363764748 0.0 0.0
0.012128286657498811 -0.009687244196074899 0.0 0.00565781135307185 0.0 0.0
0.008895528730336565 -0.006684075297191831 0.0 0.004403314792389933 0.0 0.0
0.006163297113000771 -0.004199227351153261 0.0 0.0031711477614204324 0.0 0.0
0.004010935766060848 -0.0023293529778390235 0.0 0.00212198263796859 0.0 0.0
0.0025405611264519134 -0.0012100474569608243 0.0 0.001534689115257973 0.0 0.0
0.001696138019308496 -0.0007186900983682794 0.0 0.0013691855477756722 0.0 0.0
0.0012094208584921102 -0.0005027533716226417 0.0 0.001347119776679316 0.0 0.0
0.000796518343214357 -0.0002823461490343146 0.0 0.001260183828562288 0.0 0.0
0.0004033322937418446 -6.662123595823444e-05 0.0 0.0013855542756014796 0.0 0.0
0.001214638385314299 -0.000355862477888986 0.0 0.003319343970458852 0.0 0.0
0.0022051105477082873 -0.006871289953410718 0.0 0.0023937722729035354 0.0 0.0
0.001609148464261609 -0.005371719243755416 0.0 -0.0019887165357017405 0.0 0.0
0.000880548484651134 -0.0003525402250064456 0.0 -0.0029663601179715855 0.0 0.0
0.0002772125781698305 -5.0162626987269576e-05 0.0 -0.0016755186064152843 0.0 0.0
0.0005846870199941853 -0.00017903464655190894 0.0 -0.001520132612175234 0.0 0.0
0.0009469603535260799 -0.0003831386110528667 0.0 -0.0015906653866387692 0.0 0.0
0.0013452734342550396 -0.0005738760755263254 0.0 -0.0016604046293193452 0.0 0.0
0.0019686580199884296 -0.0008803440356950798 0.0 -0.0017645668108482362 0.0 0.0
0.003066620037460667 -0.0016248388690980166 0.0 -0.0022091952285465525 0.0 0.0
0.004749915004947846 -0.0029992496400706166 0.0 -0.003116024565838469 0.0 0.0
0.006963557858355849 -0.004962531734568485 0.0 -0.004364778453907439 0.0 0.0
0.009591265859709848 -0.007369610646978185 0.0 -0.0056744812064576594 0.0 0.0
0.012601741157697766 -0.010167336694855424 0.0 -0.006955770661426165 0.0 0.0
0.01607093904211599 -0.013418759570082633 0.0 -0.008232432017085414 0.0 0.0
0.020130073120907928 -0.01727013117132499 0.0 -0.009614729795542034 0.0 0.0
0.02490342427671998 -0.021857912137004814 0.0 -0.01117316654670889 0.0 0.0
0.030434051205386357 -0.027238862502049505 0.0 -0.012849487287088034 0.0 0.0
0.036617148091010555 -0.03330194896980619 0.0 -0.014328838645149503 0.0 0.0
0.043183495447922354 -0.03978029905804292 0.0 -0.01511937303704523 0.0 0.0
0.04967806640410356 -0.04625702227901902 0.0 -0.014439679125263715 0.0 0.0
0.055313800354759086 -0.051999245307267045 0.0 -0.010980955681331296 0.0 0.0
0.057791368517932984 -0.05583901710247902 0.0 1.2787514103163033e-14 0.0 0.0
0.0553138003547519 -0.051999245307259474 0.0 0.010980955681364288 0.0 0.0
0.049678066404090816 -0.04625702227900314 0.0 0.014439679125295035 0.0 0.0
0.043183495447906145 -0.039780299058029885 0.0 0.015119373037065498 0.0 0.0
0.03661714809099185 -0.03330194896978818 0.0 0.014328838645153236 0.0 0.0
0.03043405120536627 -0.027238862502029747 0.0 0.012849487287081983 0.0 0.0
0.024903424276700364 -0.02185791213698765 0.0 0.011173166546702947 0.0 0.0
0.020130073120889016 -0.01727013117130604 0.0 0.009614729795536445 0.0 0.0
0.016070939042097526 -0.013418759570066953 0.0 0.00823243201707884 0.0 0.0
0.012601741157680053 -0.010167336694837383 0.0 0.006955770661417726 0.0 0.0
0.009591265859693917 -0.007369610646965117 0.0 0.00567448120644621 0.0 0.0
0.006963557858342544 -0.004962531734557119 0.0 0.004364778453895997 0.0 0.0
0.0047499150049377286 -0.0029992496400624764 0.0 0.003116024565832165 0.0 0.0
0.003066620037454241 -0.0016248388690926507 0.0 0.002209195228541622 0.0 0.0
0.0019686580199851154 -0.000880344035693466 0.0 0.0017645668108468215 0.0 0.0
0.0013452734342537373 -0.0005738760755271961 0.0 0.001660404629317256 0.0 0.0
0.0009469603535254085 -0.00038313861105183217 0.0 0.0015906653866364744 0.0 0.0
0.0005846870199937308 -0.00017903464655186978 0.0 0.0015201326121732847 0.0 0.0
0.0002772125781696148 -5.016262698685867e-05 0.0 0.0016755186064126347 0.0 0.0
0.0008805484846488444 -0.00035254022500561845 0.0 0.00296636011796518 0.0 0.0
0.0016091484642572313 -0.005371719243744617 0.0 0.0019887165356980607 0.0 0.0
0.0011484014800273196 -0.00413220988900434 0.0 -0.0016905571013422012 0.0 0.0
0.0006204541612559711 -0.00035829338047502375 0.0 -0.0026515972845624174 0.0 0.0
0.00016644197952241048 -3.389471731042286e-05 0.0 -0.0019010064210096436 0.0 0.0
0.00038530832578897143 -8.849481350066284e-05 0.0 -0.0017477374564891564 0.0 0.0
0.0006826172141462291 -0.00025955374920078674 0.0 -0.0017999023465904715 0.0 0.0
0.0010058289777956696 -0.00043032957141939755 0.0 -0.0019107749350174134 0.0 0.0
0.00144765621713709 -0.0006254495987720843 0.0 -0.0020029608183352874 0.0 0.0
0.0022031349354292695 -0.0010622516109834764 0.0 -0.0022783398864660953 0.0 0.0
0.003411523278811634 -0.0019439805719667965 0.0 -0.0029360421974476214 0.0 0.0
0.005067757571127072 -0.0033353969746581632 0.0 -0.003988929666268377 0.0 0.0
0.007073979607682392 -0.005121973546829363 0.0 -0.005240364423250735 0.0 0.0
0.009359123439890338 -0.007206636947363404 0.0 -0.006486148594065476 0.0 0.0
0.011960334074476315 -0.00961114043872841 0.0 -0.0077177950104019895 0.0 0.0
0.014984294602274052 -0.012453188697066997 0.0 -0.00900570325387229 0.0 0.0
0.018552840749661053 -0.015855929228845538 0.0 -0.01042584387622599 0.0 0.0
0.02274370660973252 -0.01990630292738635 0.0 -0.01193744075624843 0.0 0.0
0.027531684706835938 -0.02457965309734471 0.0 -0.013328216745028773 0.0 0.0
0.032794246636391196 -0.029730497164107 0.0 -0.014152601424024637 0.0 0.0
0.038322807314363966 -0.035183776877125934 0.0 -0.013827608460517267 0.0 0.0
0.043617019875116354 -0.04056044685456761 0.0 -0.01111367591884939 0.0 0.0
0.04611357850430024 -0.0448096816062067 0.0 1.1220625123486982e-14 0.0 0.0
0.043617019875110796 -0.040560446854561484 0.0 0.011113675918878511 0.0 0.0
0.03832280731435371 -0.03518377687711495 0.0 0.013827608460546204 0.0 0.0
0.03279424663637827 -0.029730497164094427 0.0 0.014152601424042129 0.0 0.0
0.02753168470682109 -0.0245796530973338 0.0 0.013328216745030826 0.0 0.0
0.0227437066097172 -0.019906302927372367 0.0 0.011937440756242057 0.0 0.0
0.01855284074964627 -0.015855929228833544 0.0 0.010425843876220873 0.0 0.0
0.014984294602260348 -0.012453188697055211 0.0 0.009005703253868853 0.0 0.0
0.011960334074462953 -0.009611140438713538 0.0 0.007717795010397311 0.0 0.0
0.009359123439877144 -0.007206636947350431 0.0 0.006486148594055326 0.0 0.0
0.007073979607670612 -0.005121973546819462 0.0 0.005240364423240634 0.0 0.0
0.005067757571117313 -0.0033353969746507763 0.0 0.003988929666259699 0.0 0.0
0.0034115232788045034 -0.0019439805719621687 0.0 0.0029360421974426337 0.0 0.0
0.0022031349354248555 -0.0010622516109813779 0.0 0.002278339886463189 0.0 0.0
0.0014476562171350407 -0.0006254495987704282 0.0 0.0020029608183331957 0.0 0.0
0.0010058289777948755 -0.00043032957141882764 0.0 0.0019107749350152224 0.0 0.0
0.0006826172141458724 -0.0002595537492005295 0.0 0.0017999023465884029 0.0 0.0
0.0003853083257887208 -8.849481350029188e-05 0.0 0.001747737456487594 0.0 0.0
0.00016644197952216003 -3.3894717310419515e-05 0.0 0.0019010064210067627 0.0 0.0
0.0006204541612543535 -0.0003582933804748953 0.0 0.0026515972845576954 0.0 0.0
0.0011484014800242864 -0.004132209888996119 0.0 0.0016905571013397127 0.0 0.0
0.0008122148011812183 -0.003158269824727564 0.0 -0.0015325228957477023 0.0 0.0
0.000419356737617071 -0.00037199548678539223 0.0 -0.0023947213617967443 0.0 0.0
5.85425781708745e-05 -9.451263668710946e-06 0.0 -0.0020646239793260975 0.0 0.0
0.00019618804582668983 -7.751419605847028e-06 0.0 -0.0019315630274948444 0.0 0.0
0.00041866854055360917 -0.00013694034593314864 0.0 -0.001968439949585104 0.0 0.0
0.0006610926398690636 -0.0002751170851392166 0.0 -0.002099331531097459 0.0 0.0
0.0009610807045803752 -0.0004139165315263961 0.0 -0.0022398653274455704 0.0 0.0
0.0014260083881110829 -0.0006412349526618525 0.0 -0.002396486991883833 0.0 0.0
0.0021751147584071094 -0.0010981570433074904 0.0 -0.0027499569608084554 0.0 0.0
0.0032537913230781218 -0.0019002822625645405 0.0 -0.0034141423811622842 0.0 0.0
0.004606344071080677 -0.0030217600177800427 0.0 -0.004387852188472279 0.0 0.0
0.006156314625722667 -0.004377192528027302 0.0 -0.005458945477279856 0.0 0.0
0.007901907219842495 -0.005937632001875193 0.0 -0.006571545098851833 0.0 0.0
0.009914147879343624 -0.007787994967627047 0.0 -0.00771324209978062 0.0 0.0
0.01229273083732662 -0.010019494159513812 0.0 -0.008910654277621152 0.0 0.0
0.015134620307312562 -0.012731875726716062 0.0 -0.010177460353644481 0.0 0.0
0.018498788051583406 -0.015976532993986478 0.0 -0.011395220755096023 0.0 0.0
0.02237740257237224 -0.019740937446054256 0.0 -0.012213523614799151 0.0 0.0
0.0267778950120619 -0.02401129375061218 0.0 -0.012138918625264162 0.0 0.0
0.03160660337002024 -0.028827245941529182 0.0 -0.010516750064336446 0.0 0.0
0.03409669343015055 -0.033540244604751926 0.0 1.005619199023755e-14 0.0 0.0
0.03160660337001646 -0.028827245941522764 0.0 0.010516750064360758 0.0 0.0
0.026777895012054853 -0.0240112937506071 0.0 0.012138918625291272 0.0 0.0
0.022377402572362995 -0.019740937446040017 0.0 0.01221352361481354 0.0 0.0
0.01849878805157312 -0.015976532993980906 0.0 0.011395220755095109 0.0 0.0
0.01513462030730222 -0.012731875726707026 0.0 0.010177460353638135 0.0 0.0
0.012292730837317054 -0.010019494159503024 0.0 0.008910654277616661 0.0 0.0
0.009914147879335335 -0.007787994967621947 0.0 0.007713242099779895 0.0 0.0
0.007901907219834099 -0.0059376320018684784 0.0 0.006571545098847713 0.0 0.0
0.006156314625714243 -0.004377192528020814 0.0 0.0054589454772711946 0.0 0.0
0.004606344071073218 -0.0030217600177702857 0.0 0.004387852188462998 0.0 0.0
0.0032537913230720602 -0.0019002822625617303 0.0 0.0034141423811553133 0.0 0.0
0.0021751147584028667 -0.0010981570433033932 0.0 0.002749956960805603 0.0 0.0
0.001426008388108652 -0.0006412349526634478 0.0 0.002396486991882276 0.0 0.0
0.0009610807045790991 -0.00041391653152546596 0.0 0.0022398653274446566 0.0 0.0
0.000661092639868377 -0.0002751170851381877 0.0 0.0020993315310950294 0.0 0.0
0.00041866854055356466 -0.00013694034593207088 0.0 0.0019684399495831168 0.0 0.0
0.00019618804582666232 -7.751419605182873e-06 0.0 0.001931563027492793 0.0 0.0
5.854257817062518e-05 -9.451263668544416e-06 0.0 0.002064623979324152 0.0 0.0
0.00041935673761603624 -0.0003719954867855875 0.0 0.002394721361793101 0.0 0.0
0.0008122148011793947 -0.0031582698247219075 0.0 0.001532522895745948 0.0 0.0
0.0005806047011212916 -0.002427721134525862 0.0 -0.0014550855935307147 0.0 0.0
0.0002698223371086803 -0.00038774885724503455 0.0 -0.002217399870074589 0.0 0.0
-4.5967239846896334e-05 2.2511062993731943e-05 0.0 -0.002168899716616306 0.0 0.0
1.5158093660126194e-05 6.609320483496935e-05 0.0 -0.002065723208525875 0.0 0.0
0.00015770424929009767 -1.7054275231953225e-05 0.0 -0.002089420897718831 0.0 0.0
0.0003092694029710402 -0.00011298173339859613 0.0 -0.002221947049102779 0.0 0.0
0.00047719978765426655 -0.00020313084576704506 0.0 -0.0024032681330427752 0.0 0.0
0.0007082520929528376 -0.00031083528167942574 0.0 -0.002563557812024922 0.0 0.0
0.0010604477787343632 -0.00048466698354467726 0.0 -0.0027128318356498663 0.0 0.0
0.0015700076782040415 -0.0008033688277302996 0.0 -0.002984517630525001 0.0 0.0
0.002238168205511507 -0.0012801527067305492 0.0 -0.0034955363238343665 0.0 0.0
0.0030225331517366853 -0.001892775103610655 0.0 -0.004212325391343737 0.0 0.0
0.003902715667738061 -0.0026090393709694132 0.0 -0.005056256560965345 0.0 0.0
0.004919039919834425 -0.0034668246334233254 0.0 -0.005991594568518626 0.0 0.0
0.006127714976725017 -0.004525822377211793 0.0 -0.007013106836844424 0.0 0.0
0.007618800156486135 -0.005882566782109785 0.0 -0.008144014464278645 0.0 0.0
0.009521241998499783 -0.007651575733727075 0.0 -0.009303794393524772 0.0 0.0
0.011978147772792356 -0.009977263315778388 0.0 -0.010190212092669773 0.0 0.0
0.015095440952004189 -0.012969365508393584 0.0 -0.010238928783515936 0.0 0.0
0.019172892401389703 -0.016825117308982156 0.0 -0.009164664979814677 0.0 0.0
0.02151790856052942 -0.021902105711130302 0.0 7.511786331848569e-15 0.0 0.0
0.019172892401388038 -0.016825117308978038 0.0 0.009164664979834706 0.0 0.0
0.015095440952000359 -0.012969365508390892 0.0 0.010238928783537597 0.0 0.0
0.011978147772786506 -0.009977263315767218 0.0 0.010190212092676624 0.0 0.0
0.009521241998494403 -0.007651575733722526 0.0 0.009303794393522784 0.0 0.0
0.007618800156481589 -0.005882566782107087 0.0 0.008144014464273088 0.0 0.0
0.006127714976720942 -0.004525822377203294 0.0 0.007013106836839953 0.0 0.0
0.00491903991983122 -0.003466824633421108 0.0 0.005991594568516685 0.0 0.0
0.0039027156677346915 -0.0026090393709688607 0.0 0.00505625656096152 0.0 0.0
0.0030225331517331 -0.0018927751036076248 0.0 0.0042123253913380196 0.0 0.0
0.0022381682055083747 -0.0012801527067294906 0.0 0.00349553632382773 0.0 0.0
0.0015700076782015876 -0.0008033688277309875 0.0 0.0029845176305214227 0.0 0.0
0.0010604477787327523 -0.00048466698354378615 0.0 0.0027128318356482006 0.0 0.0
0.0007082520929518801 -0.00031083528168004325 0.0 0.002563557812023605 0.0 0.0
0.00047719978765387494 -0.00020313084576717644 0.0 0.002403268133041327 0.0 0.0
0.0003092694029709407 -0.00011298173339828193 0.0 0.0022219470491001182 0.0 0.0
0.00015770424929005149 -1.705427523277792e-05 0.0 0.0020894208977170017 0.0 0.0
1.5158093660145833e-05 6.60932048358617e-05 0.0 0.002065723208524454 0.0 0.0
-4.59672398469574e-05 2.2511062994159817e-05 0.0 0.002168899716613954 0.0 0.0
0.00026982233710782074 -0.00038774885724506404 0.0 0.0022173998700723823 0.0 0.0
0.0005806047011198121 -0.002427721134522421 0.0 0.0014550855935296964 0.0 0.0
0.00041761035579155313 -0.001888619040105211 0.0 -0.0014013432922977014 0.0 0.0
0.00015784282777239314 -0.00038852202554567005 0.0 -0.0020853582422300796 0.0 0.0
-0.00014340398575141342 5.50009291919732e-05 0.0 -0.0022208982390624736 0.0 0.0
-0.00015824163392649235 0.00013570313403233112 0.0 -0.002146801005990303 0.0 0.0
-9.857691897266515e-05 9.899475619577862e-05 0.0 -0.002157080999152348 0.0 0.0
-4.46133327874648e-05 4.9942936324309364e-05 0.0 -0.0022757374287930986 0.0 0.0
-1.4554043309433849e-05 1.4044127114401893e-05 0.0 -0.002461934695564403 0.0 0.0
-2.9157519633977942e-06 2.446021994712519e-06 0.0 -0.002646204266727942 0.0 0.0
1.8215611018781172e-07 -6.027873578879524e-07 0.0 -0.0027570642578942407 0.0 0.0
5.456569275109403e-07 -1.9209379490060563e-07 0.0 -0.0028693232123056145 0.0 0.0
7.918872974422664e-07 -1.8790981406784047e-06 0.0 -0.0031055265652188365 0.0 0.0
-1.5660578638918379e-06 1.5056367119192115e-06 0.0 -0.0036022824382080814 0.0 0.0
-9.178845926534698e-06 7.317667224331271e-06 0.0 -0.004259720647429482 0.0 0.0
-1.816031976635004e-05 1.4915443995639898e-05 0.0 -0.005068279528066896 0.0 0.0
-5.9346581108711115e-06 1.3342719916408451e-05 0.0 -0.006047509253322499 0.0 0.0
0.00011718454728465422 -7.308750358768213e-05 0.0 -0.007201191004847105 0.0 0.0
0.0005525263921373535 -0.0004158281532643841 0.0 -0.008495546490246501 0.0 0.0
0.0015922019517050005 -0.0012789111686133119 0.0 -0.009791585958998683 0.0 0.0
0.0034677659030348026 -0.002889357127374494 0.0 -0.010797606704043597 0.0 0.0
0.006434342185062748 -0.005272229231937369 0.0 -0.010934164500446392 0.0 0.0
0.008236394016080393 -0.010628391888760596 0.0 7.486632841446905e-15 0.0 0.0
0.006434342185062835 -0.005272229231936261 0.0 0.01093416450046241 0.0 0.0
0.0034677659030334347 -0.0028893571273747062 0.0 0.01079760670405477 0.0 0.0
0.0015922019517037266 -0.0012789111686031837 0.0 0.009791585959000633 0.0 0.0
0.0005525263921377582 -0.00041582815326472044 0.0 0.008495546490243418 0.0 0.0
0.00011718454728563174 -7.308750359264588e-05 0.0 0.007201191004842775 0.0 0.0
-5.934658109661359e-06 1.3342719917716866e-05 0.0 0.006047509253317993 0.0 0.0
-1.816031976441463e-05 1.4915443995295962e-05 0.0 0.005068279528063227 0.0 0.0
-9.178845924382611e-06 7.317667224989328e-06 0.0 0.0042597206474250995 0.0 0.0
-1.5660578619499234e-06 1.5056367099286028e-06 0.0 0.0036022824382029375 0.0 0.0
7.918872990022978e-07 -1.8790981432537373e-06 0.0 0.0031055265652126787 0.0 0.0
5.456569285632398e-07 -1.9209379720231263e-07 0.0 0.0028693232123038056 0.0 0.0
1.821561110119138e-07 -6.027873593475528e-07 0.0 0.002757064257893087 0.0 0.0
-2.9157519628917564e-06 2.4460219962806175e-06 0.0 0.002646204266726213 0.0 0.0
-1.4554043309121605e-05 1.404412711378441e-05 0.0 0.002461934695561429 0.0 0.0
-4.461333278720321e-05 4.994293632458039e-05 0.0 0.0022757374287897102 0.0 0.0
-9.857691897247615e-05 9.899475619275088e-05 0.0 0.002157080999150317 0.0 0.0
-0.00015824163392650774 0.00013570313403263318 0.0 0.002146801005988531 0.0 0.0
-0.000143403985751397 5.500092919246339e-05 0.0 0.0022208982390604128 0.0 0.0
0.0001578428277723049 -0.0003885220255457173 0.0 0.002085358242227996 0.0 0.0
0.00041761035579119556 -0.001888619040102908 0.0 0.001401343292296065 0.0 0.0
0.0003056137249032942 -0.0014719434528027114 0.0 -0.0013205714434072636 0.0 0.0
7.395845294466826e-05 -0.00036780256083917526 0.0 -0.001959513820229057 0.0 0.0
-0.00023391438774759867 8.533208855554967e-05 0.0 -0.0022226535113460985 0.0 0.0
-0.00032352652340685196 0.00020174659660938577 0.0 -0.002173537231096124 0.0 0.0
-0.0003483437433468064 0.00020980090679795688 0.0 -0.0021678407504553 0.0 0.0
-0.0003944735883635133 0.00021063326516847062 0.0 -0.0022590815378174946 0.0 0.0
-0.0005056182631630248 0.00023095503104943898 0.0 -0.002419103889635477 0.0 0.0
-0.0007144727319048883 0.0003155449620185688 0.0 -0.002568751207401129 0.0 0.0
-0.0010598717613297373 0.00048352885003510404 0.0 -0.0027142288739343125 0.0 0.0
-0.001568079439019843 0.000802001140194363 0.0 -0.0029830759052007984 0.0 0.0
-0.002236344670290047 0.0012778699360132169 0.0 -0.00349055717583488 0.0 0.0
-0.0030263922260041027 0.0018961794659497645 0.0 -0.004210925415825467 0.0 0.0
-0.003921084334464365 0.0026247460750762224 0.0 -0.0050500265775886965 0.0 0.0
-0.0049557788307062044 0.0035012037014814455 0.0 -0.005978735614378027 0.0 0.0
-0.0061390234550481385 0.004555645830831322 0.0 -0.007021866626010484 0.0 0.0
-0.007392039337561369 0.005736386481187948 0.0 -0.008257712720706111 0.0 0.0
-0.008490781356950822 0.0068256846788251595 0.0 -0.009764428277844019 0.0 0.0
-0.009055469335492656 0.007451646593249529 0.0 -0.011597114047651756 0.0 0.0
-0.008615829031578662 0.007190716622184699 0.0 -0.013623919929769971 0.0 0.0
-0.006034553927218 0.005302448035806268 0.0 -0.014448556902977635 0.0 0.0
-0.003985646690530732 -0.0006755240397850405 0.0 7.64709476297476e-15 0.0 0.0
-0.006034553927218345 0.005302448035807527 0.0 0.014448556902993123 0.0 0.0
-0.008615829031577055 0.00719071662218162 0.0 0.013623919929781767 0.0 0.0
-0.009055469335487747 0.007451646593253397 0.0 0.011597114047654209 0.0 0.0
-0.008490781356943903 0.00682568467881862 0.0 0.00976442827783776 0.0 0.0
-0.007392039337554543 0.005736386481180799 0.0 0.008257712720699556 0.0 0.0
-0.0061390234550418666 0.0045556458308276225 0.0 0.007021866626005655 0.0 0.0
-0.004955778830699325 0.003501203701476582 0.0 0.005978735614373447 0.0 0.0
-0.003921084334456794 0.002624746075068497 0.0 0.005050026577583343 0.0 0.0
-0.0030263922259969643 0.0018961794659437285 0.0 0.004210925415817945 0.0 0.0
-0.0022363446702838652 0.001277869936009545 0.0 0.003490557175826898 0.0 0.0
-0.0015680794390154833 0.0008020011401904444 0.0 0.0029830759051967205 0.0 0.0
-0.0010598717613270305 0.00048352885003339263 0.0 0.0027142288739329906 0.0 0.0
-0.000714472731903118 0.0003155449620190808 0.0 0.002568751207400303 0.0 0.0
-0.000505618263161963 0.0002309550310490801 0.0 0.0024191038896329603 0.0 0.0
-0.00039447358836267163 0.0002106332651682039 0.0 0.0022590815378143525 0.0 0.0
-0.00034834374334620326 0.00020980090679734357 0.0 0.002167840750453303 0.0 0.0
-0.00032352652340658395 0.0002017465966089207 0.0 0.002173537231093853 0.0 0.0
-0.00023391438774751232 8.533208855581778e-05 0.0 0.002222653511345195 0.0 0.0
7.395845294443085e-05 -0.00036780256083923955 0.0 0.001959513820226547 0.0 0.0
0.00030561372490271456 -0.0014719434528009062 0.0 0.0013205714434058196 0.0 0.0
0.0002167636177415148 -0.0011202149711849968 0.0 -0.0011932170168611183 0.0 0.0
4.009986060809629e-06 -0.0003304042821833038 0.0 -0.0018229130182470582 0.0 0.0
-0.0003180489338842613 0.00011503694870621586 0.0 -0.0021722996517754612 0.0 0.0
-0.00048071374335101216 0.00026366037557799615 0.0 -0.002145847767068977 0.0 0.0
-0.0005900934665301678 0.0003148627441559833 0.0 -0.002119454465512934 0.0 0.0
-0.0007370647366189522 0.00036489251134119927 0.0 -0.002173527548553839 0.0 0.0
-0.0009865975000274533 0.00044159583109307547 0.0 -0.0022721839661075864 0.0 0.0
-0.0014310338873695122 0.0006455436743040242 0.0 -0.00240746977933567 0.0 0.0
-0.002173927328742131 0.0010962533666149788 0.0 -0.002750427089644164 0.0 0.0
-0.003251376953045647 0.0018976336333945201 0.0 -0.003410008977225318 0.0 0.0
-0.004605425301196544 0.003021599161334456 0.0 -0.004385206001767937 0.0 0.0
-0.006159866037404683 0.00438084613242782 0.0 -0.005458316198315037 0.0 0.0
-0.007917201934997925 0.005951985829443813 0.0 -0.006556680567228757 0.0 0.0
-0.009947877664832459 0.007822589698222315 0.0 -0.007671429037012283 0.0 0.0
-0.012309039710823104 0.010051663100430607 0.0 -0.008881883848691834 0.0 0.0
-0.014943355941691796 0.012607654169202424 0.0 -0.010367166045638627 0.0 0.0
-0.017589263810639164 0.01523912974620286 0.0 -0.012342952552776494 0.0 0.0
-0.019749869584552094 0.017442848059044665 0.0 -0.014913556915752392 0.0 0.0
-0.02048251658633299 0.018345880179178157 0.0 -0.017549368808918706 0.0 0.0
-0.018141253592288607 0.016204177475842328 0.0 -0.018073727727134836 0.0 0.0
-0.015949338781582216 0.008491595450805203 0.0 1.0655538951187538e-14 0.0 0.0
-0.018141253592287993 0.016204177475842397 0.0 0.018073727727158463 0.0 0.0
-0.020482516586328707 0.018345880179172866 0.0 0.017549368808939744 0.0 0.0
-0.01974986958454285 0.01744284805903606 0.0 0.014913556915760472 0.0 0.0
-0.01758926381062694 0.01523912974619136 0.0 0.012342952552774313 0.0 0.0
-0.014943355941679472 0.012607654169191462 0.0 0.010367166045631138 0.0 0.0
-0.012309039710811463 0.01005166310042247 0.0 0.008881883848686076 0.0 0.0
-0.009947877664820378 0.007822589698209995 0.0 0.007671429037005677 0.0 0.0
-0.007917201934985171 0.0059519858294304 0.0 0.006556680567222351 0.0 0.0
-0.006159866037392356 0.00438084613241608 0.0 0.005458316198305508 0.0 0.0
-0.0046054253011856075 0.003021599161325149 0.0 0.004385206001757251 0.0 0.0
-0.0032513769530371894 0.001897633633389243 0.0 0.00341000897721861 0.0 0.0
-0.002173927328736586 0.0010962533666126933 0.0 0.0027504270896416107 0.0 0.0
-0.0014310338873663147 0.0006455436743031416 0.0 0.0024074697793345654 0.0 0.0
-0.000986597500025645 0.00044159583109244457 0.0 0.002272183966105542 0.0 0.0
-0.0007370647366178011 0.00036489251134146186 0.0 0.0021735275485516205 0.0 0.0
-0.0005900934665293621 0.0003148627441569462 0.0 0.0021194544655108783 0.0 0.0
-0.0004807137433504822 0.00026366037557771707 0.0 0.0021458477670664375 0.0 0.0
-0.00031804893388398124 0.00011503694870651168 0.0 0.002172299651774388 0.0 0.0
4.009986060845235e-06 -0.00033040428218342183 0.0 0.0018229130182445194 0.0 0.0
0.00021676361774136617 -0.0011202149711836802 0.0 0.001193217016859975 0.0 0.0
0.00013915800328042212 -0.0008197357926032502 0.0 -0.0010461171309715028 0.0 0.0
-5.936656410170764e-05 -0.00027905767708444736 0.0 -0.001663742655588249 0.0 0.0
-0.0003976841117189882 0.00014530995823678272 0.0 -0.0020704580647291915 0.0 0.0
-0.0006299127483300003 0.0003214252910525525 0.0 -0.0020632800729589156 0.0 0.0
-0.0008226204072799916 0.00041301129348232077 0.0 -0.0020139019891953157 0.0 0.0
-0.001066187095011951 0.0005081419067364683 0.0 -0.002011907784473178 0.0 0.0
-0.0014687688931130957 0.0006532087460089764 0.0 -0.002049678436732227 0.0 0.0
-0.002206822477147143 0.001064974880650626 0.0 -0.0022915381077088636 0.0 0.0
-0.00340890681865905 0.0019404644896128392 0.0 -0.0029329996692878182 0.0 0.0
-0.005065728341667542 0.003332875945195615 0.0 -0.003983881974035788 0.0 0.0
-0.007074227985705983 0.005123235835933524 0.0 -0.005239204835898385 0.0 0.0
-0.009361565593918535 0.0072098601408238615 0.0 -0.006484649522577746 0.0 0.0
-0.011968164749919847 0.009618879534591 0.0 -0.007696381560637327 0.0 0.0
-0.01500433615915002 0.012472548539302806 0.0 -0.008929685301865832 0.0 0.0
-0.01856766446304757 0.015878668662334925 0.0 -0.010320236172702467 0.0 0.0
-0.022623641531671713 0.019836002769471818 0.0 -0.012105772523374591 0.0 0.0
-0.026872740759852208 0.024068690020004085 0.0 -0.01466126578899998 0.0 0.0
-0.03057364678751963 0.02787517285152625 0.0 -0.018117983311968264 0.0 0.0
-0.03231704254481257 0.029845867116289088 0.0 -0.021532417074819687 0.0 0.0
-0.029688384639446327 0.027671236636415998 0.0 -0.02264968944220171 0.0 0.0
-0.026902700410990757 0.017415455663377266 0.0 1.1647800779446271e-14 0.0 0.0
-0.02968838463944433 0.027671236636413132 0.0 0.02264968944222912 0.0 0.0
-0.032317042544805545 0.029845867116279068 0.0 0.02153241707484533 0.0 0.0
-0.03057364678750609 0.027875172851510685 0.0 0.018117983311980477 0.0 0.0
-0.026872740759835177 0.024068690019986367 0.0 0.014661265788999463 0.0 0.0
-0.022623641531654314 0.01983600276945706 0.0 0.01210577252336679 0.0 0.0
-0.018567664463030886 0.01587866866231936 0.0 0.010320236172695549 0.0 0.0
-0.015004336159133307 0.012472548539286121 0.0 0.008929685301859301 0.0 0.0
-0.011968164749902307 0.009618879534576505 0.0 0.007696381560629205 0.0 0.0
-0.009361565593901531 0.007209860140806577 0.0 0.006484649522565257 0.0 0.0
-0.007074227985690632 0.005123235835920556 0.0 0.005239204835885839 0.0 0.0
-0.005065728341655208 0.0033328759451842576 0.0 0.00398388197402709 0.0 0.0
-0.003408906818650548 0.0019404644896079217 0.0 0.00293299966928266 0.0 0.0
-0.002206822477141952 0.0010649748806472494 0.0 0.002291538107706477 0.0 0.0
-0.0014687688931103058 0.0006532087460079069 0.0 0.0020496784367302684 0.0 0.0
-0.0010661870950104558 0.0005081419067371913 0.0 0.002011907784471614 0.0 0.0
-0.0008226204072790411 0.00041301129348279326 0.0 0.0020139019891930628 0.0 0.0
-0.00062991274832922 0.00032142529105210496 0.0 0.00206328007295691 0.0 0.0
-0.0003976841117185526 0.0001453099582368159 0.0 0.002070458064727413 0.0 0.0
-5.9366564101732326e-05 -0.0002790576770846703 0.0 0.0016637426555864646 0.0 0.0
0.00013915800328029415 -0.0008197357926022725 0.0 0.0010461171309704917 0.0 0.0
6.962148805806787e-05 -0.000566417171600802 0.0 -0.0008920608858415616 0.0 0.0
-0.00011879027709028024 -0.0002178612032663195 0.0 -0.0014802007871404625 0.0 0.0
-0.0004743582508654748 0.00017733791478922507 0.0 -0.0019181438944701002 0.0 0.0
-0.0007719479914897313 0.0003751777965376695 0.0 -0.0019262641674372312 0.0 0.0
-0.0010428125710038381 0.0005028707830853765 0.0 -0.001850386332431701 0.0 0.0
-0.0013868581567398107 0.00063730246461858 0.0 -0.0017752692895378931 0.0 0.0
-0.0019841263981951007 0.0009058015799478087 0.0 -0.0018183607431586264 0.0 0.0
-0.003066916009597898 0.001624568201492847 0.0 -0.0022191964492663074 0.0 0.0
-0.004746959621926051 0.0029948898131929753 0.0 -0.003109858381533429 0.0 0.0
-0.006962713937942774 0.004961315915058278 0.0 -0.004360115764063435 0.0 0.0
-0.009592687053756824 0.007372150377179641 0.0 -0.005673982028280608 0.0 0.0
-0.0126025010393646 0.010169884430661729 0.0 -0.0069538504379108475 0.0 0.0
-0.01606761208193348 0.013417224351861323 0.0 -0.008207708343754179 0.0 0.0
-0.020124556207383425 0.01726310182141481 0.0 -0.009515764069460982 0.0 0.0
-0.024904409128254243 0.021854917231493323 0.0 -0.010996703268953061 0.0 0.0
-0.030406646510463126 0.027232949892743677 0.0 -0.012941591205642063 0.0 0.0
-0.036269211615527756 0.03308759284264505 0.0 -0.015788610496580913 0.0 0.0
-0.04146523949971731 0.0384509230227827 0.0 -0.019727638298140233 0.0 0.0
-0.04404280019684379 0.04139075971452152 0.0 -0.023912916808341123 0.0 0.0
-0.040817141994827076 0.03880821201036387 0.0 -0.02588621499184736 0.0 0.0
-0.03726629090067635 0.02604271528927581 0.0 1.0972993347291293e-14 0.0 0.0
-0.04081714199482326 0.03880821201036017 0.0 0.025886214991875666 0.0 0.0
-0.04404280019683382 0.04139075971451376 0.0 0.023912916808370602 0.0 0.0
-0.0414652394997003 0.03845092302276321 0.0 0.01972763829815551 0.0 0.0
-0.03626921161550703 0.033087592842624226 0.0 0.015788610496581416 0.0 0.0
-0.030406646510441372 0.027232949892723693 0.0 0.012941591205636085 0.0 0.0
-0.024904409128232278 0.021854917231473595 0.0 0.010996703268944804 0.0 0.0
-0.020124556207361418 0.017263101821393914 0.0 0.009515764069453153 0.0 0.0
-0.016067612081911018 0.013417224351841183 0.0 0.008207708343745393 0.0 0.0
-0.012602501039342524 0.010169884430640935 0.0 0.006953850437899138 0.0 0.0
-0.009592687053736672 0.007372150377161291 0.0 0.005673982028267077 0.0 0.0
-0.006962713937926775 0.004961315915041884 0.0 0.004360115764053239 0.0 0.0
-0.004746959621914449 0.0029948898131821767 0.0 0.003109858381526715 0.0 0.0
-0.0030669160095903323 0.001624568201486332 0.0 0.002219196449262571 0.0 0.0
-0.001984126398191142 0.0009058015799457305 0.0 0.001818360743157053 0.0 0.0
-0.001386858156737792 0.0006373024646186573 0.0 0.0017752692895369412 0.0 0.0
-0.0010428125710027262 0.0005028707830857407 0.0 0.001850386332430154 0.0 0.0
-0.0007719479914889996 0.0003751777965375632 0.0 0.00192626416743629 0.0 0.0
-0.0004743582508648927 0.00017733791478909505 0.0 0.0019181438944676707 0.0 0.0
-0.00011879027709017312 -0.00021786120326650944 0.0 0.0014802007871387351 0.0 0.0
6.962148805780365e-05 -0.0005664171716000902 0.0 0.0008920608858413371 0.0 0.0
8.019141725600535e-06 -0.0003584946601087551 0.0 -0.0007343444660210678 0.0 0.0
-0.0001743870956453023 -0.0001513935245384724 0.0 -0.0012738267034471437 0.0 0.0
-0.0005486519675844104 0.00021144745081238663 0.0 -0.0017167956313382962 0.0 0.0
-0.0009067104822806965 0.0004251073673400575 0.0 -0.00173553194235084 0.0 0.0
-0.0012505094136969598 0.0005829836751522727 0.0 -0.0016286153247965886 0.0 0.0
-0.0017148441015827189 0.0007691932848349643 0.0 -0.0015003283902982466 0.0 0.0
-0.002549856898492044 0.001229701514656594 0.0 -0.00158345106329168 0.0 0.0
-0.004009427606763355 0.0023262586808945854 0.0 -0.0021260164751160373 0.0 0.0
-0.0061610066303846335 0.00419588128864962 0.0 -0.003163701353509049 0.0 0.0
-0.008896281123663561 0.00668462555510442 0.0 -0.004399623156862964 0.0 0.0
-0.012130522686332619 0.009690547837002203 0.0 -0.005657414539006853 0.0 0.0
-0.015873908412014186 0.013201570813190264 0.0 -0.006894718504648115 0.0 0.0
-0.020212704452906162 0.017298592444836586 0.0 -0.0081277384098374 0.0 0.0
-0.02530013926300857 0.022149826274085238 0.0 -0.009441423270431194 0.0 0.0
-0.0312994675173061 0.027929182705882405 0.0 -0.01094402776256075 0.0 0.0
-0.03823018559741037 0.03470519338189218 0.0 -0.012836997517762901 0.0 0.0
-0.04566381145201305 0.042141897465580856 0.0 -0.01556775049696266 0.0 0.0
-0.052306102609878294 0.04902588143965059 0.0 -0.01957049090837282 0.0 0.0
-0.05562988324430303 0.052858459015967835 0.0 -0.024372479497698676 0.0 0.0
-0.05176407436526294 0.049793023137852534 0.0 -0.027998946546618247 0.0 0.0
-0.04746731193070612 0.034643052234178295 0.0 1.2633123713801098e-14 0.0 0.0
-0.051764074365256776 0.049793023137846316 0.0 0.02799894654664766 0.0 0.0
-0.05562988324429009 0.05285845901595837 0.0 0.02437247949772865 0.0 0.0
-0.05230610260985805 0.04902588143963122 0.0 0.019570490908388513 0.0 0.0
-0.0456638114519882 0.04214189746555577 0.0 0.015567750496963954 0.0 0.0
-0.0382301855973842 0.03470519338186734 0.0 0.012836997517759269 0.0 0.0
-0.031299467517279335 0.027929182705856904 0.0 0.010944027762555462 0.0 0.0
-0.025300139262981594 0.022149826274058496 0.0 0.009441423270424168 0.0 0.0
-0.020212704452878996 0.017298592444811845 0.0 0.00812773840982979 0.0 0.0
-0.0158739084119878 0.013201570813164977 0.0 0.00689471850463556 0.0 0.0
-0.012130522686308582 0.00969054783698112 0.0 0.0056574145389929565 0.0 0.0
-0.008896281123644021 0.0066846255550870185 0.0 0.004399623156851846 0.0 0.0
-0.006161006630370194 0.0041958812886355576 0.0 0.0031637013535025143 0.0 0.0
-0.0040094276067532825 0.0023262586808867696 0.0 0.00212601647511177 0.0 0.0
-0.0025498568984864355 0.0012297015146542157 0.0 0.0015834510632899874 0.0 0.0
-0.0017148441015802753 0.0007691932848332377 0.0 0.0015003283902974688 0.0 0.0
-0.001250509413695743 0.000582983675151983 0.0 0.001628615324795091 0.0 0.0
-0.0009067104822800048 0.0004251073673402674 0.0 0.0017355319423492024 0.0 0.0
-0.0005486519675839307 0.0002114474508125092 0.0 0.0017167956313366595 0.0 0.0
-0.00017438709564490524 -0.00015139352453845582 0.0 0.001273826703445981 0.0 0.0
8.01914172591977e-06 -0.0003584946601085643 0.0 0.0007343444660196865 0.0 0.0
-4.42793917459808e-05 -0.00019576882309611286 0.0 -0.0005746578150239377 0.0 0.0
-0.0002246135395775766 -8.404342785324911e-05 0.0 -0.0010466830101206746 0.0 0.0
-0.0006200706345989295 0.0002466448893379212 0.0 -0.0014679085566283087 0.0 0.0
-0.0010345940361438243 0.000471898480959589 0.0 -0.0014904127934385629 0.0 0.0
-0.001454411230121194 0.0006527045586777316 0.0 -0.0013545006052452801 0.0 0.0
-0.002061737716399539 0.0009257988759780668 0.0 -0.0012020419079793502 0.0 0.0
-0.0031735545765322376 0.001642350808277611 0.0 -0.0013365702926912365 0.0 0.0
-0.005023873019785107 0.0031602183893731377 0.0 -0.0019959630483779222 0.0 0.0
-0.007608318389636487 0.0054706902428808424 0.0 -0.002977839803574112 0.0 0.0
-0.010837916727688813 0.008450346806452373 0.0 -0.00407718318406506 0.0 0.0
-0.014682769094295774 0.012050022000697639 0.0 -0.005222171877430796 0.0 0.0
-0.019166213382544175 0.016278092793250227 0.0 -0.006346264981186598 0.0 0.0
-0.024392978157051992 0.021239450520482407 0.0 -0.007483418967494075 0.0 0.0
-0.03052913285263502 0.027113637169834365 0.0 -0.008729920204397943 0.0 0.0
-0.03772933672286127 0.03407262140142289 0.0 -0.010165252165087575 0.0 0.0
-0.04601861817492966 0.042179505566200655 0.0 -0.01185246475232125 0.0 0.0
-0.054946385774715764 0.051095212651995896 0.0 -0.014086353589459527 0.0 0.0
-0.06298521108470863 0.059444067958743935 0.0 -0.01762128202555998 0.0 0.0
-0.0670990704782877 0.06422365644751135 0.0 -0.022921796786597917 0.0 0.0
-0.06276068422992133 0.06086902404983073 0.0 -0.029204187146041984 0.0 0.0
-0.05782712002071655 0.04352245776858438 0.0 1.3803194698347454e-14 0.0 0.0
-0.06276068422991302 0.06086902404982157 0.0 0.02920418714606885 0.0 0.0
-0.06709907047827159 0.0642236564474941 0.0 0.022921796786626012 0.0 0.0
-0.06298521108468483 0.05944406795872087 0.0 0.0176212820255757 0.0 0.0
-0.05494638577468717 0.0510952126519675 0.0 0.014086353589461677 0.0 0.0
-0.04601861817489905 0.042179505566171345 0.0 0.011852464752318884 0.0 0.0
-0.03772933672282969 0.03407262140139335 0.0 0.010165252165083228 0.0 0.0
-0.03052913285260337 0.027113637169806856 0.0 0.008729920204390977 0.0 0.0
-0.024392978157020066 0.021239450520450134 0.0 0.007483418967487136 0.0 0.0
-0.019166213382513134 0.01627809279322123 0.0 0.0063462649811764985 0.0 0.0
-0.01468276909426787 0.012050022000674104 0.0 0.005222171877419318 0.0 0.0
-0.010837916727665738 0.008450346806431317 0.0 0.0040771831840539 0.0 0.0
-0.007608318389618741 0.005470690242865835 0.0 0.0029778398035685736 0.0 0.0
-0.005023873019772488 0.0031602183893617926 0.0 0.001995963048373973 0.0 0.0
-0.0031735545765248147 0.0016423508082728103 0.0 0.0013365702926880598 0.0 0.0
-0.0020617377163964284 0.0009257988759751043 0.0 0.0012020419079782159 0.0 0.0
-0.0014544112301197673 0.0006527045586771169 0.0 0.0013545006052446908 0.0 0.0
-0.0010345940361428962 0.00047189848095961946 0.0 0.0014904127934369433 0.0 0.0
-0.0006200706345982799 0.0002466448893381094 0.0 0.0014679085566280759 0.0 0.0
-0.00022461353957725885 -8.404342785320415e-05 0.0 0.00104668301012019 0.0 0.0
-4.4279391746010774e-05 -0.00019576882309604282 0.0 0.0005746578150219943 0.0 0.0
-8.452984670145574e-05 -7.901242491987971e-05 0.0 -0.00041666444710589047 0.0 0.0
-0.000266343224229142 -2.03793756586622e-05 0.0 -0.0008013691527237757 0.0 0.0
-0.0006866360562933915 0.00028087037232292977 0.0 -0.0011706472445242634 0.0 0.0
-0.0011575696829963958 0.000515618847471007 0.0 -0.0011900107408363632 0.0 0.0
-0.0016612532691719847 0.0007198902719726256 0.0 -0.0010325405065052561 0.0 0.0
-0.002442836144743603 0.0011201106272675306 0.0 -0.0008713652483839888 0.0 0.0
-0.0038634097699441865 0.0021635012922957986 0.0 -0.0010956016414084828 0.0 0.0
-0.0060745570468912395 0.004068936896773416 0.0 -0.0017204881117903123 0.0 0.0
-0.009056212070730449 0.006773143457339465 0.0 -0.002515555228976833 0.0 0.0
-0.012781797161429225 0.010239497062443648 0.0 -0.0034319903931776946 0.0 0.0
-0.017237740296495243 0.014431174501546087 0.0 -0.00438724927898601 0.0 0.0
-0.022470088311432834 0.01938339981767758 0.0 -0.005327432357019719 0.0 0.0
-0.028601588657133775 0.025222950964448727 0.0 -0.0062870096094156 0.0 0.0
-0.035794596412897964 0.032136682386484115 0.0 -0.007374829568252233 0.0 0.0
-0.0441793327056661 0.040268311839114564 0.0 -0.008660454114709714 0.0 0.0
-0.053729360771707195 0.04961560032827534 0.0 -0.010071139743380293 0.0 0.0
-0.06398206511377715 0.05981221279407975 0.0 -0.011556115051905512 0.0 0.0
-0.07336924600610957 0.06952480201876376 0.0 -0.013943463709420583 0.0 0.0
-0.07849055802972622 0.07547990720422817 0.0 -0.01944700350755939 0.0 0.0
-0.07403959774037697 0.07228771385781806 0.0 -0.02927794809307869 0.0 0.0
-0.06864986322104792 0.05301336437900517 0.0 1.2084083733654438e-14 0.0 0.0
-0.0740395977403676 0.0722877138578077 0.0 0.029277948093102087 0.0 0.0
-0.07849055802970699 0.07547990720421065 0.0 0.019447003507585464 0.0 0.0
-0.07336924600608223 0.06952480201873547 0.0 0.013943463709435982 0.0 0.0
-0.06398206511374445 0.05981221279404729 0.0 0.011556115051907135 0.0 0.0
-0.05372936077167187 0.04961560032824096 0.0 0.010071139743379103 0.0 0.0
-0.044179332705629806 0.04026831183908079 0.0 0.008660454114706439 0.0 0.0
-0.03579459641286145 0.03213668238645367 0.0 0.007374829568245773 0.0 0.0
-0.028601588657096916 0.025222950964411062 0.0 0.006287009609409198 0.0 0.0
-0.022470088311397424 0.019383399817645797 0.0 0.0053274323570134145 0.0 0.0
-0.0172377402964636 0.014431174501515615 0.0 0.004387249278976251 0.0 0.0
-0.012781797161402885 0.01023949706241697 0.0 0.003431990393167354 0.0 0.0
-0.009056212070710024 0.006773143457321166 0.0 0.002515555228970409 0.0 0.0
-0.006074557046876531 0.004068936896758452 0.0 0.0017204881117868316 0.0 0.0
-0.003863409769935054 0.0021635012922876554 0.0 0.0010956016414052326 0.0 0.0
-0.0024428361447392335 0.001120110627264146 0.0 0.0008713652483816033 0.0 0.0
-0.001661253269170199 0.0007198902719721801 0.0 0.001032540506505503 0.0 0.0
-0.0011575696829953827 0.0005156188474717475 0.0 0.0011900107408356617 0.0 0.0
-0.0006866360562928835 0.00028087037232255404 0.0 0.0011706472445232269 0.0 0.0
-0.00026634322422902364 -2.037937565881672e-05 0.0 0.0008013691527231339 0.0 0.0
-8.452984670130724e-05 -7.901242491968987e-05 0.0 0.0004166644471047767 0.0 0.0
-0.00010816187088937568 -9.227359441772882e-06 0.0 -0.0002696178018866206 0.0 0.0
-0.0002941004049852215 3.379568772765207e-05 0.0 -0.0005413748133750066 0.0 0.0
-0.0007452449779412934 0.0003106986674367221 0.0 -0.0008195947793110789 0.0 0.0
-0.0012783808783166384 0.0005575624030754172 0.0 -0.0008308313925543173 0.0 0.0
-0.001881623565404355 0.0007959167626082782 0.0 -0.0006685074319966215 0.0 0.0
-0.0028749560700598903 0.001385320214342019 0.0 -0.0005402945428154489 0.0 0.0
-0.004596259773579343 0.0027705319398661377 0.0 -0.0007958493198401902 0.0 0.0
-0.0071317376607901994 0.005000716554021197 0.0 -0.0012371544988816511 0.0 0.0
-0.010501088077457676 0.00809095255598049 0.0 -0.0018123314029936527 0.0 0.0
-0.0147162158316704 0.012035495501689107 0.0 -0.002474908905214704 0.0 0.0
-0.01978606883647275 0.016819282685061783 0.0 -0.003166459962615804 0.0 0.0
-0.02577527223998494 0.022503553326555393 0.0 -0.00384454850127792 0.0 0.0
-0.03282125124110504 0.029235221618745637 0.0 -0.004548786922934489 0.0 0.0
-0.041087393537265544 0.03720009713982088 0.0 -0.005393331271181438 0.0 0.0
-0.05064128707251915 0.046494405914899874 0.0 -0.006409246885437009 0.0 0.0
-0.061335992764855976 0.0570012254247496 0.0 -0.007462169108478512 0.0 0.0
-0.07266488336182027 0.06823888822162102 0.0 -0.008272980424465686 0.0 0.0
-0.08328674713958832 0.07902459822893435 0.0 -0.009172369903522664 0.0 0.0
-0.08976749529143181 0.08647724545358926 0.0 -0.013420416931986253 0.0 0.0
-0.08584653570685685 0.08434601745570385 0.0 -0.027345583648370017 0.0 0.0
-0.08033609820239303 0.06361686543212428 0.0 7.911206412192229e-15 0.0 0.0
-0.08584653570684565 0.08434601745569287 0.0 0.027345583648389724 0.0 0.0
-0.08976749529140918 0.0864772454535658 0.0 0.013420416932006136 0.0 0.0
-0.08328674713955686 0.07902459822890473 0.0 0.009172369903533708 0.0 0.0
-0.07266488336178331 0.06823888822158299 0.0 0.008272980424468284 0.0 0.0
-0.061335992764816404 0.05700122542471518 0.0 0.0074621691084797 0.0 0.0
-0.0506412870724785 0.04649440591485867 0.0 0.006409246885432951 0.0 0.0
-0.04108739353722435 0.037200097139783256 0.0 0.005393331271176298 0.0 0.0
-0.032821251241063124 0.029235221618707563 0.0 0.00454878692292988 0.0 0.0
-0.025775272239945076 0.022503553326518103 0.0 0.003844548501274283 0.0 0.0
-0.019786068836437687 0.01681928268502694 0.0 0.0031664599626075626 0.0 0.0
-0.014716215831641039 0.01203549550166049 0.0 0.002474908905207268 0.0 0.0
-0.010501088077434141 0.008090952555959359 0.0 0.001812331402989393 0.0 0.0
-0.007131737660772967 0.005000716554005436 0.0 0.0012371544988792308 0.0 0.0
-0.004596259773568621 0.0027705319398569086 0.0 0.0007958493198379212 0.0 0.0
-0.0028749560700545487 0.0013853202143386861 0.0 0.0005402945428140088 0.0 0.0
-0.0018816235654022257 0.0007959167626069838 0.0 0.0006685074319969463 0.0 0.0
-0.001278380878315513 0.0005575624030758377 0.0 0.0008308313925530687 0.0 0.0
-0.0007452449779405651 0.0003106986674366787 0.0 0.0008195947793102366 0.0 0.0
-0.00029410040498506316 3.37956877277455e-05 0.0 0.0005413748133751985 0.0 0.0
-0.00010816187088939884 -9.227359441799912e-06 0.0 0.0002696178018861222 0.0 0.0
-0.0001072718306642607 1.3510933237953539e-05 0.0 -0.00015429804498406197 0.0 0.0
-0.00029865166955593547 6.921563502822364e-05 0.0 -0.000271010329331238 0.0 0.0
-0.0007909979128682679 0.0003313025209866855 0.0 -0.00040099632751937445 0.0 0.0
-0.0014032898820209112 0.0006011411354659896 0.0 -0.0004047356982624323 0.0 0.0
-0.0021342425786188453 0.0008999625137707473 0.0 -0.00027647385363565024 0.0 0.0
-0.0033536671436107156 0.0017290480722534042 0.0 -0.0002081722576660087 0.0 0.0
-0.0053505742918584075 0.00342019433307688 0.0 -0.00036416324163187816 0.0 0.0
-0.008184847998596747 0.005944618554040353 0.0 -0.0005866330572947412 0.0 0.0
-0.011931075383685368 0.009409200121497922 0.0 -0.000874156057732907 0.0 0.0
-0.016630596232484012 0.013822907013449934 0.0 -0.0012140470040118792 0.0 0.0
-0.022315956445062173 0.019200619478043385 0.0 -0.0015613824207732266 0.0 0.0
-0.029072124416763774 0.025629061185697737 0.0 -0.0019003598228558428 0.0 0.0
-0.037047603773769415 0.03326665075426962 0.0 -0.002293790209549756 0.0 0.0
-0.04637906246482541 0.042276691715926476 0.0 -0.00277814183910843 0.0 0.0
-0.05707692997138815 0.05271150772758132 0.0 -0.0033586964376366 0.0 0.0
-0.06886608670896227 0.06433391116174933 0.0 -0.003968726402631694 0.0 0.0
-0.08104340174694134 0.07645549749425773 0.0 -0.004358527086649862 0.0 0.0
-0.09243874461422145 0.0878614141847821 0.0 -0.004355051124473924 0.0 0.0
-0.10061542014402988 0.09646344838069751 0.0 -0.005827915661067642 0.0 0.0
-0.09851778408920375 0.09717680047598407 0.0 -0.019153645387962815 0.0 0.0
-0.09357003411337905 0.07682171260038254 0.0 4.403595543767125e-15 0.0 0.0
-0.09851778408919058 0.09717680047597105 0.0 0.019153645387973064 0.0 0.0
-0.10061542014400407 0.09646344838066745 0.0 0.005827915661078531 0.0 0.0
-0.09243874461418553 0.08786141418474881 0.0 0.004355051124480393 0.0 0.0
-0.08104340174689945 0.07645549749421728 0.0 0.004358527086650388 0.0 0.0
-0.06886608670891811 0.06433391116170953 0.0 0.0039687264026332485 0.0 0.0
-0.05707692997134267 0.05271150772753484 0.0 0.0033586964376336806 0.0 0.0
-0.04637906246477912 0.042276691715881144 0.0 0.0027781418391060507 0.0 0.0
-0.0370476037737227 0.03326665075422695 0.0 0.0022937902095474284 0.0 0.0
-0.029072124416719622 0.025629061185653654 0.0 0.0019003598228529797 0.0 0.0
-0.0223159564450236 0.01920061947800627 0.0 0.0015613824207694987 0.0 0.0
-0.016630596232451667 0.013822907013420576 0.0 0.001214047004007768 0.0 0.0
-0.011931075383659517 0.009409200121473945 0.0 0.000874156057730759 0.0 0.0
-0.008184847998577723 0.005944618554023701 0.0 0.0005866330572929372 0.0 0.0
-0.005350574291845754 0.0034201943330649416 0.0 0.00036416324163064564 0.0 0.0
-0.003353667143603899 0.0017290480722492838 0.0 0.0002081722576651972 0.0 0.0
-0.002134242578616131 0.0008999625137699906 0.0 0.0002764738536357328 0.0 0.0
-0.0014032898820196952 0.0006011411354649563 0.0 0.00040473569826066774 0.0 0.0
-0.0007909979128675365 0.0003313025209873517 0.0 0.0004009963275195751 0.0 0.0
-0.0002986516695557045 6.92156350283305e-05 0.0 0.00027101032933043025 0.0 0.0
-0.00010727183066427904 1.3510933237838473e-05 0.0 0.00015429804498430977 0.0 0.0
-6.72831309642892e-05 1.3214886969148179e-05 0.0 -9.779069027874017e-05 0.0 0.0
-0.0002641236804853907 8.076081885092861e-05 0.0 -0.00011251338900230182 0.0 0.0
-0.0008170210207565545 0.00033864488413500407 0.0 -0.0001371809496179377 0.0 0.0
-0.001544563230018091 0.0006237807516683314 0.0 -0.00012999030372577198 0.0 0.0
-0.00243244373128269 0.0009627080496985824 0.0 1.5595768906100007e-05 0.0 0.0
-0.00386855889501968 0.001916493658970059 0.0 0.00015478751912081673 0.0 0.0
-0.006110412294610674 0.0037511147356568877 0.0 0.0001843597515103336 0.0 0.0
-0.009225823521927533 0.006418615222537707 0.0 0.00019507512097212095 0.0 0.0
-0.013335830026171752 0.010066260136597808 0.0 0.00019691678293816796 0.0 0.0
-0.018512977943734778 0.01471282150310668 0.0 0.00016934021860079808 0.0 0.0
-0.024817561842687838 0.02038739265256394 0.0 0.00016089724574092816 0.0 0.0
-0.03235677333628744 0.02719272432439784 0.0 0.00016837501571982964 0.0 0.0
-0.04125982336156717 0.03528627534539667 0.0 0.00011989244005202512 0.0 0.0
-0.051637556182072906 0.044813346778219694 0.0 5.0602434247262566e-05 0.0 0.0
-0.063457137144937 0.055812979280743635 0.0 -0.00011825582382219996 0.0 0.0
-0.0763183000651906 0.06798642621575182 0.0 -0.00039472053020998994 0.0 0.0
-0.0892927483207026 0.08052783279837272 0.0 -0.0006852215693559848 0.0 0.0
-0.10093903612557015 0.09213024606903321 0.0 -0.00078835710274942 0.0 0.0
-0.10973327649619419 0.10105069354692545 0.0 -0.0011100249181771318 0.0 0.0
-0.11200457044374361 0.10377615690199263 0.0 -0.013317394874383222 0.0 0.0
-0.11076477523931215 0.08436781421642074 0.0 1.5265566588595902e-15 0.0 0.0
-0.11200457044372912 0.10377615690197514 0.0 0.013317394874386266 0.0 0.0
-0.1097332764961642 0.1010506935468944 0.0 0.0011100249181809612 0.0 0.0
-0.10093903612552875 0.09213024606899498 0.0 0.0007883571027518122 0.0 0.0
-0.08929274832065551 0.08052783279833116 0.0 0.0006852215693564454 0.0 0.0
-0.07631830006514134 0.067986426215707 0.0 0.0003947205302115425 0.0 0.0
-0.06345713714488653 0.055812979280695715 0.0 0.00011825582382106285 0.0 0.0
-0.05163755618202166 0.04481334677816967 0.0 -5.0602434248407484e-05 0.0 0.0
-0.041259823361515985 0.03528627534534947 0.0 -0.00011989244005156195 0.0 0.0
-0.03235677333623875 0.027192724324350964 0.0 -0.0001683750157218328 0.0 0.0
-0.024817561842645386 0.020387392652526825 0.0 -0.00016089724574098454 0.0 0.0
-0.01851297794369978 0.014712821503075315 0.0 -0.00016934021860157784 0.0 0.0
-0.013335830026143487 0.010066260136571982 0.0 -0.0001969167829392643 0.0 0.0
-0.009225823521906271 0.006418615222519947 0.0 -0.00019507512097339586 0.0 0.0
-0.006110412294596351 0.0037511147356426014 0.0 -0.00018435975150937148 0.0 0.0
-0.003868558895011632 0.0019164936589650661 0.0 -0.00015478751912192186 0.0 0.0
-0.00243244373127918 0.0009627080496993413 0.0 -1.559576890591217e-05 0.0 0.0
-0.0015445632300163323 0.0006237807516664006 0.0 0.00012999030372523736 0.0 0.0
-0.0008170210207554855 0.0003386448841353007 0.0 0.0001371809496186271 0.0 0.0
-0.0002641236804851238 8.076081885068842e-05 0.0 0.00011251338900051165 0.0 0.0
-6.72831309641792e-05 1.3214886969134484e-05 0.0 9.779069027986418e-05 0.0 0.0
SCALARS Statev float 8
LOOKUP_TABLE default
0.0 0.01448840078427846 0.011473808757530478 -0.013878369914140078 0.0024045611566096085 -0.0005441292259265855 0.0 0.0
0.0 0.004482316651950885 0.0032057121980876638 -0.0018221879678524656 -0.0013835242302351954 -0.005598378947101196 0.0 0.0
0.0 -1.2724285095160027e-05 2.5302340524221304e-05 -1.701581630934103e-05 -8.286524214880456e-06 -0.00012181040281968565 0.0 0.0
0.0 8.868275887771021e-05 5.7522008542386936e-06 -3.85060579454372e-06 -1.901595059695058e-06 5.470776632891114e-06 0.0 0.0
0.0 0.0005472122351863284 0.00024806171241939165 -0.0001784507295455845 -6.96109828738076e-05 6.633289309758436e-05 0.0 0.0
0.0 0.0012708713805096245 0.001326064763652246 -0.0010196537420030965 -0.00030641102164914974 0.00013410907703495474 0.0 0.0
0.0 0.0034442810897981875 0.0031928886495702913 -0.0026233805650644703 -0.0005695080845058184 0.00018147800332373723 0.0 0.0
0.0 0.006576996360665707 0.006026467082934047 -0.005211634705262903 -0.0008148323776711467 0.00020615050517242646 0.0 0.0
0.0 0.010904143941392493 0.00986628224851541 -0.008847651106910624 -0.001018631141604791 0.00021828060114826173 0.0 0.0
0.0 0.016506262540003307 0.014749356024677602 -0.013534574060466306 -0.0012147819642112886 0.00020665096627585106 0.0 0.0
0.0 0.023433852249326433 0.020731728689290883 -0.019300565667700748 -0.001431163021590126 0.0002135005669636874 0.0 0.0
0.0 0.0314886086153759 0.027931548594244498 -0.026254878963414864 -0.001676669630829621 0.00023336203874741162 0.0 0.0
0.0 0.04118425965659667 0.036482785752727745 -0.034538186083527024 -0.0019445996692006868 0.0001904469041136927 0.0 0.0
0.0 0.052603402937210775 0.046511123669596054 -0.044283550105579966 -0.00222757356401609 0.0001368607092507773 0.0 0.0
0.0 0.06578904619860372 0.05804990724996977 -0.055539397053408615 -0.0025105101965611112 1.107384290151888e-05 0.0 0.0
0.0 0.08052382959036558 0.0708727368374713 -0.06809488643179841 -0.002777850405672868 -0.0002088825902522857 0.0 0.0
0.0 0.0960703869445586 0.08437222281523057 -0.0813557515820337 -0.0030164712331969775 -0.0004926862537024592 0.0 0.0
0.0 0.11124949768433132 0.0975373028535222 -0.0943242657899063 -0.003213037063615808 -0.0007315390558163379 0.0 0.0
0.0 0.12454907395993729 0.10906412561775791 -0.10570466402864576 -0.00335946158911225 -0.0007625361694595964 0.0 0.0
0.0 0.1340649020651251 0.11748834653789524 -0.11404976593554075 -0.003438580602354585 -0.0007587101919745817 0.0 0.0
0.0 0.1377759145996611 0.12076810054626032 -0.11733688075665881 -0.0034312197896015713 1.8604909279851256e-15 0.0 0.0
0.0 0.13406490206511165 0.11748834653788329 -0.11404976593552943 -0.0034385806023537247 0.0007587101919792182 0.0 0.0
0.0 0.12454907395990658 0.10906412561773124 -0.10570466402861975 -0.0033594615891114838 0.000762536169464363 0.0 0.0
0.0 0.11124949768428448 0.09753730285348142 -0.09432426578986615 -0.0032130370636152187 0.0007315390558199448 0.0 0.0
0.0 0.09607038694451014 0.08437222281518819 -0.08135575158199307 -0.0030164712331951227 0.0004926862537030889 0.0 0.0
0.0 0.0805238295903121 0.07087273683742445 -0.06809488643175235 -0.00277785040567207 0.00020888259024984994 0.0 0.0
0.0 0.06578904619855051 0.05804990724992306 -0.055539397053363415 -0.0025105101965595933 -1.1073842901784293e-05 0.0 0.0
0.0 0.05260340293715744 0.046511123669549286 -0.04428355010553458 -0.0022275735640146896 -0.00013686070925188827 0.0 0.0
0.0 0.0411842596565423 0.03648278575268026 -0.03453818608348071 -0.0019445996691995556 -0.00019044690411463227 0.0 0.0
0.0 0.031488608615327235 0.027931548594201702 -0.026254878963373307 -0.0016766696308284114 -0.00023336203874916152 0.0 0.0
0.0 0.023433852249284574 0.020731728689253978 -0.01930056566766513 -0.001431163021588844 -0.0002135005669647174 0.0 0.0
0.0 0.01650626253996939 0.01474935602464777 -0.013534574060437846 -0.0012147819642099468 -0.0002066509662766822 0.0 0.0
0.0 0.010904143941367852 0.009866282248493166 -0.008847651106889724 -0.0010186311416034279 -0.00021828060114885103 0.0 0.0
0.0 0.006576996360645314 0.006026467082915286 -0.005211634705245288 -0.0008148323776699955 -0.00020615050517223978 0.0 0.0
0.0 0.003444281089786895 0.003192888649559117 -0.0026233805650545624 -0.0005695080845045529 -0.0001814780033238391 0.0 0.0
0.0 0.001270871380503834 0.001326064763645965 -0.0010196537419980352 -0.00030641102164793006 -0.00013410907703440098 0.0 0.0
0.0 0.000547212235183169 0.0002480617124174759 -0.0001784507295442014 -6.96109828732739e-05 -6.633289309707325e-05 0.0 0.0
0.0 8.868275887702359e-05 5.75220085440593e-06 -3.850605794672118e-06 -1.9015950597333136e-06 -5.4707766328723585e-06 0.0 0.0
0.0 -1.272428509601038e-05 2.5302340523632308e-05 -1.7015816308906788e-05 -8.286524214724999e-06 0.00012181040281891297 0.0 0.0
0.0 0.004482316651942781 0.0032057121980834944 -0.00182218796784977 -0.001383524230233719 0.005598378947092555 0.0 0.0
0.0 0.014488400784260105 0.011473808757517892 -0.013878369914122512 0.002404561156604599 0.0005441292258974424 0.0 0.0
0.0 0.011620773193676404 0.00855164626955338 -0.011286994055234622 0.002735347785681235 -0.00011001082419959335 0.0 0.0
0.0 0.002542722334640034 0.0018121137015691834 -0.0009870234632214136 -0.000825090238347768 -0.004148652266200446 0.0 0.0
0.0 -1.6892416336138078e-05 -3.0016004907388317e-05 2.530907170748765e-05 4.7069331999007065e-06 -2.038167744182527e-05 0.0 0.0
0.0 9.684692962909706e-06 1.3017102044978452e-06 -9.501755594549399e-07 -3.515346450429556e-07 2.7944461464671223e-06 0.0 0.0
0.0 0.00023359316076958098 0.00013270355679631816 -9.603148042928727e-05 -3.667207636703084e-05 2.7331778987956507e-05 0.0 0.0
0.0 0.001145517055170453 0.0009279602365269559 -0.0007194779037424512 -0.00020848233278450643 4.7832903989607934e-05 0.0 0.0
0.0 0.0028457064862910672 0.0026417952587900087 -0.002192319079838252 -0.0004494761789517546 -9.428924548132852e-05 0.0 0.0
0.0 0.005751711072714421 0.005232777493976861 -0.0045773714340795295 -0.0006554060598973347 -0.00030705444100696523 0.0 0.0
0.0 0.009783414514352037 0.008767158490680008 -0.007963680016464608 -0.0008034784742153997 -0.0005933514137840583 0.0 0.0
0.0 0.014926760805190769 0.01325459249893446 -0.012333818547256424 -0.0009207739516780328 -0.0009306945696058456 0.0 0.0
0.0 0.021243774631040182 0.018726227711537754 -0.0176949737963581 -0.001031253915179664 -0.001280102534933336 0.0 0.0
0.0 0.028940758242704666 0.025274864750418218 -0.02413167884449773 -0.001143185905920467 -0.0016278652401058049 0.0 0.0
0.0 0.0376161517960343 0.033061961128209034 -0.03180550340359264 -0.0012564577246163896 -0.002036861520443586 0.0 0.0
0.0 0.04817050133531141 0.04222464037299571 -0.04086015220101973 -0.0013644881719759628 -0.0025278304375074907 0.0 0.0
0.0 0.06035708910801307 0.05280772202832988 -0.051351538581220296 -0.001456183447109585 -0.003094774448069443 0.0 0.0
0.0 0.07398420622074577 0.06461448469932354 -0.06309238482980938 -0.0015220998695141905 -0.0037141278500156675 0.0 0.0
0.0 0.08844019489763352 0.07709050236351722 -0.0755336105624654 -0.0015568918010517335 -0.004241590648916659 0.0 0.0
0.0 0.10265132291847502 0.08931157951114324 -0.08774885537235567 -0.001562724138787583 -0.004401411409213452 0.0 0.0
0.0 0.11514209343550226 0.10005094947140558 -0.09850741871993446 -0.0015435307514710887 -0.003933592813491055 0.0 0.0
0.0 0.1241910490953644 0.10778334750858698 -0.10630686875380795 -0.0014764787547790169 -0.0029600005943610976 0.0 0.0
0.0 0.12785711559669138 0.11074727098653844 -0.10937346599059955 -0.0013738049959389836 4.110860957196039e-15 0.0 0.0
0.0 0.12419104909535049 0.10778334750857457 -0.10630686875379557 -0.0014764787547790323 0.00296000059437233 0.0 0.0
0.0 0.11514209343547391 0.10005094947138113 -0.09850741871990994 -0.0015435307514711186 0.003933592813503603 0.0 0.0
0.0 0.10265132291843555 0.08931157951110903 -0.08774885537232169 -0.0015627241387873754 0.004401411409221189 0.0 0.0
0.0 0.08844019489758828 0.07709050236347811 -0.07553361056242697 -0.0015568918010511572 0.004241590648918388 0.0 0.0
0.0 0.07398420622069764 0.06461448469928166 -0.06309238482976784 -0.0015220998695137046 0.0037141278500127098 0.0 0.0
0.0 0.06035708910796341 0.052807722028286576 -0.051351538581177664 -0.0014561834471089774 0.0030947744480687408 0.0 0.0
0.0 0.04817050133526199 0.04222464037295275 -0.040860152200977336 -0.0013644881719753932 0.0025278304375062595 0.0 0.0
0.0 0.03761615179598471 0.03306196112816603 -0.03180550340355014 -0.001256457724615908 0.0020368615204412457 0.0 0.0
0.0 0.02894075824265946 0.025274864750378566 -0.024131678844458566 -0.0011431859059199698 0.0016278652401025655 0.0 0.0
0.0 0.021243774631001994 0.018726227711504357 -0.01769497379632559 -0.0010312539151787878 0.001280102534929931 0.0 0.0
0.0 0.014926760805159756 0.013254592498906769 -0.012333818547229388 -0.0009207739516773679 0.0009306945696029127 0.0 0.0
0.0 0.009783414514328967 0.008767158490658898 -0.007963680016444336 -0.000803478474214559 0.0005933514137818957 0.0 0.0
0.0 0.005751711072696213 0.005232777493960062 -0.004577371434063643 -0.0006554060598964168 0.0003070544410052501 0.0 0.0
0.0 0.002845706486280404 0.0026417952587797344 -0.0021923190798291414 -0.000449476178950591 9.42892454804029e-05 0.0 0.0
0.0 0.0011455170551650231 0.0009279602365223107 -0.0007194779037386815 -0.00020848233278362852 -4.783290398964543e-05 0.0 0.0
0.0 0.00023359316076764346 0.00013270355679535165 -9.603148042859174e-05 -3.667207636676018e-05 -2.7331778987628956e-05 0.0 0.0
0.0 9.684692962388459e-06 1.3017102046753855e-06 -9.501755595900053e-07 -3.5153464508522235e-07 -2.7944461464779063e-06 0.0 0.0
0.0 -1.6892416336055184e-05 -3.00160049071654e-05 2.5309071707301075e-05 4.706933199864212e-06 2.038167744172116e-05 0.0 0.0
0.0 0.0025427223346321153 0.001812113701564757 -0.0009870234632184712 -0.0008250902383462852 0.004148652266190795 0.0 0.0
0.0 0.011620773193657329 0.008551646269538849 -0.011286994055215785 0.002735347785676928 0.00011001082417846464 0.0 0.0
0.0 0.008422657315322088 0.006058572715552534 -0.008238607390789323 0.002180034675236788 -0.002106165606828292 0.0 0.0
0.0 0.0017602089690846958 0.0010981997133679504 -0.0005358595750322758 -0.0005623401383356744 -0.0031663658940696377 0.0 0.0
0.0 1.2634912319597936e-08 -1.3678156687548327e-09 1.0394932843731892e-09 3.2832238438154863e-10 4.875689838480855e-10 0.0 0.0
0.0 2.451605197411328e-06 4.440316292150662e-07 -3.5146903794698406e-07 -9.256259126820814e-08 -3.756507234116235e-07 0.0 0.0
0.0 6.621494732742297e-05 3.3649611733912836e-05 -2.293292128366507e-05 -1.0716690450248e-05 1.2192090935726496e-05 0.0 0.0
0.0 0.0007594245069820874 0.0005476747138771439 -0.00041433209091666103 -0.0001333426229604824 -2.882325074644251e-06 0.0 0.0
0.0 0.002083456194933793 0.0019928974199776733 -0.001619389046193232 -0.000373508373784443 -0.000281075811857417 0.0 0.0
0.0 0.004690297064697047 0.004273660906865326 -0.0036835087279222817 -0.0005901521789430424 -0.0007116615152911919 0.0 0.0
0.0 0.00825892065112763 0.007431489926514707 -0.006680089792026672 -0.0007514001344880309 -0.0012783323226261494 0.0 0.0
0.0 0.01290245793586646 0.01143858562180303 -0.010567354027892625 -0.0008712315939104088 -0.0019359966662631698 0.0 0.0
0.0 0.018546418474291882 0.016301385613741583 -0.015323537654111773 -0.0009778479596298081 -0.0026307497127061024 0.0 0.0
0.0 0.025158747127481403 0.0220928937072776 -0.021009205521341685 -0.0010836881859359036 -0.0033270365834822376 0.0 0.0
0.0 0.033255272572808664 0.028955376955091018 -0.027765343658717453 -0.0011900332963735902 -0.004060960701641109 0.0 0.0
0.0 0.042340885427917585 0.037068786383530054 -0.03577811713317834 -0.0012906692503517104 -0.004932553467857599 0.0 0.0
0.0 0.05321806634966297 0.04648796758221532 -0.04511160626685623 -0.0013763613153591134 -0.0059598662094307525 0.0 0.0
0.0 0.0654228130250171 0.05705400876727458 -0.05561564689510543 -0.0014383618721690876 -0.007050551063859337 0.0 0.0
0.0 0.07843296971761769 0.06829960532587015 -0.06682589645677584 -0.001473708869094301 -0.0079496714472391 0.0 0.0
0.0 0.09129725715017699 0.0794124298066786 -0.07793095603089555 -0.0014814737757830997 -0.008211343490679082 0.0 0.0
0.0 0.10270045815674164 0.08923539528403907 -0.0877795871655602 -0.0014558081184788776 -0.007424162408972738 0.0 0.0
0.0 0.11096689385063772 0.09632508536113452 -0.09491718998255727 -0.0014078953785771702 -0.005468391592031502 0.0 0.0
0.0 0.11442122632044496 0.09911078090860546 -0.09783212360646851 -0.0012786573021368948 8.506650245321268e-15 0.0 0.0
0.0 0.11096689385062693 0.09632508536112433 -0.09491718998254718 -0.001407895378577154 0.005468391592051954 0.0 0.0
0.0 0.10270045815671512 0.08923539528401592 -0.08777958716553715 -0.0014558081184788377 0.007424162408994998 0.0 0.0
0.0 0.09129725715014371 0.07941242980664964 -0.0779309560308667 -0.0014814737757829028 0.008211343490692007 0.0 0.0
0.0 0.07843296971757746 0.06829960532583546 -0.06682589645674157 -0.0014737088690939101 0.007949671447241652 0.0 0.0
0.0 0.06542281302497542 0.05705400876723819 -0.05561564689506968 -0.001438361872168505 0.007050551063856143 0.0 0.0
0.0 0.05321806634961966 0.04648796758217757 -0.04511160626681921 -0.001376361315358372 0.005959866209429451 0.0 0.0
0.0 0.04234088542787295 0.03706878638349126 -0.03577811713314003 -0.0012906692503512264 0.004932553467854783 0.0 0.0
0.0 0.03325527257276612 0.028955376955053912 -0.02776534365868105 -0.0011900332963728586 0.004060960701636776 0.0 0.0
0.0 0.025158747127439998 0.022092893707241813 -0.02100920552130623 -0.0010836881859355744 0.0033270365834762164 0.0 0.0
0.0 0.01854641847425727 0.01630138561371075 -0.015323537654081686 -0.000977847959629049 0.002630749712699884 0.0 0.0
0.0 0.01290245793583894 0.011438585621778328 -0.010567354027868476 -0.0008712315939098536 0.0019359966662577987 0.0 0.0
0.0 0.008258920651104333 0.00743148992649379 -0.006680089792006509 -0.0007514001344872789 0.0012783323226219162 0.0 0.0
0.0 0.004690297064680769 0.004273660906850637 -0.003683508727908646 -0.0005901521789419906 0.0007116615152879393 0.0 0.0
0.0 0.002083456194924498 0.0019928974199686206 -0.0016193890461854146 -0.00037350837378320593 0.0002810758118556904 0.0 0.0
0.0 0.0007594245069780527 0.000547674713873994 -0.00041433209091425437 -0.00013334262295973932 2.8823250744615614e-06 0.0 0.0
0.0 6.62149473263398e-05 3.364961173368416e-05 -2.2932921283511962e-05 -1.0716690450172199e-05 -1.2192090935569699e-05 0.0 0.0
0.0 2.451605197125372e-06 4.4403162923395084e-07 -3.5146903796018184e-07 -9.256259127374721e-08 3.756507234052536e-07 0.0 0.0
0.0 1.2634912310065045e-08 -1.367815667713223e-09 1.0394932835817643e-09 3.283223841315191e-10 -4.875689834762404e-10 0.0 0.0
0.0 0.0017602089690784137 0.001098199713364179 -0.0005358595750298118 -0.0005623401383343659 0.003166365894059497 0.0 0.0
0.0 0.00842265731530335 0.006058572715538759 -0.0082386073907713 0.002180034675232544 0.002106165606813971 0.0 0.0
0.0 0.0062219647151665804 0.004344258739941718 -0.006038507697347154 0.0016942489574054327 -0.0023356837567180353 0.0 0.0
0.0 0.0011874369728274799 0.0006940335907132554 -0.00032228724892398016 -0.0003717463417892753 -0.002255064230219497 0.0 0.0
0.0 0.0 0.0 0.0 0.0 0.0 0.0 0.0
0.0 -2.6905055097971904e-07 5.32945452455928e-08 -3.933436092832519e-08 -1.3960184317271152e-08 -5.190670707581142e-08 0.0 0.0
0.0 9.061082105671624e-06 -1.428169358442035e-05 1.1642956977024678e-05 2.638736607395916e-06 1.182218750676076e-05 0.0 0.0
0.0 0.0003576882227875133 0.0002777473026429328 -0.0002053493118150248 -7.239799082790744e-05 -2.9597576735216416e-05 0.0 0.0
0.0 0.0015881555989271999 0.0013528364425687864 -0.0010727279630133551 -0.0002801084795554298 -0.00030787363498507034 0.0 0.0
0.0 0.0036605689867994463 0.0033293468383838805 -0.002818557910620928 -0.0005107889277629551 -0.0009427552140150321 0.0 0.0
0.0 0.006805763625999328 0.006096563944520461 -0.005408904707486229 -0.0006876592370342334 -0.0017312427059475962 0.0 0.0
0.0 0.010887808539471184 0.009618154110982477 -0.008803874301263994 -0.0008142798097184785 -0.0026434252861858225 0.0 0.0
0.0 0.01578508502650926 0.013875410812930443 -0.012956710536054517 -0.0009187002768759211 -0.0036061145722402245 0.0 0.0
0.0 0.021683882909207322 0.01891443927990516 -0.017895943398643293 -0.0010184958812618488 -0.004570251900892473 0.0 0.0
0.0 0.0284357980668 0.024874313683707433 -0.023755676350633977 -0.0011186373330734556 -0.00557275179717929 0.0 0.0
0.0 0.036813129518993196 0.031918328840281326 -0.030706915266829806 -0.0012114135734515186 -0.0067154840813946634 0.0 0.0
0.0 0.04622799107658903 0.04014928786708143 -0.038858717615592994 -0.0012905702514884251 -0.008059306581482087 0.0 0.0
0.0 0.056809927236180786 0.0494569602055294 -0.04810593696537817 -0.001351023240151229 -0.009505722182807175 0.0 0.0
0.0 0.06846071404290154 0.05945735481160976 -0.05806994698217278 -0.0013874078294369623 -0.01071115054965776 0.0 0.0
0.0 0.08004222561372178 0.06945822755669591 -0.06806243937166731 -0.0013957881850285975 -0.011121824385057757 0.0 0.0
0.0 0.0903914656463839 0.07841496859334121 -0.07704039070153404 -0.001374577891807025 -0.010172075628357126 0.0 0.0
0.0 0.09800267248549624 0.08502314938654387 -0.08368713962466724 -0.001336009761876713 -0.007335762038767591 0.0 0.0
0.0 0.10141067008887762 0.08775044045908838 -0.08659680464928159 -0.0011536358098067836 1.1751450507135885e-14 0.0 0.0
0.0 0.09800267248548682 0.0850231493865345 -0.0836871396246581 -0.0013360097618763903 0.00733576203879556 0.0 0.0
0.0 0.09039146564636215 0.07841496859332155 -0.07704039070151468 -0.0013745778918068234 0.010172075628385381 0.0 0.0
0.0 0.08004222561369168 0.06945822755666949 -0.06806243937164093 -0.0013957881850285184 0.011121824385073758 0.0 0.0
0.0 0.06846071404286753 0.05945735481158046 -0.058069946982144065 -0.0013874078294364245 0.010711150549660927 0.0 0.0
0.0 0.056809927236143615 0.04945696020549717 -0.048105936965346166 -0.00135102324015099 0.009505722182803196 0.0 0.0
0.0 0.04622799107655287 0.040149287867049695 -0.03885871761556226 -0.0012905702514874548 0.008059306581479285 0.0 0.0
0.0 0.03681312951895563 0.03191832884024846 -0.0307069152667974 -0.001211413573451062 0.006715484081391227 0.0 0.0
0.0 0.028435798066761518 0.024874313683674265 -0.023755676350601346 -0.001118637333072921 0.005572751797173403 0.0 0.0
0.0 0.021683882909173155 0.018914439279874996 -0.017895943398613584 -0.0010184958812614205 0.004570251900884865 0.0 0.0
0.0 0.01578508502647787 0.01387541081290284 -0.012956710536027389 -0.0009187002768754438 0.003606114572232071 0.0 0.0
0.0 0.010887808539446375 0.00961815411096046 -0.008803874301242796 -0.0008142798097176602 0.0026434252861785783 0.0 0.0
0.0 0.006805763625979268 0.006096563944502717 -0.005408904707469181 -0.0006876592370335321 0.0017312427059421344 0.0 0.0
0.0 0.0036605689867863006 0.003329346838371286 -0.002818557910609484 -0.0005107889277618013 0.0009427552140109909 0.0 0.0
0.0 0.001588155598919091 0.0013528364425621545 -0.0010727279630078153 -0.00028010847955433916 0.0003078736349829883 0.0 0.0
0.0 0.00035768822278454986 0.0002777473026410686 -0.00020534931181363008 -7.239799082743848e-05 2.9597576735064228e-05 0.0 0.0
0.0 9.061082105148459e-06 -1.428169358406581e-05 1.1642956976747705e-05 2.638736607318079e-06 -1.1822187506462823e-05 0.0 0.0
0.0 -2.690505508978675e-07 5.329454518749094e-08 -3.9334360882770414e-08 -1.3960184304708044e-08 5.190670703193102e-08 0.0 0.0
0.0 0.0 0.0 0.0 0.0 0.0 0.0 0.0
0.0 0.0011874369728215907 0.0006940335907098887 -0.00032228724892173553 -0.0003717463417881548 0.0022550642302103 0.0 0.0
0.0 0.006221964715151196 0.004344258739929724 -0.006038507697331251 0.0016942489574015317 0.0023356837567077193 0.0 0.0
0.0 0.004396539647393386 0.0030623630708078034 -0.00432809099706685 0.001265727926259047 -0.0020237878393381675 0.0 0.0
0.0 0.0009495287915422343 0.00040622107157099816 -0.00017117348247501523 -0.00023504758909598272 -0.0014772904201715699 0.0 0.0
0.0 0.0 0.0 0.0 0.0 0.0 0.0 0.0
0.0 -2.1175026786527247e-07 1.9226471027512064e-08 -1.544969006812908e-08 -3.77678095938152e-09 -2.443498433731356e-08 0.0 0.0
0.0 -9.93765956000135e-06 -2.9585224135354112e-06 2.310684534951839e-06 6.4783787858357e-07 1.7354489090208108e-06 0.0 0.0
0.0 0.0001402778450083853 7.033118039067293e-05 -4.910782422103469e-05 -2.1223356169638064e-05 1.0841212577489879e-05 0.0 0.0
0.0 0.0010977835757093894 0.0008057333864365041 -0.0006233447848912689 -0.00018238860154523492 -0.00026790804552162415 0.0 0.0
0.0 0.0026882817165212224 0.002414872075432492 -0.0019970362445756048 -0.0004178358308568857 -0.0009606289293504906 0.0 0.0
0.0 0.0053851196397161245 0.004778563370327953 -0.004169973241771595 -0.000608590128556356 -0.0019446459044470262 0.0 0.0
0.0 0.008876308820126955 0.007807737957565345 -0.007061588980854116 -0.0007461489767112306 -0.0030455416987387064 0.0 0.0
0.0 0.013126899405840862 0.011459184171817549 -0.010607483278339894 -0.0008517008934776586 -0.004203533708707871 0.0 0.0
0.0 0.01815467785188779 0.015756548286652506 -0.014809699251684212 -0.0009468490349682907 -0.005357293050545514 0.0 0.0
0.0 0.024140217726571045 0.020813741456187373 -0.019774044351837217 -0.001039697104350126 -0.006545091750893307 0.0 0.0
0.0 0.030888748892058684 0.02680572035897382 -0.025678976993364643 -0.0011267433656091696 -0.007877841010550782 0.0 0.0
0.0 0.039155294389510834 0.03383228537542964 -0.032632189504511036 -0.0012000958709185887 -0.009420189932863381 0.0 0.0
0.0 0.04855158649659443 0.0418468086297237 -0.040590345997187555 -0.0012564626325361305 -0.011068507892527413 0.0 0.0
0.0 0.05851819293811185 0.05057485826158368 -0.04927985840724975 -0.0012949998543339176 -0.012486824523770746 0.0 0.0
0.0 0.06876388064723317 0.05944624080525568 -0.05813766449282138 -0.0013085763124342765 -0.013091708306675706 0.0 0.0
0.0 0.07813039555174145 0.06757272796007728 -0.06627885759357659 -0.0012938703665007361 -0.01211681627485401 0.0 0.0
0.0 0.0852718926122955 0.07380258671027565 -0.07254479586028666 -0.00125779084998891 -0.008736982037908228 0.0 0.0
0.0 0.08873986653384641 0.07654513066300218 -0.07553596982414028 -0.001009160838861873 1.3326145742453832e-14 0.0 0.0
0.0 0.08527189261228584 0.07380258671026586 -0.0725447958602768 -0.0012577908499889644 0.008736982037940233 0.0 0.0
0.0 0.07813039555172477 0.06757272796006158 -0.06627885759356114 -0.0012938703665004497 0.0121168162748843 0.0 0.0
0.0 0.06876388064720818 0.059446240805233266 -0.058137664492799154 -0.0013085763124341284 0.013091708306694143 0.0 0.0
0.0 0.05851819293808115 0.0505748582615572 -0.04927985840722368 -0.0012949998543335197 0.012486824523774708 0.0 0.0
0.0 0.04855158649656138 0.041846808629695 -0.040590345997159084 -0.001256462632535874 0.011068507892523165 0.0 0.0
0.0 0.03915529438948023 0.0338322853754028 -0.032632189504484974 -0.001200095870917817 0.009420189932859754 0.0 0.0
0.0 0.03088874889202736 0.026805720358946374 -0.025678976993337765 -0.0011267433656086 0.007877841010546888 0.0 0.0
0.0 0.024140217726538238 0.02081374145615868 -0.0197740443518089 -0.0010396971043497693 0.006545091750886397 0.0 0.0
0.0 0.01815467785185821 0.015756548286626523 -0.014809699251658811 -0.000946849034967721 0.005357293050536302 0.0 0.0
0.0 0.013126899405814792 0.0114591841717949 -0.010607483278318001 -0.0008517008934769061 0.0042035337086974815 0.0 0.0
0.0 0.008876308820105247 0.007807737957546367 -0.00706158898083588 -0.0007461489767104841 0.0030455416987301216 0.0 0.0
0.0 0.005385119639700375 0.004778563370313809 -0.0041699732417583395 -0.0006085901285554661 0.0019446459044410256 0.0 0.0
0.0 0.00268828171650971 0.0024148720754220646 -0.0019970362445663617 -0.00041783583085570284 0.00096062892934576 0.0 0.0
0.0 0.0010977835757028133 0.0008057333864315444 -0.0006233447848873169 -0.00018238860154422807 0.0002679080455197603 0.0 0.0
0.0 0.00014027784500636378 7.033118038975244e-05 -4.910782422038075e-05 -2.1223356169371302e-05 -1.0841212577679768e-05 0.0 0.0
0.0 -9.937659560638357e-06 -2.958522413472301e-06 2.3106845349021864e-06 6.47837878570047e-07 -1.7354489089196278e-06 0.0 0.0
0.0 -2.117502677458955e-07 1.9226471016883667e-08 -1.5449690059872236e-08 -3.776780957015529e-09 2.4434984322558555e-08 0.0 0.0
0.0 0.0 0.0 0.0 0.0 0.0 0.0 0.0
0.0 0.0009495287915365967 0.00040622107156840096 -0.0001711734824732402 -0.0002350475890951596 0.0014772904201641869 0.0 0.0
0.0 0.004396539647381061 0.003062363070798174 -0.004328090997053818 0.001265727926255638 0.002023787839330949 0.0 0.0
0.0 0.0030859514066862315 0.0020608386876886345 -0.002951475403982944 0.0008906367162943116 -0.0015707468010752654 0.0 0.0
0.0 0.0004845220488177644 0.00021568606151936063 -7.531035733938129e-05 -0.00014037570417997972 -0.0008946710589577276 0.0 0.0
0.0 0.0 0.0 0.0 0.0 0.0 0.0 0.0
0.0 9.284367499638105e-09 -7.860409871244372e-10 5.99985333389106e-10 1.8605565373520125e-10 1.1788236078775784e-09 0.0 0.0
0.0 -2.1907965473572714e-06 -1.2584483462008408e-06 1.0142644232657214e-06 2.441839229351334e-07 1.5493896038253095e-06 0.0 0.0
0.0 1.2823666262812912e-06 1.5088753832895542e-06 5.559853691838444e-07 -2.064860752473515e-06 1.9312775827025908e-05 0.0 0.0
0.0 0.0004799882010997182 0.000417539281575326 -0.000316310210918089 -0.00010122907065723705 -0.00021163870525097033 0.0 0.0
0.0 0.0020517444582098046 0.0015473315634053765 -0.001246438286996513 -0.0003008932764088637 -0.0008082860827640563 0.0 0.0
0.0 0.003886826626728313 0.0034979408831568963 -0.0029867096743831155 -0.000511231208773778 -0.0018891899054946444 0.0 0.0
0.0 0.006944873402420058 0.006020633886612268 -0.005359413992049322 -0.000661219894562944 -0.0031297023004700406 0.0 0.0
0.0 0.010491327841281832 0.009067967609716192 -0.008295299040164666 -0.0007726685695515289 -0.004409304862010798 0.0 0.0
0.0 0.014655967811574327 0.012632366950008274 -0.0117665944535402 -0.0008657724964680723 -0.005682555834211719 0.0 0.0
0.0 0.019541078340122257 0.01680415281390574 -0.015850867100867715 -0.0009532857130380279 -0.006972937988595001 0.0 0.0
0.0 0.02539877938904705 0.021737231329475953 -0.020704316910716242 -0.0010329144187597218 -0.008392565435952045 0.0 0.0
0.0 0.0321534705703363 0.027561466152605733 -0.026459930050501512 -0.0011015361021042295 -0.010023763395018962 0.0 0.0
0.0 0.039848119932906184 0.03427423153338675 -0.03311828019536713 -0.0011559513380195931 -0.011764055339336955 0.0 0.0
0.0 0.04875200711876834 0.041677811881761034 -0.040483630934248144 -0.0011941809475128895 -0.013283359619964151 0.0 0.0
0.0 0.0575668466077359 0.049373278012163097 -0.04815819966802733 -0.0012150783441357762 -0.014045433649028083 0.0 0.0
0.0 0.06576970305540059 0.05667385823063261 -0.055463451155268816 -0.0012104070753637527 -0.013220187806542827 0.0 0.0
0.0 0.07256825544426823 0.06258532030581926 -0.06141084566861605 -0.001174474637203174 -0.009706429496849639 0.0 0.0
0.0 0.07619800065388946 0.06540056432627342 -0.06455436113896698 -0.000846203187306446 1.3549057709116852e-14 0.0 0.0
0.0 0.07256825544426149 0.0625853203058114 -0.06141084566860841 -0.0011744746372030453 0.009706429496881525 0.0 0.0
0.0 0.06576970305538543 0.05667385823061786 -0.055463451155254126 -0.0012104070753637159 0.013220187806573282 0.0 0.0
0.0 0.057566846607716105 0.049373278012145055 -0.04815819966800948 -0.001215078344135561 0.01404543364904737 0.0 0.0
0.0 0.04875200711874093 0.041677811881737525 -0.04048363093422503 -0.00119418094751248 0.013283359619966534 0.0 0.0
0.0 0.0398481199328777 0.03427423153336212 -0.03311828019534279 -0.00115595133801933 0.011764055339331794 0.0 0.0
0.0 0.03215347057030975 0.027561466152582502 -0.026459930050478815 -0.0011015361021036916 0.010023763395014002 0.0 0.0
0.0 0.0253987793890205 0.02173723132945239 -0.02070431691069327 -0.0010329144187591279 0.008392565435947318 0.0 0.0
0.0 0.019541078340097138 0.016804152813884126 -0.015850867100846537 -0.0009532857130375768 0.006972937988588818 0.0 0.0
0.0 0.014655967811549219 0.01263236694998667 -0.011766594453519044 -0.0008657724964676168 0.0056825558342021324 0.0 0.0
0.0 0.010491327841258544 0.009067967609696524 -0.008295299040145743 -0.0007726685695507797 0.004409304861998999 0.0 0.0
0.0 0.006944873402402161 0.006020633886596593 -0.0053594139920343595 -0.0006612198945622315 0.003129702300460328 0.0 0.0
0.0 0.0038868266267148292 0.003497940883144512 -0.0029867096743717704 -0.0005112312087727425 0.001889189905487622 0.0 0.0
0.0 0.002051744458200082 0.0015473315633977613 -0.0012464382869900334 -0.00030089327640772765 0.0008082860827598583 0.0 0.0
0.0 0.0004799882010957165 0.00041753928157243385 -0.0003163102109158676 -0.00010122907065656617 0.00021163870524957556 0.0 0.0
0.0 1.2823666253593043e-06 1.5088753831290171e-06 5.559853692951524e-07 -2.064860752424166e-06 -1.931277582687945e-05 0.0 0.0
0.0 -2.1907965477709784e-06 -1.2584483461773364e-06 1.0142644232489197e-06 2.441839229284028e-07 -1.549389603817137e-06 0.0 0.0
0.0 9.284367478450311e-09 -7.860409853173938e-10 5.99985332009828e-10 1.8605565330757216e-10 -1.1788236051675036e-09 0.0 0.0
0.0 0.0 0.0 0.0 0.0 0.0 0.0 0.0
0.0 0.00048452204881350926 0.00021568606151760916 -7.531035733821328e-05 -0.00014037570417939555 0.0008946710589522854 0.0 0.0
0.0 0.0030859514066765366 0.0020608386876810806 -0.002951475403972496 0.0008906367162914136 0.0015707468010698895 0.0 0.0
0.0 0.0019003437397231997 0.0012959057821101813 -0.0018706873038040726 0.0005747815216938905 -0.0011360269019347164 0.0 0.0
0.0 0.00024601765808360585 7.736565160620508e-05 8.231227622942762e-07 -7.818877436849923e-05 -0.0004420440847841705 0.0 0.0
0.0 0.0 0.0 0.0 0.0 0.0 0.0 0.0
0.0 0.0 0.0 0.0 0.0 0.0 0.0 0.0
0.0 -2.319618634590929e-06 2.1721304926055987e-07 -1.7104736080659712e-07 -4.6165688453952655e-08 -5.448263811554127e-07 0.0 0.0
0.0 -2.0797270195032964e-05 -1.7846581432133585e-05 1.4331618631560479e-05 3.5149628005731973e-06 3.1585858416201535e-05 0.0 0.0
0.0 0.00019046984132300152 0.00012834906527866657 -9.56396195471062e-05 -3.270944573156059e-05 -8.775597056178055e-05 0.0 0.0
0.0 0.0010290862770282589 0.0008674377482968845 -0.0006813791086299366 -0.00018605863966694798 -0.0006273642451811845 0.0 0.0
0.0 0.0029909545779325023 0.0022547883903691807 -0.0018751841722340185 -0.0003796042181351612 -0.0015536569655532188 0.0 0.0
0.0 0.004935085574564616 0.004282326562728687 -0.003730358959334578 -0.0005519676033941109 -0.002862725745214228 0.0 0.0
0.0 0.007927668982454995 0.006718336849451221 -0.006044950051662132 -0.0006733867977890853 -0.004204362118274157 0.0 0.0
0.0 0.011276235245823418 0.009555405033932408 -0.0087862401196644 -0.000769164914268008 -0.005526708551222901 0.0 0.0
0.0 0.015150466999631403 0.012854583794243746 -0.012000841977569043 -0.0008537418166747097 -0.0068433168775025284 0.0 0.0
0.0 0.01973931508751614 0.01674980199820682 -0.01582141764517287 -0.0009283843530339397 -0.008259548905185151 0.0 0.0
0.0 0.02513213797419309 0.02136871309724389 -0.0203765717567067 -0.000992141340537191 -0.00984981689568357 0.0 0.0
0.0 0.03170925589735088 0.026754600434398593 -0.025712014433651828 -0.0010425860007467732 -0.011562802160114816 0.0 0.0
0.0 0.038442914955469455 0.032812616797670724 -0.031729545357421195 -0.001083071440249531 -0.013101073905390082 0.0 0.0
0.0 0.046134297120887464 0.03926372707878547 -0.03815147277394032 -0.0011122543048451142 -0.013968373284076898 0.0 0.0
0.0 0.05364650706484443 0.04567616439556535 -0.044556856253643334 -0.0011193081419220003 -0.013418241976421105 0.0 0.0
0.0 0.05995416458737016 0.051283285476772696 -0.050197558707253925 -0.0010857267695187562 -0.01021029905449229 0.0 0.0
0.0 0.06387118375797293 0.054222263734156416 -0.05355934844361062 -0.0006629152905457935 1.2276638039487864e-14 0.0 0.0
0.0 0.05995416458736466 0.05128328547676554 -0.05019755870724708 -0.0010857267695184296 0.01021029905452238 0.0 0.0
0.0 0.053646507064830366 0.04567616439555146 -0.04455685625362907 -0.0011193081419223906 0.013418241976450394 0.0 0.0
0.0 0.046134297120872185 0.039263727078771016 -0.038151472773926234 -0.001112254304844763 0.013968373284094926 0.0 0.0
0.0 0.038442914955448 0.032812616797652426 -0.031729545357403466 -0.0010830714402489466 0.013101073905391647 0.0 0.0
0.0 0.031709255897327725 0.026754600434378897 -0.025712014433632132 -0.0010425860007467619 0.011562802160108672 0.0 0.0
0.0 0.02513213797417232 0.021368713097225593 -0.020376571756688718 -0.0009921413405368528 0.009849816895677908 0.0 0.0
0.0 0.019739315087494685 0.016749801998188023 -0.01582141764515448 -0.0009283843530335436 0.008259548905179808 0.0 0.0
0.0 0.015150466999611588 0.012854583794226803 -0.01200084197755279 -0.0008537418166740026 0.0068433168774962375 0.0 0.0
0.0 0.011276235245802796 0.00955540503391519 -0.008786240119647504 -0.000769164914267693 0.00552670855121337 0.0 0.0
0.0 0.00792766898243752 0.00671833684943665 -0.006044950051648382 -0.000673386797788264 0.004204362118263135 0.0 0.0
0.0 0.004935085574550136 0.004282326562716486 -0.0037303589593230507 -0.0005519676033934342 0.0028627257452047126 0.0 0.0
0.0 0.0029909545779208107 0.0022547883903603345 -0.0018751841722261615 -0.0003796042181341721 0.0015536569655472017 0.0 0.0
0.0 0.00102908627702144 0.000867437748291551 -0.0006813791086255378 -0.0001860586396660126 0.0006273642451772611 0.0 0.0
0.0 0.00019046984132029034 0.000128349065277267 -9.56396195460813e-05 -3.2709445731185795e-05 8.77559705608196e-05 0.0 0.0
0.0 -2.079727019571314e-05 -1.7846581431869083e-05 1.4331618631357735e-05 3.5149628005112737e-06 -3.158585841591033e-05 0.0 0.0
0.0 -2.319618634313907e-06 2.1721304925594368e-07 -1.710473608041009e-07 -4.616568845183965e-08 5.448263811659007e-07 0.0 0.0
0.0 0.0 0.0 0.0 0.0 0.0 0.0 0.0
0.0 0.0 0.0 0.0 0.0 0.0 0.0 0.0
0.0 0.0002460176580804163 7.736565160504493e-05 8.231227630758572e-07 -7.818877436812094e-05 0.00044204408478028246 0.0 0.0
0.0 0.001900343739716113 0.00129590578210471 -0.0018706873037962952 0.0005747815216915853 0.0011360269019308545 0.0 0.0
0.0 0.001432525678441258 0.0006721842854286656 -0.0009740023311315942 0.00030181804570292894 -0.0006674062809805274 0.0 0.0
0.0 -1.4695715534347133e-06 3.0417160284188825e-06 3.339973185327134e-05 -3.644144788169029e-05 -0.00014639445236295232 0.0 0.0
0.0 1.501239477888374e-07 -8.943371455963241e-10 1.017711353153143e-09 -1.233742075570957e-10 2.99033348444305e-08 0.0 0.0
0.0 -4.1037913505655055e-07 1.4314801481596642e-08 -1.0305585804134763e-08 -4.0092156774629636e-09 -8.204422965363723e-08 0.0 0.0
0.0 6.173371170821208e-07 -1.8841287677244657e-07 1.4960097410076074e-07 3.881190267169579e-08 6.405063682398332e-07 0.0 0.0
0.0 -1.0151003535991197e-05 -6.249983980913214e-06 4.97259346907411e-06 1.2773905118390709e-06 1.6935664043294293e-05 0.0 0.0
0.0 1.0514255620125291e-05 -1.2401524167443937e-06 1.9845241206756253e-06 -7.443717039313403e-07 1.0922653238658612e-05 0.0 0.0
0.0 0.0004218044357380035 0.0003425180545229427 -0.00026527847905203966 -7.723957547090297e-05 -0.0003830369134383613 0.0 0.0
0.0 0.0015341859738634933 0.001212791523430862 -0.0009806313622114724 -0.00023216016121938937 -0.0011266190533948 0.0 0.0
0.0 0.0034897388666945625 0.002610398505195763 -0.0022122651076690756 -0.0003981333975266882 -0.00222955109713065 0.0 0.0
0.0 0.005453481512895528 0.00443301408472432 -0.003896484050745575 -0.0005365300339787395 -0.0035575054529619465 0.0 0.0
0.0 0.007926954119327327 0.006551745511027678 -0.005909306857162419 -0.0006424386538652642 -0.004854705222560042 0.0 0.0
0.0 0.010869488067293723 0.008991832734009228 -0.008262024680852681 -0.0007298080531565432 -0.00613071965367839 0.0 0.0
0.0 0.014280127382341821 0.01186547130831812 -0.011063128246405996 -0.0008023430619121237 -0.007456228258596679 0.0 0.0
0.0 0.01843432334515517 0.015288221111014789 -0.014425267974121258 -0.0008629531368935258 -0.00890853044630939 0.0 0.0
0.0 0.023211114342466584 0.019344353597351788 -0.018432077701499947 -0.0009122758958518267 -0.010457040991494453 0.0 0.0
0.0 0.02889830699252362 0.02400383959586256 -0.023051665582893982 -0.0009521740129685745 -0.011906530692972704 0.0 0.0
0.0 0.03484266205860303 0.02914282027486948 -0.02815404159061477 -0.0009887786842546925 -0.012816214668693012 0.0 0.0
0.0 0.04090702675388728 0.034567825414466354 -0.03355301890549616 -0.00101480650897023 -0.012621768734690775 0.0 0.0
0.0 0.04697786146649001 0.03981309676492859 -0.03882246385229925 -0.0009906329126293544 -0.010166074036325889 0.0 0.0
0.0 0.051343912140487176 0.042914787665012374 -0.04246048641321854 -0.0004543012517937879 1.0375814790686277e-14 0.0 0.0
0.0 0.04697786146648673 0.039813096764923006 -0.03882246385229378 -0.0009906329126292126 0.010166074036352162 0.0 0.0
0.0 0.040907026753877716 0.034567825414455994 -0.03355301890548539 -0.0010148065089706202 0.012621768734718127 0.0 0.0
0.0 0.03484266205858998 0.029142820274857168 -0.028154041590602776 -0.0009887786842544236 0.01281621466870821 0.0 0.0
0.0 0.028898306992508265 0.024003839595849508 -0.023051665582881593 -0.0009521740129679115 0.01190653069297289 0.0 0.0
0.0 0.02321111434244897 0.019344353597337275 -0.018432077701485562 -0.0009122758958517267 0.010457040991488064 0.0 0.0
0.0 0.018434323345140037 0.015288221111001574 -0.01442526797410843 -0.0008629531368931427 0.008908530446304363 0.0 0.0
0.0 0.014280127382327179 0.011865471308305592 -0.011063128246393742 -0.0008023430619118528 0.007456228258592724 0.0 0.0
0.0 0.010869488067277451 0.008991832733995637 -0.00826202468083971 -0.0007298080531559274 0.006130719653671538 0.0 0.0
0.0 0.007926954119311767 0.0065517455110148 -0.005909306857149848 -0.0006424386538649481 0.004854705222550642 0.0 0.0
0.0 0.005453481512882474 0.004433014084713746 -0.0038964840507360213 -0.0005365300339777214 0.003557505452952054 0.0 0.0
0.0 0.003489738866683627 0.0026103985051873437 -0.0022122651076614277 -0.00039813339752591556 0.0022295510971228707 0.0 0.0
0.0 0.001534185973856315 0.001212791523425368 -0.0009806313622068865 -0.00023216016121848125 0.0011266190533903851 0.0 0.0
0.0 0.0004218044357341754 0.00034251805452026964 -0.00026527847904985976 -7.723957547040998e-05 0.0003830369134356389 0.0 0.0
0.0 1.0514255619077608e-05 -1.2401524171814146e-06 1.984524121011885e-06 -7.443717038305465e-07 -1.0922653239380523e-05 0.0 0.0
0.0 -1.0151003536641174e-05 -6.249983980496106e-06 4.972593468741828e-06 1.2773905117543216e-06 -1.6935664042134013e-05 0.0 0.0
0.0 6.173371166648824e-07 -1.8841287683080735e-07 1.496009741490743e-07 3.88119026817225e-08 -6.40506368366742e-07 0.0 0.0
0.0 -4.1037913493129476e-07 1.4314801477048154e-08 -1.030558580085335e-08 -4.00921567619338e-09 8.204422962751001e-08 0.0 0.0
0.0 1.5012394747879627e-07 -8.94337143643398e-10 1.0177113510135556e-09 -1.2337420737023362e-10 -2.990333478189685e-08 0.0 0.0
0.0 -1.4695715550676353e-06 3.0417160279026676e-06 3.3399731853565736e-05 -3.644144788146852e-05 0.00014639445236078457 0.0 0.0
0.0 0.001432525678434459 0.0006721842854249064 -0.0009740023311261733 0.0003018180457012677 0.000667406280977425 0.0 0.0
0.0 0.0005641532932399366 0.0002961381239604751 -0.0004313827168112736 0.000135244592850799 -0.00036691961230663937 0.0 0.0
0.0 -4.845367837950982e-05 -2.650414357590676e-05 4.293240425640687e-05 -1.6428260680500148e-05 1.3000222026761428e-05 0.0 0.0
0.0 2.2756234019458266e-06 -3.622856323065417e-09 1.1119213435067454e-08 -7.496357112000574e-09 4.94855934509731e-07 0.0 0.0
0.0 8.107896207475941e-07 -2.262458951968182e-09 2.8250625403530935e-10 1.9799526979320063e-09 1.675303356118252e-07 0.0 0.0
0.0 6.691057485076278e-08 -2.997090038554084e-08 1.958827744916842e-08 1.0382622936371348e-08 2.9788002844613465e-07 0.0 0.0
0.0 -1.2786694033234665e-05 -1.1505440605012048e-06 9.344719619030092e-07 2.1607209859820044e-07 5.325528333837373e-06 0.0 0.0
0.0 -6.863870988336117e-06 -1.4224996796468307e-05 1.1443875064112912e-05 2.7811217323553646e-06 4.2093404845971707e-05 0.0 0.0
0.0 0.00013270279572848896 3.2326186526838275e-05 -2.5727451133297876e-05 -6.598735393540359e-06 -9.121987520140163e-05 0.0 0.0
0.0 0.0006078174757246477 0.00039512245563948776 -0.00031739914325610826 -7.772331238337947e-05 -0.0006271149072522443 0.0 0.0
0.0 0.0016943137700953217 0.0011668614523583517 -0.0009661450693162175 -0.00020071638304213456 -0.0014287392833601583 0.0 0.0
0.0 0.0029978978499524598 0.0022968458028772183 -0.001961961217850381 -0.0003348845850268368 -0.002511153812731757 0.0 0.0
0.0 0.004743296882717849 0.003666479782736657 -0.003219262826518485 -0.0004472169562181711 -0.0036445101076268468 0.0 0.0
0.0 0.0067139069647013045 0.005258953682323538 -0.004713840458850092 -0.0005451132234734426 -0.0048039938741079175 0.0 0.0
0.0 0.00900824761644658 0.007133549065642047 -0.006509585493117443 -0.0006239635725245917 -0.005983138456621346 0.0 0.0
0.0 0.011796860758512258 0.00938041294764855 -0.008692396147618261 -0.0006880168000302927 -0.007210658713589366 0.0 0.0
0.0 0.01518120734409088 0.012095219859405825 -0.011355558698498852 -0.00073966116090698 -0.008508822361847265 0.0 0.0
0.0 0.01915806210802148 0.015332977949226285 -0.014547701542928636 -0.0007852764062976338 -0.009781561185992771 0.0 0.0
0.0 0.023509819916417544 0.01908530925552029 -0.01825992921656321 -0.0008253800389570974 -0.010692686750125606 0.0 0.0
0.0 0.0284236655815041 0.0233526593426028 -0.02248332778465551 -0.000869331557947268 -0.010749798359178811 0.0 0.0
0.0 0.034052860497814995 0.02808534304136452 -0.0272060049651283 -0.0008793380762361991 -0.009350009365092761 0.0 0.0
0.0 0.0386996136261096 0.0313762188048256 -0.031159059867353442 -0.0002171589374722002 9.231330977410579e-15 0.0 0.0
0.0 0.03405286049781329 0.028085343041360053 -0.027206004965123542 -0.0008793380762365221 0.009350009365114754 0.0 0.0
0.0 0.028423665581500116 0.023352659342597105 -0.022483327784649888 -0.0008693315579471922 0.010749798359202214 0.0 0.0
0.0 0.02350981991640533 0.019085309255509428 -0.01825992921655248 -0.0008253800389569443 0.010692686750136116 0.0 0.0
0.0 0.019158062108010777 0.01533297794921788 -0.01454770154292086 -0.0007852764062970196 0.00978156118599101 0.0 0.0
0.0 0.015181207344078868 0.012095219859396211 -0.011355558698489561 -0.0007396611609066379 0.008508822361841018 0.0 0.0
0.0 0.011796860758500692 0.009380412947638894 -0.00869239614760884 -0.0006880168000300531 0.00721065871358436 0.0 0.0
0.0 0.00900824761643907 0.007133549065635566 -0.00650958549311151 -0.0006239635725240568 0.00598313845661951 0.0 0.0
0.0 0.006713906964691992 0.005258953682315935 -0.004713840458842809 -0.0005451132234731249 0.004803993874102519 0.0 0.0
0.0 0.004743296882707657 0.003666479782729273 -0.00321926282651178 -0.0004472169562174947 0.0036445101076193398 0.0 0.0
0.0 0.002997897849941981 0.0022968458028691727 -0.001961961217842985 -0.0003348845850261859 0.0025111538127221647 0.0 0.0
0.0 0.0016943137700887881 0.0011668614523539028 -0.0009661450693123904 -0.00020071638304151258 0.0014287392833551998 0.0 0.0
0.0 0.0006078174757201562 0.00039512245563661066 -0.0003173991432537244 -7.772331238288604e-05 0.0006271149072484816 0.0 0.0
0.0 0.00013270279572745417 3.232618652649876e-05 -2.5727451133036607e-05 -6.598735393462083e-06 9.121987520087421e-05 0.0 0.0
0.0 -6.863870989456646e-06 -1.4224996796015573e-05 1.1443875063763274e-05 2.78112173225236e-06 -4.2093404845057e-05 0.0 0.0
0.0 -1.278669403327714e-05 -1.150544060377796e-06 9.344719618112565e-07 2.1607209856650484e-07 -5.325528332969138e-06 0.0 0.0
0.0 6.691057474644813e-08 -2.997090041937055e-08 1.9588277474857455e-08 1.0382622944524992e-08 -2.9788002863577283e-07 0.0 0.0
0.0 8.107896205125219e-07 -2.262458951174931e-09 2.825062539649664e-10 1.979952697208964e-09 -1.6753033556088618e-07 0.0 0.0
0.0 2.2756234013447927e-06 -3.6228563214464765e-09 1.1119213431972399e-08 -7.496357110524799e-09 -4.948559343785076e-07 0.0 0.0
0.0 -4.8453678379937584e-05 -2.650414357573777e-05 4.293240425610782e-05 -1.6428260680370017e-05 -1.3000222026749654e-05 0.0 0.0
0.0 0.0005641532932354399 0.0002961381239583281 -0.0004313827168081856 0.00013524459284985725 0.0003669196123042965 0.0 0.0
0.0 0.00017073430669880567 5.549270890499172e-05 -8.237381276989615e-05 2.688110386490457e-05 -7.65971944304511e-05 0.0 0.0
0.0 -2.2408869908109918e-05 -9.815684965773978e-06 1.36014067605088e-05 -3.7857217947348274e-06 1.7548926332743322e-05 0.0 0.0
0.0 5.096525743868014e-07 9.381252579871773e-11 1.5396771685514519e-09 -1.6334896943491657e-09 1.0271581062143611e-07 0.0 0.0
0.0 4.096640072979324e-07 9.90752011270457e-09 -8.396156044114786e-09 -1.5113640685919163e-09 8.098632487915903e-08 0.0 0.0
0.0 1.7508327016234554e-07 3.369918159852456e-08 -2.6111514658535562e-08 -7.587666939980631e-09 -6.219669361526285e-08 0.0 0.0
0.0 -3.4768457983333924e-06 -1.1156693757031768e-06 8.636797787506748e-07 2.519895969524762e-07 1.0764287828672714e-05 0.0 0.0
0.0 -1.796860521256266e-06 -3.7381919011941495e-06 3.034029706303633e-06 7.041621948905388e-07 2.14067997618265e-05 0.0 0.0
0.0 5.367314370820065e-05 9.691223400874251e-07 -5.952331799796128e-07 -3.738891601078179e-07 -5.945580715172873e-05 0.0 0.0
0.0 0.00016046375947759628 1.84349124437348e-05 -1.652925564194895e-05 -1.905656801785855e-06 -0.00024002451379385856 0.0 0.0
0.0 0.00046424696777554804 0.000164823281973022 -0.0001448923351002045 -1.9930946872817618e-05 -0.000652456789171053 0.0 0.0
0.0 0.0011486812376286927 0.0005013405777361179 -0.0004474143953796715 -5.392618235644636e-05 -0.0012868918903638999 0.0 0.0
0.0 0.0018727643238160222 0.0010683383271708105 -0.0009531234671065818 -0.00011521486006422878 -0.0021580927079880383 0.0 0.0
0.0 0.002925423013109155 0.0018000912366369433 -0.001613431737321658 -0.00018665949931528415 -0.0030896879657488843 0.0 0.0
0.0 0.00421906826047923 0.0026960962329263018 -0.002439535445929574 -0.00025656078699673045 -0.00407978791951839 0.0 0.0
0.0 0.005746286624192269 0.0037945298647611035 -0.0034649459258022557 -0.00032958393895884383 -0.00512465895181086 0.0 0.0
0.0 0.007631041404478076 0.005176098768507282 -0.004773251956767474 -0.0004028468117398071 -0.006243094003306178 0.0 0.0
0.0 0.010043551822977073 0.006957693908363647 -0.006479626327232166 -0.00047806758113148336 -0.007424349881925937 0.0 0.0
0.0 0.013110741066278214 0.009276311796820227 -0.00872922106239331 -0.0005470907344269133 -0.008406997458224534 0.0 0.0
0.0 0.01665852058566002 0.012237860192619878 -0.011633286079251645 -0.0006045741133682419 -0.008619188318787094 0.0 0.0
0.0 0.020935807001333906 0.016118125372540423 -0.01542757608985001 -0.0006905492826903973 -0.007715804089150666 0.0 0.0
0.0 0.026769112786578144 0.01952517455015679 -0.019595410729561925 7.023617940512335e-05 6.313092409948595e-15 0.0 0.0
0.0 0.020935807001335283 0.01611812537253824 -0.01542757608984768 -0.0006905492826905581 0.0077158040891681596 0.0 0.0
0.0 0.016658520585658414 0.012237860192616924 -0.011633286079248776 -0.0006045741133681459 0.008619188318803775 0.0 0.0
0.0 0.013110741066267981 0.009276311796812464 -0.008729221062385394 -0.0005470907344270751 0.008406997458228687 0.0 0.0
0.0 0.010043551822968882 0.006957693908358653 -0.006479626327227683 -0.00047806758113097265 0.00742434988192283 0.0 0.0
0.0 0.0076310414044718795 0.005176098768503303 -0.004773251956763389 -0.00040284681173991503 0.0062430940033003975 0.0 0.0
0.0 0.005746286624185729 0.00379452986475595 -0.0034649459257973486 -0.00032958393895860146 0.0051246589518061944 0.0 0.0
0.0 0.004219068260474559 0.002696096232923357 -0.002439535445927037 -0.0002565607869963215 0.004079787919516083 0.0 0.0
0.0 0.002925423013105315 0.0018000912366348293 -0.0016134317373198263 -0.00018665949931500258 0.003089687965744899 0.0 0.0
0.0 0.00187276432381069 0.0010683383271679727 -0.0009531234671039899 -0.00011521486006398262 0.00215809270798185 0.0 0.0
0.0 0.0011486812376235722 0.0005013405777335602 -0.00044741439537731724 -5.3926182356242376e-05 0.001286891890357809 0.0 0.0
0.0 0.00046424696777340815 0.00016482328197240908 -0.00014489233509965162 -1.9930946872757434e-05 0.0006524567891697033 0.0 0.0
0.0 0.00016046375947634522 1.8434912443383928e-05 -1.6529255641639602e-05 -1.9056568017442562e-06 0.0002400245137917567 0.0 0.0
0.0 5.367314370743445e-05 9.691223401307979e-07 -5.952331800193686e-07 -3.738891601114628e-07 5.945580715156138e-05 0.0 0.0
0.0 -1.7968605217247078e-06 -3.73819190115264e-06 3.034029706271227e-06 7.041621948814277e-07 -2.1406799761517047e-05 0.0 0.0
0.0 -3.4768457988816e-06 -1.115669375723687e-06 8.636797787658644e-07 2.519895969578237e-07 -1.0764287828722743e-05 0.0 0.0
0.0 1.750832697809369e-07 3.369918160631784e-08 -2.611151466366889e-08 -7.58766694265213e-09 6.219669375116452e-08 0.0 0.0
0.0 4.096640068308793e-07 9.90752010832275e-09 -8.39615604017302e-09 -1.5113640681489081e-09 -8.098632478345155e-08 0.0 0.0
0.0 5.096525740515149e-07 9.381252618957887e-11 1.539677166806176e-09 -1.6334896929998106e-09 -1.0271581055161462e-07 0.0 0.0
0.0 -2.2408869908455094e-05 -9.815684965627805e-06 1.3601406760312907e-05 -3.785721794685107e-06 -1.754892633245434e-05 0.0 0.0
0.0 0.00017073430669663263 5.549270890430003e-05 -8.237381276888604e-05 2.6881103864585974e-05 7.659719442950568e-05 0.0 0.0
0.0 4.396627064656999e-06 3.781865596372712e-06 -5.907140045504967e-06 2.1252744491322097e-06 -5.8115219250184805e-06 0.0 0.0
0.0 -1.684128988306358e-06 -4.937552992723463e-07 7.748112102490081e-07 -2.8105591097664655e-07 5.513273278917495e-07 0.0 0.0
0.0 3.5637643855583632e-06 1.0466321526454694e-08 6.2185905963190185e-09 -1.668491212277834e-08 7.708049989247887e-07 0.0 0.0
0.0 1.2405663355666563e-06 2.296314495505155e-08 -1.9338392250235115e-08 -3.624752704813151e-09 2.542797602654144e-07 0.0 0.0
0.0 6.160664652974228e-08 2.0972380458961506e-08 -1.886393346557887e-08 -2.108446993382804e-09 2.2346115054367538e-08 0.0 0.0
0.0 -4.505658706948067e-06 7.429500767289517e-08 -7.139412765937441e-08 -2.9008800135177546e-09 1.0354352166001826e-05 0.0 0.0
0.0 2.5327446608921156e-06 -1.697622488361452e-07 1.4810219716206793e-07 2.1660051674066725e-08 1.9815756044142343e-05 0.0 0.0
0.0 4.7171780187239154e-05 -3.309143915194318e-07 3.385467839821743e-07 -7.632392462737822e-09 -8.005196116406584e-05 0.0 0.0
0.0 0.00017981377784650587 -2.8941279651577716e-08 2.866410709192757e-08 2.7717255969184236e-10 -0.00022503199871163698 0.0 0.0
0.0 0.00028684081441368825 1.4399579443732992e-07 -9.809516131463498e-08 -4.590063312272082e-08 -0.0004843581260235909 0.0 0.0
0.0 0.0005517622996129454 -2.15907208558688e-06 1.3303612760354434e-06 8.287108095513989e-07 -0.0008001698238208922 0.0 0.0
0.0 0.0007071250349581514 1.6528034769116353e-06 -1.2630209491145384e-06 -3.8978252779699013e-07 -0.0013345750786013034 0.0 0.0
0.0 0.0009991396344327125 2.4164693172978185e-06 -1.62938161406036e-06 -7.870877032373264e-07 -0.002007631521977991 0.0 0.0
0.0 0.0013776337143027553 -6.889676775787912e-07 2.1353242493172213e-06 -1.4463565717382946e-06 -0.00285752826927664 0.0 0.0
0.0 0.0020006808474798553 -1.0980480213300826e-05 1.0789820405328424e-05 1.9065980797204922e-07 -0.0039206866834673015 0.0 0.0
0.0 0.00282338969989853 5.808328410077449e-05 -7.306805657005064e-05 1.4984772469275819e-05 -0.005174557782594008 0.0 0.0
0.0 0.003877366869102784 0.00034440935968055856 -0.0003962351323709564 5.182577269039871e-05 -0.006547483291620588 0.0 0.0
0.0 0.005165360890819469 0.0009834621010822912 -0.0011260858243708884 0.0001426237232885957 -0.00791618121219009 0.0 0.0
0.0 0.007144186557501135 0.0019200996275707206 -0.0021314658193051133 0.00021136619173439303 -0.008976222669088246 0.0 0.0
0.0 0.010512352537947727 0.00432025618865014 -0.004204770279991041 -0.00011548590865909596 -0.008939792794957489 0.0 0.0
0.0 0.01821508010788432 0.008208500668555954 -0.008704994886038016 0.0004964942174820657 7.188694084447889e-15 0.0 0.0
0.0 0.010512352537951653 0.004320256188649715 -0.004204770279990854 -0.00011548590865886204 0.008939792794971264 0.0 0.0
0.0 0.007144186557499878 0.0019200996275700786 -0.002131465819304791 0.00021136619173471393 0.008976222669091871 0.0 0.0
0.0 0.005165360890814272 0.0009834621010802787 -0.0011260858243674601 0.00014262372328718108 0.007916181212186211 0.0 0.0
0.0 0.0038773668690967903 0.00034440935968020755 -0.00039623513237053466 5.18257726903265e-05 0.006547483291614505 0.0 0.0
0.0 0.0028233896998955403 5.808328410217148e-05 -7.30680565718076e-05 1.4984772469636356e-05 0.005174557782589061 0.0 0.0
0.0 0.002000680847475139 -1.0980480213312644e-05 1.0789820405513091e-05 1.9065980779971528e-07 0.003920686683462302 0.0 0.0
0.0 0.0013776337143012764 -6.889676774143177e-07 2.1353242492288453e-06 -1.4463565718145411e-06 0.002857528269273059 0.0 0.0
0.0 0.0009991396344295501 2.4164693175199716e-06 -1.6293816142459212e-06 -7.870877032740978e-07 0.002007631521971716 0.0 0.0
0.0 0.0007071250349556827 1.6528034768560428e-06 -1.2630209490822495e-06 -3.897825277738407e-07 0.001334575078595926 0.0 0.0
0.0 0.000551762299610013 -2.1590720854983887e-06 1.3303612759331832e-06 8.287108095651988e-07 0.0008001698238164299 0.0 0.0
0.0 0.0002868408144137735 1.439957945186802e-07 -9.809516139868706e-08 -4.5900633119971974e-08 0.0004843581260230974 0.0 0.0
0.0 0.00017981377784558956 -2.8941279620964275e-08 2.86641070771653e-08 2.771725437951637e-10 0.0002250319987104057 0.0 0.0
0.0 4.717178018617528e-05 -3.309143915309074e-07 3.385467840012152e-07 -7.632392470296956e-09 8.005196116292068e-05 0.0 0.0
0.0 2.532744660413504e-06 -1.697622488356733e-07 1.4810219715939634e-07 2.1660051676285475e-08 -1.9815756043893905e-05 0.0 0.0
0.0 -4.505658707102679e-06 7.429500763596187e-08 -7.139412762199431e-08 -2.900880013973761e-09 -1.0354352165138115e-05 0.0 0.0
0.0 6.160664594580481e-08 2.0972380461474018e-08 -1.8863933468854542e-08 -2.108446992616217e-09 -2.2346115126874564e-08 0.0 0.0
0.0 1.2405663350389034e-06 2.2963144945294832e-08 -1.9338392241929008e-08 -3.624752703366745e-09 -2.542797601527055e-07 0.0 0.0
0.0 3.5637643852961112e-06 1.0466321526893375e-08 6.218590594824565e-09 -1.6684912121708747e-08 -7.708049988575556e-07 0.0 0.0
0.0 -1.6841289883224746e-06 -4.937552993092612e-07 7.74811210298814e-07 -2.8105591098956836e-07 -5.513273279326165e-07 0.0 0.0
0.0 4.396627063724409e-06 3.7818655966258204e-06 -5.907140045877703e-06 2.125274449251989e-06 5.8115219255140185e-06 0.0 0.0
0.0 1.2392568618169737e-06 -7.491151091484791e-08 1.1767598598030642e-07 -4.2764475065472074e-08 1.441325408975938e-07 0.0 0.0
0.0 1.0193361657633564e-07 1.0676732839692013e-08 -1.3945681913414806e-08 3.26894907372364e-09 3.7380425146472035e-08 0.0 0.0
0.0 -9.44532922841319e-07 -1.3466569637216508e-08 8.883064507095171e-09 4.583505130121307e-09 -2.069667251657235e-07 0.0 0.0
0.0 1.4830468383078799e-06 4.412945978365263e-08 -3.608010532777823e-08 -8.049354455875996e-09 3.2454905167528545e-07 0.0 0.0
0.0 -1.8201635696675361e-06 1.9580140416911863e-07 -1.7710649190522523e-07 -1.869491226389141e-08 1.267436675805464e-06 0.0 0.0
0.0 -4.438339817079741e-06 -3.199330915057265e-08 6.636180655190725e-08 -3.43684974013018e-08 2.5972045260079066e-06 0.0 0.0
0.0 1.2772462642328555e-05 5.146856311156613e-06 -4.0475984606985116e-06 -1.0992578504581595e-06 3.0392862191529112e-05 0.0 0.0
0.0 5.8840601328236404e-05 -1.924567015919545e-06 1.4948534958823202e-06 4.2971352003723494e-07 -6.182176025503841e-05 0.0 0.0
0.0 0.00016115192259072588 -1.8968788416631672e-05 1.6985255843477792e-05 1.9835325731536984e-06 -0.00024178070221882143 0.0 0.0
0.0 0.0004622040294277621 -0.00016398553545403252 0.00014410433937168526 1.9881196082347494e-05 -0.0006516411557828395 0.0 0.0
0.0 0.0011484376522629834 -0.0004912958588923875 0.00044031241626043063 5.098344263195717e-05 -0.0012783530837445667 0.0 0.0
0.0 0.0018865202358906233 -0.0010739668827494905 0.0009574687987690146 0.00011649808398047505 -0.002158113247506841 0.0 0.0
0.0 0.0029448615559840878 -0.0018158738967598994 0.0016270692549127073 0.0001888046418471905 -0.0030906844029594694 0.0 0.0
0.0 0.004258910565185033 -0.0027281080944073868 0.002469038241493703 0.00025906985291368305 -0.0040760519857054615 0.0 0.0
0.0 0.00574441593300486 -0.00380315601750495 0.0034793608511905576 0.0003237951663143921 -0.00513440424998218 0.0 0.0
0.0 0.007403623085777335 -0.0049697879788658215 0.004608419398900142 0.0003613685799656796 -0.0063373242479348125 0.0 0.0
0.0 0.009004414591522411 -0.006015571574056353 0.005657362674154783 0.00035820889990157106 -0.007768389699675278 0.0 0.0
0.0 0.010372366709641576 -0.006551926497694925 0.006262539794807371 0.0002893867028875498 -0.009456187946613645 0.0 0.0
0.0 0.010600579235226205 -0.00607021480297348 0.00590501435726419 0.0001652004457092975 -0.011385267545243284 0.0 0.0
0.0 0.008924397603549123 -0.004396955545001127 0.004393291785486485 3.6637595146436373e-06 -0.01294302742291806 0.0 0.0
0.0 0.017291347413910137 -0.0023840720394000467 0.0008989768015020277 0.00148509523789802 8.894360942202084e-15 0.0 0.0
0.0 0.008924397603554197 -0.004396955545001544 0.004393291785487156 3.6637595143902864e-06 0.012943027422927132 0.0 0.0
0.0 0.01060057923522451 -0.006070214802971394 0.005905014357262273 0.00016520044570912697 0.011385267545250972 0.0 0.0
0.0 0.010372366709637836 -0.006551926497693054 0.006262539794805165 0.00028938670288788547 0.009456187946615121 0.0 0.0
0.0 0.009004414591513438 -0.006015571574050042 0.0056573626741487 0.00035820889990134035 0.00776838969966899 0.0 0.0
0.0 0.007403623085769112 -0.004969787978859471 0.004608419398894295 0.0003613685799651731 0.00633732424792897 0.0 0.0
0.0 0.005744415932999327 -0.0038031560174999865 0.0034793608511863483 0.00032379516631364036 0.00513440424997749 0.0 0.0
0.0 0.00425891056517738 -0.002728108094401134 0.002469038241487982 0.0002590698529131527 0.004076051985700932 0.0 0.0
0.0 0.0029448615559742528 -0.0018158738967531218 0.0016270692549061757 0.00018880464184694597 0.0030906844029517685 0.0 0.0
0.0 0.0018865202358816294 -0.001073966882743649 0.0009574687987638764 0.0001164980839797719 0.0021581132474988475 0.0 0.0
0.0 0.0011484376522553118 -0.00049129585888858 0.00044031241625704223 5.0983442631537444e-05 0.001278353083737185 0.0 0.0
0.0 0.0004622040294234483 -0.00016398553545239538 0.00014410433937014642 1.9881196082248892e-05 0.0006516411557800825 0.0 0.0
0.0 0.00016115192258946804 -1.8968788416407896e-05 1.698525584328362e-05 1.9835325731242843e-06 0.00024178070221776417 0.0 0.0
0.0 5.8840601327321906e-05 -1.9245670158849322e-06 1.494853495869931e-06 4.297135200149965e-07 6.182176025426264e-05 0.0 0.0
0.0 1.2772462641331358e-05 5.146856311118814e-06 -4.04759846066808e-06 -1.0992578504507164e-06 -3.0392862191382156e-05 0.0 0.0
0.0 -4.438339817400351e-06 -3.199330924451837e-08 6.636180663017596e-08 -3.4368497385655064e-08 -2.5972045254126123e-06 0.0 0.0
0.0 -1.8201635702431655e-06 1.9580140417379057e-07 -1.7710649190914286e-07 -1.869491226465169e-08 -1.2674366757942095e-06 0.0 0.0
0.0 1.4830468376251633e-06 4.412945979726279e-08 -3.60801053385817e-08 -8.049354458680759e-09 -3.245490517488588e-07 0.0 0.0
0.0 -9.445329229646191e-07 -1.3466569642871315e-08 8.883064511450335e-09 4.583505131418003e-09 2.069667252438537e-07 0.0 0.0
0.0 1.0193361634669551e-07 1.0676732833700947e-08 -1.3945681909328034e-08 3.2689490756309226e-09 -3.7380425093418424e-08 0.0 0.0
0.0 1.2392568610875138e-06 -7.491151086901853e-08 1.1767598590977797e-07 -4.276447504077999e-08 -1.441325408055337e-07 0.0 0.0
0.0 0.0 0.0 0.0 0.0 0.0 0.0 0.0
0.0 -2.421719605901748e-07 -3.2468155202972983e-09 1.8808664176063756e-09 1.3659491026902043e-09 -4.880557232414907e-08 0.0 0.0
0.0 2.704536700908318e-07 -7.064850746331047e-09 8.838719982124156e-09 -1.7738692357917574e-09 6.47719181560821e-08 0.0 0.0
0.0 -8.80168611124984e-07 -6.324022583384008e-08 5.269431707395232e-08 1.0545908759878888e-08 -2.799615878227462e-07 0.0 0.0
0.0 7.778796249535174e-06 -6.451188671700799e-08 4.243100690981777e-08 2.208087980723905e-08 1.8455421057697684e-07 0.0 0.0
0.0 2.397122751865849e-06 6.5673687364172434e-06 -5.30808749387484e-06 -1.2592812425423845e-06 2.8283809824610748e-05 0.0 0.0
0.0 -6.359622568005763e-06 5.634065440870764e-06 -4.4499964584424005e-06 -1.1840689824282867e-06 -3.8398764837033395e-11 0.0 0.0
0.0 0.00014302227042448592 -3.5984315355580834e-05 2.8841159498508853e-05 7.143155857071865e-06 -9.964915281662808e-05 0.0 0.0
0.0 0.0006067118259310423 -0.00039447346688357136 0.0003167924755143634 7.768099136920811e-05 -0.0006276002492929348 0.0 0.0
0.0 0.001690019292970793 -0.0011646349824946324 0.0009641000522788996 0.00020053493021573234 -0.0014254707121057022 0.0 0.0
0.0 0.0029962926574508345 -0.0022962986815211863 0.001961508301843064 0.000334790379678122 -0.0025095828159310833 0.0 0.0
0.0 0.0047476897234420105 -0.003669867638801598 0.003222355909475967 0.0004475117293256316 -0.0036453358859620567 0.0 0.0
0.0 0.006728759486638875 -0.005272126672079316 0.004726118851215095 0.0005460078208642184 -0.0047969800465369646 0.0 0.0
0.0 0.009037188260662838 -0.007163699666053586 0.006539118354319414 0.0006245813117341716 -0.005954650709150906 0.0 0.0
0.0 0.011805076559832952 -0.009397792103653284 0.008713961144417718 0.0006838309592355647 -0.0071887814253921625 0.0 0.0
0.0 0.014990096350794046 -0.011930008129689886 0.011211403915790183 0.0007186042138997127 -0.008667326151336882 0.0 0.0
0.0 0.018277013440849095 -0.01451166655053858 0.013784672948839425 0.0007269936016991408 -0.010589547551428019 0.0 0.0
0.0 0.02096340512929891 -0.016660217684800693 0.015946164347996068 0.000714053336804634 -0.013053332610758377 0.0 0.0
0.0 0.022524280504012832 -0.017458370007539685 0.016793020588098184 0.0006653494194414997 -0.015563024306913963 0.0 0.0
0.0 0.020856095237168686 -0.015232105251089735 0.014623633209177285 0.0006084720419124402 -0.01605904595827021 0.0 0.0
0.0 0.021472037847723432 -0.01193271853022242 0.009666825495082871 0.0022658930351395477 9.512789861387816e-15 0.0 0.0
0.0 0.020856095237174344 -0.015232105251090285 0.014623633209177894 0.0006084720419123908 0.01605904595828944 0.0 0.0
0.0 0.022524280504010914 -0.01745837000753527 0.01679302058809421 0.0006653494194410577 0.015563024306930028 0.0 0.0
0.0 0.0209634051292894 -0.016660217684792387 0.015946164347987696 0.000714053336804691 0.013053332610764244 0.0 0.0
0.0 0.018277013440834714 -0.014511666550526995 0.013784672948827983 0.0007269936016990105 0.01058954755142403 0.0 0.0
0.0 0.01499009635078007 -0.01193000812967846 0.011211403915778932 0.0007186042138995318 0.008667326151329808 0.0 0.0
0.0 0.011805076559820878 -0.009397792103643462 0.008713961144408361 0.0006838309592350983 0.007188781425385611 0.0 0.0
0.0 0.009037188260649347 -0.007163699666041873 0.006539118354308063 0.0006245813117338037 0.005954650709143519 0.0 0.0
0.0 0.006728759486624088 -0.005272126672067195 0.004726118851203602 0.0005460078208635925 0.004796980046529567 0.0 0.0
0.0 0.004747689723427011 -0.0036698676387900506 0.0032223559094652007 0.0004475117293248497 0.003645335885951548 0.0 0.0
0.0 0.0029962926574385275 -0.0022962986815114918 0.0019615083018341604 0.0003347903796773312 0.0025095828159212054 0.0 0.0
0.0 0.0016900192929619915 -0.0011646349824883497 0.0009641000522735469 0.00020053493021480277 0.001425470712099647 0.0 0.0
0.0 0.000606711825926687 -0.0003944734668806106 0.00031679247551203316 7.768099136857739e-05 0.0006276002492899572 0.0 0.0
0.0 0.00014302227042269785 -3.5984315354926105e-05 2.8841159497994528e-05 7.143155856931511e-06 9.964915281487112e-05 0.0 0.0
0.0 -6.359622569131686e-06 5.634065440614176e-06 -4.449996458239864e-06 -1.1840689823743284e-06 3.839943457539688e-11 0.0 0.0
0.0 2.397122750981926e-06 6.567368736391051e-06 -5.308087493854971e-06 -1.259281242536161e-06 -2.8283809824560912e-05 0.0 0.0
0.0 7.778796249038035e-06 -6.451188675140395e-08 4.243100693875407e-08 2.2080879812647955e-08 -1.8455421039310478e-07 0.0 0.0
0.0 -8.801686112583667e-07 -6.324022594931632e-08 5.269431716703608e-08 1.0545908782291732e-08 2.7996158865008393e-07 0.0 0.0
0.0 2.7045366952949635e-07 -7.064850721539469e-09 8.838719959922215e-09 -1.7738692383825494e-09 -6.47719182575078e-08 0.0 0.0
0.0 -2.421719603617441e-07 -3.246815517878595e-09 1.8808664168966315e-09 1.3659491009815945e-09 4.8805572277769595e-08 0.0 0.0
0.0 0.0 0.0 0.0 0.0 0.0 0.0 0.0
0.0 0.0 0.0 0.0 0.0 0.0 0.0 0.0
0.0 4.708975586266584e-08 6.631015335524161e-10 -4.066369113317879e-10 -2.56464622220512e-10 9.52065192162231e-09 0.0 0.0
0.0 -8.431200303313022e-07 -2.8996678881907022e-08 2.3017103404619397e-08 5.97957547729079e-09 -1.6687519249258124e-07 0.0 0.0
0.0 1.8148393408014428e-06 9.64107728731234e-08 -7.935123100427464e-08 -1.7059541868855048e-08 4.551423426024926e-07 0.0 0.0
0.0 -5.763158409549077e-07 1.6765129775108567e-06 -1.3572579239771658e-06 -3.1925505353373374e-07 5.482132216041518e-06 0.0 0.0
0.0 -1.396834704169425e-05 3.5640295010170594e-07 -2.97888675613852e-07 -5.8514274487797505e-08 -2.6412977968145358e-06 0.0 0.0
0.0 5.824137681787004e-05 -1.5893065818874451e-06 4.981279681962653e-07 1.0911786136909672e-06 1.0011188975659785e-05 0.0 0.0
0.0 0.00043447088676673546 -0.00034530839222970716 0.00026795813669950626 7.735025553020112e-05 -0.000389989077527899 0.0 0.0
0.0 0.0015309675043436509 -0.001210373739521185 0.0009783633579071483 0.00023201038161403616 -0.0011241308332828699 0.0 0.0
0.0 0.003486799060470288 -0.002608283882663547 0.002210116858938272 0.0003981670237252756 -0.0022251290236086473 0.0 0.0
0.0 0.005449502723293297 -0.004433806863126552 0.0038973529187092295 0.0005364539444173231 -0.0035572231357424437 0.0 0.0
0.0 0.007930607745458073 -0.006554207934316522 0.005911869992045262 0.0006423379422712595 -0.004855253576617883 0.0 0.0
0.0 0.0108762331773389 -0.008998471766467701 0.008268415859997876 0.0007300559064698183 -0.006117438759946848 0.0 0.0
0.0 0.014291026485828258 -0.01188246497857315 0.011079468527177835 0.0008029964513953181 -0.007396846265484985 0.0 0.0
0.0 0.018428167905014954 -0.015302226916997983 0.01444120097134275 0.0008610259456552336 -0.0088160822412048 0.0 0.0
0.0 0.02308050289797448 -0.01924274922234838 0.018345873285928217 0.000896875936420175 -0.010596058355466184 0.0 0.0
0.0 0.028312958425564153 -0.023415603364624775 0.02251147482417642 0.0009041285404483515 -0.013093617077451087 0.0 0.0
0.0 0.03290467089944011 -0.027107991427319802 0.02623579971232444 0.0008721917149953714 -0.016450250681000284 0.0 0.0
0.0 0.035491297148412676 -0.028917886054729152 0.028114359451891852 0.0008035266028373054 -0.019768387636938098 0.0 0.0
0.0 0.0331759725401811 -0.02649514603118545 0.025816177358811726 0.0006789686723737271 -0.020814695490051178 0.0 0.0
0.0 0.030499930660333817 -0.02158886789816097 0.018603653618308468 0.002985214279852495 1.0559261798270825e-14 0.0 0.0
0.0 0.03317597254018426 -0.026495146031183806 0.025816177358809783 0.0006789686723740144 0.02081469549007466 0.0 0.0
0.0 0.03549129714840724 -0.028917886054721093 0.02811435945188412 0.0008035266028369411 0.019768387636959685 0.0 0.0
0.0 0.03290467089942502 -0.027107991427305946 0.026235799712310524 0.0008721917149954238 0.016450250681009294 0.0 0.0
0.0 0.028312958425543936 -0.02341560336460776 0.022511474824159494 0.0009041285404482706 0.013093617077448967 0.0 0.0
0.0 0.023080502897955688 -0.019242749222332413 0.018345873285912556 0.0008968759364198471 0.010596058355458949 0.0 0.0
0.0 0.01842816790499591 -0.015302226916982083 0.014441200971327409 0.0008610259456546629 0.008816082241197011 0.0 0.0
0.0 0.01429102648580937 -0.011882464978557107 0.011079468527162175 0.0008029964513949388 0.007396846265477354 0.0 0.0
0.0 0.010876233177319825 -0.008998471766451861 0.008268415859982484 0.0007300559064693738 0.006117438759938452 0.0 0.0
0.0 0.007930607745437341 -0.006554207934299748 0.005911869992029189 0.0006423379422705576 0.004855253576606041 0.0 0.0
0.0 0.00544950272327616 -0.004433806863112886 0.003897352918696162 0.0005364539444167245 0.0035572231357307244 0.0 0.0
0.0 0.0034867990604561844 -0.0026082838826524345 0.0022101168589281598 0.00039816702372427477 0.0022251290235992334 0.0 0.0
0.0 0.0015309675043353181 -0.0012103737395149237 0.0009783633579019428 0.0002320103816129803 0.0011241308332781213 0.0 0.0
0.0 0.00043447088676223293 -0.0003453083922265057 0.0002679581366969527 7.735025552955311e-05 0.0003899890775246563 0.0 0.0
0.0 5.8241376816490344e-05 -1.589306581629588e-06 4.981279680011056e-07 1.0911786136286294e-06 -1.001118897598457e-05 0.0 0.0
0.0 -1.3968347042463017e-05 3.5640294983616344e-07 -2.978886753969239e-07 -5.851427443922503e-08 2.641297797637145e-06 0.0 0.0
0.0 -5.763158414601926e-07 1.6765129773486785e-06 -1.3572579238418009e-06 -3.19255053506874e-07 -5.482132215472338e-06 0.0 0.0
0.0 1.8148393401773996e-06 9.641077289680498e-08 -7.935123102457241e-08 -1.7059541872240192e-08 -4.551423426404436e-07 0.0 0.0
0.0 -8.431200300362501e-07 -2.8996678872773777e-08 2.301710339753103e-08 5.979575475243381e-09 1.6687519243153147e-07 0.0 0.0
0.0 4.708975583477513e-08 6.631015331494612e-10 -4.066369110840808e-10 -2.5646462206536185e-10 -9.520651915847124e-09 0.0 0.0
0.0 0.0 0.0 0.0 0.0 0.0 0.0 0.0
0.0 0.0 0.0 0.0 0.0 0.0 0.0 0.0
0.0 0.0 0.0 0.0 0.0 0.0 0.0 0.0
0.0 -2.95889627028445e-07 -1.3592507698731995e-08 1.083743040721265e-08 2.7550772915178707e-09 -5.501979115714737e-08 0.0 0.0
0.0 -2.097984523912069e-06 -1.6953870696053815e-07 1.3810350498320628e-07 3.1435201977338144e-08 -4.598309808724799e-07 0.0 0.0
0.0 8.146646008082866e-06 1.0666933364888372e-06 -8.490265399609685e-07 -2.1766679652786457e-07 2.7662791457058895e-06 0.0 0.0
0.0 4.166304521037773e-06 2.5708960072311736e-05 -2.055133941194571e-05 -5.157620660366102e-06 4.473663613592333e-05 0.0 0.0
0.0 0.0002082486460076763 -0.00015486052578392884 0.00011734198915982249 3.7518536624106535e-05 -0.00013672488703481446 0.0 0.0
0.0 0.0010373543078545132 -0.0008682576824743476 0.0006824535391985797 0.00018580414327576704 -0.0006335399467373872 0.0 0.0
0.0 0.002986344540139576 -0.002251594920183958 0.0018719424972078733 0.00037965242297608446 -0.001548449967581882 0.0 0.0
0.0 0.004932346115732761 -0.004281421317110838 0.0037292726561419087 0.0005521486609689287 -0.0028585665219758244 0.0 0.0
0.0 0.007930417677823424 -0.006720102578252543 0.006046865669199795 0.0006732369090527463 -0.0042043118846818205 0.0 0.0
0.0 0.011278144380688611 -0.009556603474772628 0.008787905748043376 0.0007686977267292466 -0.005526865087655432 0.0 0.0
0.0 0.015146415375099014 -0.012851211737440279 0.011997940707056991 0.0008532710303832866 -0.00682630233411455 0.0 0.0
0.0 0.019722624631632078 -0.01674198488798062 0.015812888951297097 0.0009290959366835062 -0.008177791445390312 0.0 0.0
0.0 0.025102621797227866 -0.021365681829141715 0.020371948151108793 0.0009937336780329227 -0.009689724027661606 0.0 0.0
0.0 0.031657468280185924 -0.026734575790227873 0.02569838133095552 0.001036194459272336 -0.011631662440216515 0.0 0.0
0.0 0.03818328878108815 -0.03252200767857857 0.0314813427717331 0.0010406649068454086 -0.014432765061720356 0.0 0.0
0.0 0.0447383556573381 -0.03771754461030015 0.03672943416279588 0.0009881104475042836 -0.018285566204522322 0.0 0.0
0.0 0.048530138556663174 -0.04039665449308833 0.03952185288999658 0.0008748016030917017 -0.0223815782744566 0.0 0.0
0.0 0.04560457283039019 -0.03743295071412726 0.036750238051779585 0.0006827126623476682 -0.02427383712452366 0.0 0.0
0.0 0.04028326153017413 -0.031062781255202385 0.027466206814243214 0.0035965744409591632 1.1064933691518064e-14 0.0 0.0
0.0 0.045604572830391356 -0.03743295071412385 0.036750238051776574 0.0006827126623472741 0.02427383712454948 0.0 0.0
0.0 0.04853013855665728 -0.04039665449307958 0.03952185288998862 0.0008748016030909655 0.022381578274482953 0.0 0.0
0.0 0.04473835565731891 -0.037717544610282344 0.036729434162778296 0.0009881104475039921 0.018285566204534753 0.0 0.0
0.0 0.038183288781064445 -0.03252200767855805 0.03148134277171278 0.0010406649068452763 0.014432765061719949 0.0 0.0
0.0 0.03165746828016167 -0.026734575790206976 0.02569838133093514 0.0010361944592718446 0.011631662440210109 0.0 0.0
0.0 0.025102621797203847 -0.021365681829120933 0.020371948151088625 0.0009937336780323138 0.009689724027653564 0.0 0.0
0.0 0.019722624631607493 -0.016741984887959492 0.015812888951276204 0.0009290959366832671 0.00817779144538233 0.0 0.0
0.0 0.015146415375074381 -0.01285121173741932 0.011997940707036569 0.0008532710303827526 0.006826302334105639 0.0 0.0
0.0 0.011278144380663978 -0.009556603474751603 0.008787905748022915 0.0007686977267286941 0.005526865087643865 0.0 0.0
0.0 0.007930417677801047 -0.00672010257823375 0.006046865669181414 0.0006732369090523355 0.0042043118846684015 0.0 0.0
0.0 0.00493234611571494 -0.004281421317095399 0.0037292726561274424 0.0005521486609679566 0.0028585665219653337 0.0 0.0
0.0 0.002986344540125818 -0.002251594920173425 0.0018719424971986103 0.0003796524229748155 0.0015484499675747462 0.0 0.0
0.0 0.0010373543078465682 -0.0008682576824682495 0.0006824535391936237 0.00018580414327462556 0.0006335399467332237 0.0 0.0
0.0 0.00020824864600443413 -0.00015486052578215858 0.00011734198915849781 3.751853662366071e-05 0.00013672488703344899 0.0 0.0
0.0 4.166304520815084e-06 2.5708960071663407e-05 -2.0551339411438733e-05 -5.157620660224728e-06 -4.473663613488463e-05 0.0 0.0
0.0 8.14664600670758e-06 1.0666933364622884e-06 -8.490265399428267e-07 -2.1766679651943966e-07 -2.766279145689754e-06 0.0 0.0
0.0 -2.0979845241996146e-06 -1.6953870698109784e-07 1.3810350500005687e-07 3.143520198104925e-08 4.598309809660816e-07 0.0 0.0
0.0 -2.9588962689353585e-07 -1.3592507692400482e-08 1.0837430402124616e-08 2.755077290274585e-09 5.50197911312241e-08 0.0 0.0
0.0 0.0 0.0 0.0 0.0 0.0 0.0 0.0
0.0 0.0 0.0 0.0 0.0 0.0 0.0 0.0
0.0 0.0 0.0 0.0 0.0 0.0 0.0 0.0
0.0 0.0 0.0 0.0 0.0 0.0 0.0 0.0
0.0 -1.336041538324973e-07 -7.0791082984345225e-09 5.607259907490537e-09 1.4718483909442396e-09 -2.3963176664436898e-08 0.0 0.0
0.0 -1.1713468595143503e-06 -1.004889139308608e-07 7.985286927217374e-08 2.063604465868639e-08 -2.052932812506688e-07 0.0 0.0
0.0 -7.226051604939067e-06 -1.379008268131099e-06 1.0646254210967133e-06 3.1438284703438397e-07 -1.7645045278483728e-06 0.0 0.0
0.0 5.843533379440286e-05 1.7832465159303323e-06 -3.3025163238116373e-06 1.5192698078814914e-06 2.8626045359722312e-05 0.0 0.0
0.0 0.0005182114761971529 -0.0004297235669149653 0.00032776981150273355 0.00010195375541223193 -0.0002334073435456366 0.0 0.0
0.0 0.0020547243836988595 -0.0015458119261404003 0.0012452156903043044 0.00030059623583609597 -0.000811256274143241 0.0 0.0
0.0 0.0038839044475241307 -0.0034953109927775613 0.002983911424666143 0.0005113995681114189 -0.001882697325796949 0.0 0.0
0.0 0.00694452539289705 -0.006021324605081026 0.005359918860401227 0.0006614057446798026 -0.0031262227343092025 0.0 0.0
0.0 0.010494085965605906 -0.009070548825645933 0.008298046618288868 0.0007725022073570634 -0.004409347313361377 0.0 0.0
0.0 0.014655734893602407 -0.012631848124643517 0.011766843050100315 0.0008650050745432007 -0.00568165841729964 0.0 0.0
0.0 0.0195240100836313 -0.01678924530953401 0.01583727865531053 0.0009519666542234658 -0.0069531585798069265 0.0 0.0
0.0 0.02534855770668858 -0.021698656232969467 0.020665531595065165 0.0010331246379043162 -0.008304717850282892 0.0 0.0
0.0 0.03209246017717212 -0.027528581663575257 0.02642182801837357 0.0011067536452016658 -0.009837045222772036 0.0 0.0
0.0 0.03986506945525296 -0.034316427804247034 0.03315747919518998 0.001158948609057068 -0.011738582583762992 0.0 0.0
0.0 0.04877285804544872 -0.041665746051606736 0.04050602066331286 0.001159725388293916 -0.014437366053285577 0.0 0.0
0.0 0.056660032936896254 -0.04832851401486503 0.04724588417646996 0.001082629838395047 -0.01836925204316536 0.0 0.0
0.0 0.06096715522175977 -0.05180027502208706 0.05088035681609073 0.000919918205996347 -0.02308470160864291 0.0 0.0
0.0 0.05769984974328284 -0.048244520927279905 0.04757470223038864 0.0006698186968912287 -0.026589712139562214 0.0 0.0
0.0 0.05088578260664128 -0.04052838389377674 0.03637473942626649 0.004153644467510251 1.1808262700974126e-14 0.0 0.0
0.0 0.057699849743280573 -0.04824452092727398 0.047574702230382626 0.0006698186968913421 0.0265897121395899 0.0 0.0
0.0 0.06096715522175042 -0.05180027502207579 0.05088035681608018 0.0009199182059956431 0.0230847016086702 0.0 0.0
0.0 0.0566600329368748 -0.048328514014845336 0.047245884176450495 0.0010826298383948291 0.018369252043180056 0.0 0.0
0.0 0.04877285804542013 -0.04166574605158202 0.04050602066328822 0.001159725388293731 0.014437366053286079 0.0 0.0
0.0 0.03986506945522392 -0.03431642780422166 0.03315747919516537 0.001158948609056307 0.011738582583758265 0.0 0.0
0.0 0.03209246017714205 -0.027528581663549285 0.02642182801834817 0.001106753645201123 0.009837045222765598 0.0 0.0
0.0 0.025348557706658344 -0.02169865623294279 0.020665531595039185 0.0010331246379036208 0.008304717850275384 0.0 0.0
0.0 0.01952401008360184 -0.01678924530950841 0.01583727865528533 0.0009519666542230795 0.006953158579798954 0.0 0.0
0.0 0.01465573489357245 -0.012631848124617859 0.011766843050075167 0.0008650050745426757 0.005681658417288497 0.0 0.0
0.0 0.010494085965579873 -0.00907054882562371 0.008298046618267276 0.0007725022073564314 0.00440934731334874 0.0 0.0
0.0 0.006944525392875899 -0.006021324605062889 0.005359918860383856 0.0006614057446790356 0.0031262227342991763 0.0 0.0
0.0 0.0038839044475097685 -0.003495310992763935 0.002983911424653764 0.0005113995681101692 0.0018826973257895163 0.0 0.0
0.0 0.0020547243836880496 -0.0015458119261319942 0.0012452156902972 0.00030059623583479286 0.0008112562741387169 0.0 0.0
0.0 0.0005182114761927416 -0.0004297235669117222 0.0003277698115002593 0.00010195375541146337 0.00023340734354395152 0.0 0.0
0.0 5.843533379264822e-05 1.7832465163017215e-06 -3.3025163240859472e-06 1.519269807784012e-06 -2.8626045359826745e-05 0.0 0.0
0.0 -7.226051605460514e-06 -1.3790082685665701e-06 1.064625421436234e-06 3.143828471303091e-07 1.7645045283724231e-06 0.0 0.0
0.0 -1.1713468595057117e-06 -1.0048891392458618e-07 7.985286926721422e-08 2.0636044657372375e-08 2.0529328125146915e-07 0.0 0.0
0.0 -1.3360415377959937e-07 -7.079108295548217e-09 5.6072599052097004e-09 1.4718483903391005e-09 2.396317665472527e-08 0.0 0.0
0.0 0.0 0.0 0.0 0.0 0.0 0.0 0.0
0.0 0.0 0.0 0.0 0.0 0.0 0.0 0.0
0.0 0.0 0.0 0.0 0.0 0.0 0.0 0.0
0.0 0.0 0.0 0.0 0.0 0.0 0.0 0.0
0.0 0.0 0.0 0.0 0.0 0.0 0.0 0.0
0.0 -1.5817237750522803e-06 -1.538520557590121e-07 1.2283271539839009e-07 3.101934036059894e-08 -2.547452805419446e-07 0.0 0.0
0.0 2.2595035885375754e-06 1.3246369747954993e-05 -1.0561908333501713e-05 -2.684461414453234e-06 1.5510746169649457e-05 0.0 0.0
0.0 0.00012262867819084474 -0.00012873076144670882 9.533434598605508e-05 3.339641546065342e-05 -5.3404532578740026e-05 0.0 0.0
0.0 0.0011273061845856126 -0.0008077656801614158 0.0006267925451388169 0.00018097313502259948 -0.0002843204293939874 0.0 0.0
0.0 0.002686820519863803 -0.0024127654483226575 0.0019951898331426097 0.00041757561518004856 -0.0009597471622526764 0.0 0.0
0.0 0.005385057459666107 -0.004778351306074522 0.00416951023258328 0.0006088410734912419 -0.001938822976870515 0.0 0.0
0.0 0.00887844252164136 -0.007809965558363555 0.007063647096438877 0.0007463184619246741 -0.0030430535472156296 0.0 0.0
0.0 0.013130043075649694 -0.011461891037764578 0.010610408351437138 0.0008514826863274311 -0.004203883500274048 0.0 0.0
0.0 0.01815135150478552 -0.015753296043941205 0.014807452042510584 0.0009458440014306188 -0.005354643713393061 0.0 0.0
0.0 0.024110516337071574 -0.020787841709764446 0.019750109367488333 0.0010377323422761085 -0.006522877610503287 0.0 0.0
0.0 0.03080935280677346 -0.026739718803492026 0.0256136803652105 0.001126038438281532 -0.007800778976949636 0.0 0.0
0.0 0.03905794693097564 -0.033760000561038436 0.03255385737968017 0.0012061431813582728 -0.009262705848799246 0.0 0.0
0.0 0.04857464244322517 -0.0418923593183155 0.04062538234852548 0.0012669769697899783 -0.010966765089625068 0.0 0.0
0.0 0.058692274523200846 -0.05073034247973317 0.04945753741908708 0.0012728050606460586 -0.01319366368824304 0.0 0.0
0.0 0.06819030926338114 -0.0588062585949515 0.05763295532762893 0.001173303267322613 -0.016674884962824793 0.0 0.0
0.0 0.0736052512290745 -0.0631148544162758 0.06215745833752204 0.0009573960787537411 -0.02187321875695361 0.0 0.0
0.0 0.069817842737771 -0.05914757364831484 0.05850662478685352 0.0006409488614613058 -0.027973098009129324 0.0 0.0
0.0 0.06157355946117735 -0.050248238934736775 0.0455817171382881 0.00466652179644868 1.2520366687862605e-14 0.0 0.0
0.0 0.06981784273776487 -0.059147573648306244 0.05850662478684475 0.0006409488614615142 0.027973098009155685 0.0 0.0
0.0 0.07360525122905826 -0.06311485441625936 0.06215745833750579 0.000957396078753457 0.021873218756979507 0.0 0.0
0.0 0.06819030926335495 -0.05880625859492825 0.05763295532760563 0.0011733032673225973 0.016674884962839677 0.0 0.0
0.0 0.058692274523168435 -0.050730342479704815 0.04945753741905906 0.0012728050606457832 0.013193663688245006 0.0 0.0
0.0 0.048574642443191 -0.0418923593182856 0.04062538234849617 0.001266976969789398 0.01096676508962207 0.0 0.0
0.0 0.03905794693094062 -0.033760000561007975 0.03255385737965025 0.0012061431813577236 0.009262705848794408 0.0 0.0
0.0 0.030809352806739625 -0.026739718803462414 0.025613680365181933 0.0011260384382804707 0.007800778976943005 0.0 0.0
0.0 0.024110516337035485 -0.02078784170973293 0.019750109367456914 0.0010377323422760285 0.006522877610495225 0.0 0.0
0.0 0.01815135150475141 -0.01575329604391146 0.014807452042481515 0.0009458440014299481 0.005354643713383105 0.0 0.0
0.0 0.013130043075620506 -0.01146189103773915 0.010610408351412318 0.0008514826863268264 0.004203883500263062 0.0 0.0
0.0 0.008878442521616684 -0.007809965558341843 0.00706364709641788 0.0007463184619239587 0.0030430535472059476 0.0 0.0
0.0 0.005385057459648694 -0.004778351306058602 0.004169510232568464 0.0006088410734901362 0.0019388229768639942 0.0 0.0
0.0 0.002686820519851067 -0.0024127654483113025 0.0019951898331325565 0.0004175756151787474 0.0009597471622477014 0.0 0.0
0.0 0.0011273061845779142 -0.0008077656801557172 0.0006267925451342397 0.00018097313502147655 0.00028432042939157125 0.0 0.0
0.0 0.00012262867818838095 -0.0001287307614453859 9.533434598506581e-05 3.339641546031974e-05 5.340453257843584e-05 0.0 0.0
0.0 2.2595035873439955e-06 1.3246369747906075e-05 -1.0561908333460681e-05 -2.684461414445261e-06 -1.5510746169618493e-05 0.0 0.0
0.0 -1.581723774969868e-06 -1.538520557728593e-07 1.2283271540901077e-07 3.1019340363849584e-08 2.5474528055987544e-07 0.0 0.0
0.0 0.0 0.0 0.0 0.0 0.0 0.0 0.0
0.0 0.0 0.0 0.0 0.0 0.0 0.0 0.0
0.0 0.0 0.0 0.0 0.0 0.0 0.0 0.0
0.0 0.0 0.0 0.0 0.0 0.0 0.0 0.0
0.0 0.0 0.0 0.0 0.0 0.0 0.0 0.0
0.0 0.0 0.0 0.0 0.0 0.0 0.0 0.0
0.0 -7.843801655750038e-07 -3.120279883694719e-08 2.3804721908018592e-08 7.398076928937542e-09 -8.293731060718036e-09 0.0 0.0
0.0 8.441029897780743e-06 1.731812268061616e-05 -1.395546060482638e-05 -3.362662075789566e-06 1.4199742263198006e-05 0.0 0.0
0.0 0.0003727793696509501 -0.00027197550741485903 0.00020176200299345677 7.021350442140241e-05 -4.225897680858394e-05 0.0 0.0
0.0 0.001590580669162553 -0.0013502924734720748 0.0010713799323107092 0.0002789125411613646 -0.0003184918451604597 0.0 0.0
0.0 0.0036633694990926553 -0.003330242644699339 0.0028196578326026983 0.0005105848120966397 -0.000940226206249055 0.0 0.0
0.0 0.006809571620136457 -0.006099649665052701 0.005411721909977072 0.0006879277550756249 -0.001727140728532611 0.0 0.0
0.0 0.010891799742179156 -0.00962160076422613 0.008807150404232343 0.0008144503599937874 -0.0026419491249418075 0.0 0.0
0.0 0.01578767029005355 -0.013877390854742615 0.012959002076056856 0.0009183887786857524 -0.0036065143838365154 0.0 0.0
0.0 0.021676028812909254 -0.018907226021405522 0.017889872655883075 0.001017353365522449 -0.004565846783144792 0.0 0.0
0.0 0.028395657207407575 -0.024839428136662206 0.023722933085750537 0.0011164950509116494 -0.005550002868356949 0.0 0.0
0.0 0.03671610278493753 -0.031835220899433615 0.03062540708138202 0.0012098138180516096 -0.006659973806042755 0.0 0.0
0.0 0.04609426248565349 -0.04003749633724865 0.038743805428210175 0.001293690909038433 -0.007966446196299132 0.0 0.0
0.0 0.05675954734296018 -0.04942512864362829 0.048064206110235735 0.0013609225333926277 -0.009399927232521971 0.0 0.0
0.0 0.06856346388340956 -0.05956891081181645 0.05818809876250635 0.0013808120493100427 -0.010902716702891538 0.0 0.0
0.0 0.0795411176197928 -0.06899358286134705 0.0677171444572254 0.0012764384041216768 -0.013261635394549817 0.0 0.0
0.0 0.08607156359731022 -0.07436088326163387 0.07335664482283002 0.0010042384388038793 -0.018639727681820817 0.0 0.0
0.0 0.08238959776160508 -0.07036838975456056 0.06977690482622066 0.0005914849283399794 -0.028215443035712322 0.0 0.0
0.0 0.07336064484189767 -0.06050464008785249 0.055377232470755024 0.005127407617097473 1.1352897788530214e-14 0.0 0.0
0.0 0.08238959776159668 -0.07036838975455072 0.06977690482621093 0.0005914849283397481 0.028215443035734866 0.0 0.0
0.0 0.08607156359729103 -0.0743608832616156 0.07335664482281222 0.0010042384388033775 0.018639727681844895 0.0 0.0
0.0 0.07954111761976122 -0.06899358286131946 0.06771714445719774 0.001276438404121677 0.013261635394563515 0.0 0.0
0.0 0.06856346388337217 -0.05956891081178388 0.05818809876247414 0.0013808120493096871 0.01090271670289386 0.0 0.0
0.0 0.056759547342920394 -0.0494251286435937 0.04806420611020149 0.0013609225333921881 0.009399927232520516 0.0 0.0
0.0 0.04609426248561318 -0.04003749633721362 0.03874380542817584 0.001293690909037771 0.007966446196295407 0.0 0.0
0.0 0.03671610278489928 -0.031835220899400045 0.030625407081349438 0.0012098138180505842 0.006659973806036955 0.0 0.0
0.0 0.028395657207365026 -0.024839428136625447 0.02372293308571401 0.001116495050911442 0.00555000286835036 0.0 0.0
0.0 0.021676028812871714 -0.018907226021372226 0.017889872655850552 0.0010173533655216736 0.004565846783137366 0.0 0.0
0.0 0.015787670290018676 -0.013877390854712068 0.012959002076026741 0.0009183887786853203 0.003606514383826691 0.0 0.0
0.0 0.01089179974214933 -0.009621600764200077 0.008807150404206808 0.0008144503599932689 0.0026419491249329284 0.0 0.0
0.0 0.006809571620115512 -0.006099649665033704 0.005411721909959031 0.0006879277550746715 0.0017271407285269491 0.0 0.0
0.0 0.003663369499077416 -0.0033302426446850477 0.0028196578325896276 0.0005105848120954203 0.0009402262062444145 0.0 0.0
0.0 0.0015905806691529241 -0.0013502924734639329 0.0010713799323039239 0.00027891254116000947 0.00031849184515786357 0.0 0.0
0.0 0.0003727793696467218 -0.0002719755074119997 0.00020176200299128753 7.021350442071245e-05 4.225897680788862e-05 0.0 0.0
0.0 8.441029897369901e-06 1.731812268010949e-05 -1.3955460604416871e-05 -3.3626620756927706e-06 -1.4199742262565654e-05 0.0 0.0
0.0 -7.843801657570562e-07 -3.120279876533912e-08 2.3804721850701712e-08 7.398076914642335e-09 8.293730960435976e-09 0.0 0.0
0.0 0.0 0.0 0.0 0.0 0.0 0.0 0.0
0.0 0.0 0.0 0.0 0.0 0.0 0.0 0.0
0.0 0.0 0.0 0.0 0.0 0.0 0.0 0.0
0.0 0.0 0.0 0.0 0.0 0.0 0.0 0.0
0.0 0.0 0.0 0.0 0.0 0.0 0.0 0.0
0.0 0.0 0.0 0.0 0.0 0.0 0.0 0.0
0.0 7.187229598705419e-07 8.463335519122874e-08 -6.176879738647556e-08 -2.286455780476825e-08 5.165437736512387e-08 0.0 0.0
0.0 2.8809905016629056e-05 -2.908231343813142e-05 1.9650530151828023e-05 9.431783286303413e-06 5.064024741984206e-06 0.0 0.0
0.0 0.0007254032797615258 -0.0005217855723084327 0.000393522433894252 0.00012826313841418028 -1.2347991098222918e-05 0.0 0.0
0.0 0.002076648611895309 -0.00198656700121298 0.0016142879982900154 0.00037227900292296373 -0.00028504291363856124 0.0 0.0
0.0 0.004706643426898124 -0.004279936128097664 0.0036902513278891384 0.0005896848002085295 -0.0007102213225140294 0.0 0.0
0.0 0.008265497657739687 -0.007437973275382891 0.006686206119772746 0.0007517671556101414 -0.0012760488085507872 0.0 0.0
0.0 0.012907804582568336 -0.011442786276180873 0.010571425085511349 0.0008713611906695292 -0.0019352895079357342 0.0 0.0
0.0 0.01854751976612341 -0.01630185668949536 0.015324439931481817 0.0009774167580135294 -0.0026312015631861693 0.0 0.0
0.0 0.02514535886641351 -0.022080818520307213 0.02099829219154701 0.0010825263287602056 -0.0033219850428268505 0.0 0.0
0.0 0.033207801478128324 -0.028913907486531894 0.027725786973182287 0.001188120513349607 -0.004041550125567207 0.0 0.0
0.0 0.042238362018564214 -0.03697938871048337 0.03569093813210436 0.0012884505783789585 -0.004901183140040719 0.0 0.0
0.0 0.05305668298103375 -0.04634614338863077 0.04497161063898431 0.0013745327496465177 -0.005931054101740876 0.0 0.0
0.0 0.0652256135498989 -0.05688187049187775 0.05544516655531218 0.001436703936565537 -0.00700369592838683 0.0 0.0
0.0 0.0781774991076983 -0.0680909839655841 0.06662374694773159 0.0014672370178526184 -0.007845931416057607 0.0 0.0
0.0 0.09041893364979967 -0.07869342868013678 0.07727761680265585 0.00141581187748093 -0.008755232074702626 0.0 0.0
0.0 0.09843935567885685 -0.08545840713038803 0.08435996580459046 0.0010984413257976262 -0.012879859415485513 0.0 0.0
0.0 0.09557378855979695 -0.08216425454444759 0.08165878195810646 0.0005054725863409915 -0.02645904008219686 0.0 0.0
0.0 0.08630342927180217 -0.07172117878766479 0.06621750356296113 0.005503675224703516 8.206109403108286e-15 0.0 0.0
0.0 0.0955737885597862 -0.0821642545444365 0.0816587819580958 0.0005054725863407338 0.026459040082215352 0.0 0.0
0.0 0.09843935567883122 -0.08545840713036514 0.0843599658045676 0.001098441325797562 0.012879859415504515 0.0 0.0
0.0 0.09041893364976453 -0.07869342868010623 0.07727761680262576 0.0014158118774804562 0.008755232074712724 0.0 0.0
0.0 0.0781774991076554 -0.06809098396554691 0.06662374694769442 0.001467237017852497 0.00784593141605982 0.0 0.0
0.0 0.06522561354985648 -0.05688187049184064 0.05544516655527599 0.0014367039365647083 0.00700369592838705 0.0 0.0
0.0 0.053056682980986584 -0.046346143388590035 0.04497161063894384 0.0013745327496461988 0.0059310541017380935 0.0 0.0
0.0 0.042238362018519035 -0.03697938871044403 0.03569093813206584 0.001288450578378165 0.00490118314003595 0.0 0.0
0.0 0.033207801478082936 -0.028913907486492196 0.027725786973143093 0.0011881205133490987 0.004041550125563233 0.0 0.0
0.0 0.025145358866369417 -0.02208081852026907 0.020998292191509303 0.0010825263287597238 0.0033219850428219573 0.0 0.0
0.0 0.018547519766084576 -0.016301856689460863 0.015324439931447791 0.000977416758013085 0.0026312015631782828 0.0 0.0
0.0 0.012907804582536498 -0.0114427862761523 0.010571425085483489 0.000871361190668813 0.001935289507929495 0.0 0.0
0.0 0.008265497657715701 -0.007437973275360962 0.006686206119751776 0.0007517671556091898 0.0012760488085465206 0.0 0.0
0.0 0.0047066434268808665 -0.004279936128081564 0.003690251327874234 0.0005896848002073271 0.0007102213225106844 0.0 0.0
0.0 0.002076648611885291 -0.0019865670012033897 0.0016142879982817503 0.00037227900292163813 0.0002850429136365859 0.0 0.0
0.0 0.0007254032797567367 -0.0005217855723046643 0.00039352243389133583 0.00012826313841332785 1.234799109776379e-05 0.0 0.0
0.0 2.8809905015385263e-05 -2.9082313437923152e-05 1.965053015169523e-05 9.431783286227802e-06 -5.064024741817104e-06 0.0 0.0
0.0 7.187229594391122e-07 8.463335514353968e-08 -6.176879735139436e-08 -2.2864557792165992e-08 -5.165437734438602e-08 0.0 0.0
0.0 0.0 0.0 0.0 0.0 0.0 0.0 0.0
0.0 0.0 0.0 0.0 0.0 0.0 0.0 0.0
0.0 0.0 0.0 0.0 0.0 0.0 0.0 0.0
0.0 0.0 0.0 0.0 0.0 0.0 0.0 0.0
0.0 0.0 0.0 0.0 0.0 0.0 0.0 0.0
0.0 0.0 0.0 0.0 0.0 0.0 0.0 0.0
0.0 -1.3436295043230912e-06 6.036166224401299e-07 -5.103593351118241e-07 -9.325728732830449e-08 3.4975828889970825e-07 0.0 0.0
0.0 0.00015789087737975283 -8.519100408492145e-05 5.941497853189178e-05 2.577602555302958e-05 2.475947103325145e-05 0.0 0.0
0.0 0.001047803547710095 -0.0008846936302071114 0.0006811105425801931 0.0002035830876269183 4.9706638216629733e-05 0.0 0.0
0.0 0.0028350090622140858 -0.0026392612096943903 0.0021914095785718064 0.0004478516311225845 -9.437673444326786e-05 0.0 0.0
0.0 0.005755023759014561 -0.00524601262885748 0.004590686027469502 0.0006553266013879747 -0.00030769808595845945 0.0 0.0
0.0 0.009799820662188544 -0.008776123982829018 0.007972345496946656 0.0008037784858823631 -0.000592026124260602 0.0 0.0
0.0 0.014932891589352962 -0.013259264974085265 0.01233841319720719 0.000920851776878067 -0.0009308235952285967 0.0 0.0
0.0 0.021242654400159912 -0.018724664780385872 0.017693955069998317 0.0010307097103875564 -0.0012807240077207145 0.0 0.0
0.0 0.02892167779651939 -0.02525772242357495 0.02411563899356814 0.001142083430006809 -0.001624493557961402 0.0 0.0
0.0 0.0375633690730516 -0.03301589006680394 0.031760927633283156 0.0012549624335207884 -0.0020253307347935295 0.0 0.0
0.0 0.048068516346071614 -0.042134935144475 0.04077315154036872 0.0013617836041062625 -0.0025168121773893504 0.0 0.0
0.0 0.06017358933505122 -0.052643493990881834 0.0511944039790464 0.0014490900118354505 -0.003104077997525244 0.0 0.0
0.0 0.07360966075954327 -0.06428086524098559 0.06277647691431056 0.0015043883266750962 -0.003726209485540339 0.0 0.0
0.0 0.08758540945761585 -0.07635226851406779 0.07482952046838189 0.001522748045685867 -0.004140670442276147 0.0 0.0
0.0 0.10069850180233919 -0.08767738314448009 0.08615750872141195 0.0015198744230681717 -0.004169411705953667 0.0 0.0
0.0 0.11026428513235496 -0.09594734165749923 0.09456391397417663 0.0013834276833225158 -0.0055870857093733624 0.0 0.0
0.0 0.1096258084143822 -0.09479730371154915 0.09434648525335153 0.000450818458197684 -0.0185288352831985 0.0 0.0
0.0 0.10143922373119163 -0.0848398935883926 0.07930868950368666 0.005531204084705862 4.211908599671688e-15 0.0 0.0
0.0 0.10962580841436806 -0.09479730371153604 0.09434648525333843 0.0004508184581976062 0.018528835283208936 0.0 0.0
0.0 0.11026428513232317 -0.09594734165747179 0.09456391397414865 0.001383427683322961 0.005587085709384107 0.0 0.0
0.0 0.10069850180229913 -0.08767738314444538 0.08615750872137776 0.0015198744230676413 0.004169411705959553 0.0 0.0
0.0 0.08758540945756868 -0.07635226851402674 0.07482952046834117 0.0015227480456856473 0.004140670442276947 0.0 0.0
0.0 0.07360966075949506 -0.06428086524094352 0.06277647691426926 0.0015043883266742542 0.0037262094855407832 0.0 0.0
0.0 0.06017358933499842 -0.05264349399083602 0.051194403979001005 0.0014490900118350072 0.00310407799752369 0.0 0.0
0.0 0.04806851634601908 -0.04213493514442942 0.04077315154032366 0.0013617836041057098 0.002516812177387146 0.0 0.0
0.0 0.03756336907300053 -0.03301589006675948 0.03176092763323929 0.0012549624335201912 0.0020253307347916525 0.0 0.0
0.0 0.028921677796469418 -0.025257722423531356 0.024115638993524875 0.001142083430006475 0.0016244935579583833 0.0 0.0
0.0 0.02124265440011697 -0.018724664780348524 0.01769395506996146 0.001030709710387056 0.001280724007716527 0.0 0.0
0.0 0.014932891589318702 -0.013259264974054708 0.012338413197177454 0.0009208517768772497 0.0009308235952253914 0.0 0.0
0.0 0.009799820662161727 -0.00877612398280456 0.007972345496923034 0.0008037784858815196 0.0005920261242583037 0.0 0.0
0.0 0.005755023758995748 -0.005246012628839914 0.004590686027453034 0.0006553266013868796 0.00030769808595679915 0.0 0.0
0.0 0.0028350090622017285 -0.002639261209682513 0.002191409578561206 0.00044785163112130634 9.437673444200536e-05 0.0 0.0
0.0 0.0010478035477041786 -0.0008846936302020677 0.0006811105425761709 0.00020358308762589625 -4.9706638216640386e-05 0.0 0.0
0.0 0.00015789087737806164 -8.519100408430153e-05 5.941497853148516e-05 2.5776025552816426e-05 -2.4759471032961602e-05 0.0 0.0
0.0 -1.3436295044746864e-06 6.036166220968921e-07 -5.103593348578374e-07 -9.325728723899575e-08 -3.497582888908572e-07 0.0 0.0
0.0 0.0 0.0 0.0 0.0 0.0 0.0 0.0
0.0 0.0 0.0 0.0 0.0 0.0 0.0 0.0
0.0 0.0 0.0 0.0 0.0 0.0 0.0 0.0
0.0 0.0 0.0 0.0 0.0 0.0 0.0 0.0
0.0 0.0 0.0 0.0 0.0 0.0 0.0 0.0
0.0 0.0 0.0 0.0 0.0 0.0 0.0 0.0
0.0 4.3212265715479356e-07 1.1763307875001586e-06 -8.491307031919342e-07 -3.2720008430809924e-07 -1.0078754549352026e-07 0.0 0.0
0.0 0.00033280894796582674 -0.00017777854401423193 0.00012373242352905066 5.404612048518172e-05 6.130850197154371e-05 0.0 0.0
0.0 0.0014319815416681154 -0.0012201175680486831 0.0009309924724907393 0.00028912509555794333 0.0001601477213057944 0.0 0.0
0.0 0.003430392816986677 -0.0031977616179448905 0.0026290454257264922 0.0005687161922183995 0.00018459794746397175 0.0 0.0
0.0 0.006601833330530497 -0.006042825654718191 0.005227286739940245 0.0008155389147779439 0.0002044439221797641 0.0 0.0
0.0 0.010918356524511192 -0.009877403611140534 0.008858132163489534 0.0010192714476509965 0.00021868141213183764 0.0 0.0
0.0 0.016512807688860265 -0.014754297087751937 0.013539404395900772 0.0012148926918511592 0.0002052500531506019 0.0 0.0
0.0 0.023430796292446175 -0.020728335370615626 0.019298113916424012 0.0014302214541916122 0.00021133071654511797 0.0 0.0
0.0 0.03146524490429095 -0.027910625268724402 0.02623567036127493 0.0016749549074494636 0.00023256856901170088 0.0 0.0
0.0 0.04112834727962955 -0.03643362382546709 0.034490880332420516 0.0019427434930465465 0.00019329998537119097 0.0 0.0
0.0 0.05250103887065643 -0.04642052737810955 0.044196538127688464 0.002223989250421059 0.00013283969672770596 0.0 0.0
0.0 0.0655806576571222 -0.057863215878847296 0.05536808526262765 0.002495130616219585 -2.9243233178125223e-05 0.0 0.0
0.0 0.0799978109779316 -0.07039784290249042 0.06767505914960328 0.002722783752887101 -0.00030381301309056856 0.0 0.0
0.0 0.09470670639999529 -0.08314189200916577 0.08027506990693836 0.0028668221022272724 -0.0006017142252439656 0.0 0.0
0.0 0.10809588432958821 -0.09470360100692897 0.09182080497103473 0.00288279603589409 -0.0007296143082207232 0.0 0.0
0.0 0.11815977679377439 -0.10348727398356547 0.10064696013323884 0.002840313850326652 -0.0010331944393714276 0.0 0.0
0.0 0.12043486834990563 -0.10589092282613759 0.10321711037088752 0.0026738124552500636 -0.012856837122773497 0.0 0.0
0.0 0.11631119219961639 -0.09868942611753119 0.09001611913029231 0.008673306987238847 1.394717674685353e-15 0.0 0.0
0.0 0.12043486834988736 -0.10589092282612161 0.10321711037087175 0.002673812455249807 0.012856837122776611 0.0 0.0
0.0 0.11815977679373901 -0.10348727398353497 0.10064696013320863 0.0028403138503263654 0.0010331944393748883 0.0 0.0
0.0 0.10809588432954226 -0.09470360100688875 0.09182080497099576 0.002882796035893069 0.0007296143082229801 0.0 0.0
0.0 0.09470670639994451 -0.08314189200912114 0.08027506990689495 0.002866822102225929 0.0006017142252440991 0.0 0.0
0.0 0.07999781097787755 -0.07039784290244307 0.06767505914955718 0.0027227837528859336 0.0003038130130909207 0.0 0.0
0.0 0.06558065765706587 -0.057863215878797634 0.055368085262579844 0.0024951306162177903 2.9243233177598735e-05 0.0 0.0
0.0 0.05250103887059837 -0.04642052737805879 0.04419653812763895 0.0022239892504198203 -0.00013283969672859847 0.0 0.0
0.0 0.0411283472795734 -0.036433623825417844 0.034490880332372555 0.001942743493045295 -0.0001932999853713731 0.0 0.0
0.0 0.031465244904236404 -0.027910625268676766 0.026235670361228418 0.0016749549074483428 -0.00023256856901371272 0.0 0.0
0.0 0.023430796292401128 -0.020728335370576008 0.019298113916385456 0.0014302214541905504 -0.00021133071654657514 0.0 0.0
0.0 0.016512807688822448 -0.014754297087718936 0.01353940439586894 0.0012148926918500074 -0.0002052500531515007 0.0 0.0
0.0 0.010918356524481148 -0.00987740361111375 0.008858132163463811 0.0010192714476499436 -0.00021868141213221256 0.0 0.0
0.0 0.006601833330509749 -0.006042825654698941 0.0052272867399223094 0.0008155389147766331 -0.0002044439221796522 0.0 0.0
0.0 0.0034303928169721115 -0.0031977616179309346 0.0026290454257140257 0.0005687161922169093 -0.00018459794746395006 0.0 0.0
0.0 0.0014319815416617668 -0.0012201175680424101 0.0009309924724857656 0.00028912509555664506 -0.00016014772130525708 0.0 0.0
0.0 0.00033280894796382384 -0.00017777854401323145 0.00012373242352839412 5.4046120484838466e-05 -6.130850197109894e-05 0.0 0.0
0.0 4.32122656803961e-07 1.1763307876278522e-06 -8.491307032881814e-07 -3.272000843396852e-07 1.0078754548779527e-07 0.0 0.0
0.0 0.0 0.0 0.0 0.0 0.0 0.0 0.0
0.0 0.0 0.0 0.0 0.0 0.0 0.0 0.0
0.0 0.0 0.0 0.0 0.0 0.0 0.0 0.0
SCALARS Wm float 4
LOOKUP_TABLE default
10.10969954926683 1.9215373596124956 3.955932172348635 4.232230017305692
4.547723321299848 2.268310592574816 0.985332547467093 1.2940801812579399
0.517875557789256 0.5194182346127081 -0.004423938947747141 0.0028812621242952224
0.440931605770571 0.4376017026883624 0.0010736464224032618 0.0022562566598052195
0.7701129967119785 0.6509239060512843 0.04203954047649108 0.07714955018420301
1.484424278770861 0.8617076521398861 0.20488254908424258 0.41783407754673196
2.855323942603877 1.1658749029778757 0.6660071892984064 1.0234418503275968
4.975499829697845 1.5077822637733602 1.4986137432715403 1.9691038226529383
7.996073171147031 1.908540840089907 2.8195781920620777 3.2679541389950484
12.06198130894498 2.401086818105829 4.730302235760645 4.9305922550785155
17.318804879886475 3.0289533898810745 7.319311206702018 6.970540283303382
23.855351335662323 3.8256083242031265 10.604029688351144 9.425713323108074
31.975834937086415 4.795807643842345 14.834890454094937 12.345136839149138
41.8596808063475 5.9440525175576315 20.139543957896326 15.77608433089354
53.54973357432015 7.190077320371409 26.636290721007704 19.723365532941052
66.78107984938036 8.37690737254089 34.2970396608913 24.107132815948173
80.79383256097206 9.296331700372617 42.75237317786915 28.74512768273028
94.3891058164053 9.767540662816074 51.3462469940019 33.27531815958734
106.14977599038727 9.781472410393107 59.121565196208195 37.246738383785974
114.34676102044033 9.364897901885133 64.81594138085603 40.165921737699136
117.12665109719609 8.705712146249361 67.0679889435366 41.35295000741014
114.34676102042522 9.364897901881825 64.815941380848 40.1659217376954
106.14977599035798 9.78147241039113 59.12156519618995 37.24673838377689
94.38910581637202 9.767540662824045 51.34624699397488 33.275318159573125
80.79383256091992 9.296331700361735 42.75237317784222 28.74512768271595
66.78107984933563 8.376907372540803 34.29703966086283 24.107132815932033
53.54973357427336 7.190077320367539 26.636290720980774 19.72336553292504
41.85968080630366 5.944052517555348 20.139543957870764 15.776084330877534
31.97583493704277 4.795807643839571 14.834890454070424 12.345136839132795
23.85535133562194 3.8256083241979253 10.604029688330627 9.425713323093397
17.31880487985204 3.0289533898756558 7.319311206685615 6.970540283290757
12.061981308918774 2.4010868181018594 4.730302235748517 4.930592255068406
7.996073171127335 1.9085408400856905 2.819578192054095 3.2679541389875504
4.975499829684586 1.507782263772253 1.4986137432657114 1.969103822646622
2.8553239425954073 1.1658749029758284 0.6660071892956435 1.0234418503239355
1.4844242787665456 0.8617076521387385 0.20488254908331194 0.41783407754449564
0.7701129967106732 0.6509239060509179 0.04203954047614447 0.07714955018361078
0.44093160577021695 0.4376017026879522 0.0010736464224131296 0.0022562566598516806
0.5178755577885706 0.5194182346122196 -0.004423938947785838 0.0028812621241367403
4.547723321295419 2.268310592575041 0.9853325474649118 1.2940801812554654
10.109699549243604 1.9215373596011143 3.95593217234227 4.232230017300222
11.737235201570511 5.304767998222548 3.0067886452553823 3.425678558092585
1.6363737675864207 0.36800763288309785 0.5039206091346499 0.7644455255686724
0.22799171007151528 0.24288697819698893 -0.003609353115286047 -0.011285915010187606
0.3528435379630408 0.3524712448542417 -4.591374644156905e-06 0.000376884483443346
0.5932309580637163 0.5357321351470876 0.016165923965568433 0.04133289895106052
1.197969556811892 0.7563492299664559 0.1501179071681119 0.2915024196773244
2.350674958232578 0.9772259829053103 0.5236196560812844 0.8498293192459832
4.2179781279820805 1.2343989762113123 1.264768333294679 1.7188108184760906
6.888643707554231 1.5067949079553449 2.4592296524936157 2.9226191471052707
10.440724944161943 1.8080771390721873 4.170333691808201 4.462314113281556
14.981400556728971 2.15417496719108 6.481914411691537 6.345311177846355
20.690792381704227 2.5657523755827123 9.525939638920965 8.599100367200547
27.587238298843484 3.05549998295613 13.249252780279846 11.282485535607497
36.100385253190545 3.6144070051586157 18.0431766251464 14.442801622885538
46.219758491467886 4.20597668264064 23.91172242267326 18.102059386153986
57.757712011079136 4.735220040288024 30.835128536789302 22.18736343400181
70.12243881171669 5.078019372342126 38.55091448273339 26.49350495664117
82.30652528466051 5.142465783394145 46.44282345095094 30.72123605031543
92.94903248785998 4.898750650919235 53.603184164200954 34.4470976727398
100.44860281639228 4.397581693775313 58.91437402913289 37.136647093484
103.1973097904023 3.882884873326967 61.09400475171121 38.22042016536418
100.44860281638319 4.397581693778664 58.91437402912467 37.136647093479844
92.94903248783619 4.898750650920472 53.603184164184455 34.4470976727313
82.30652528462291 5.1424657833907235 46.44282345092856 30.721236050303645
70.122438811678 5.0780193723416875 38.55091448270882 26.493504956627497
57.75771201103707 4.7352200402854585 30.83512853676418 22.18736343398745
46.21975849142779 4.205976682640114 23.911722422648598 18.102059386139086
36.100385253152005 3.6144070051580295 18.043176625123227 14.442801622870741
27.58723829880577 3.0554999829552125 13.249252780257981 11.28248553559257
20.690792381671116 2.5657523755819818 9.525939638902269 8.599100367186866
14.981400556699212 2.1541749671874126 6.481914411676948 6.345311177834853
10.44072494413882 1.8080771390694372 4.1703336917973095 4.462314113272068
6.8886437075376925 1.506794907953322 2.459229652486304 2.9226191470980636
4.217978127970569 1.234398976210504 1.264768333289655 1.7188108184704103
2.3506749582257283 0.9772259829042724 0.523619656078869 0.8498293192425863
1.1979695568083502 0.7563492299653065 0.15011790716716833 0.2915024196758752
0.5932309580625791 0.5357321351464128 0.016165923965400928 0.04133289895076535
0.35284353796273255 0.3524712448538737 -4.591374636620817e-06 0.0003768844834955248
0.22799171007149746 0.24288697819685307 -0.003609353115250852 -0.011285915010104704
1.6363737675816825 0.3680076328826525 0.5039206091326629 0.7644455255663678
11.737235201548181 5.3047679982122435 3.006788645249127 3.425678558086806
8.664983233873954 4.147000576321109 2.014274360802593 2.503708296750249
0.9834931621198391 0.12954662333579092 0.3256169925906466 0.528329546193402
0.1433684283050754 0.14336886476273378 -1.80369121587346e-08 -4.1842074621861334e-07
0.2670443003079522 0.2668436543978209 5.603513856862735e-05 0.00014461077156263397
0.46159917133674583 0.4490590454824501 0.0024357770465028086 0.010104348807792889
0.9344440572479756 0.6793751345016449 0.08406812829798782 0.17100079444834354
1.8935215598106705 0.894283387445402 0.36047188415332343 0.6387662882119449
3.52372754144024 1.1441284611992455 0.9779725783973529 1.4016265018436413
5.8673490761629665 1.3997212814263071 1.9899913254524544 2.4776364692842034
9.001660016512785 1.6725814199625852 3.473917699823708 3.8551608967264928
12.975539900239927 1.9785318711177118 5.4657454131026295 5.531262616019584
17.874259997924938 2.334044291818134 8.010501855997402 7.529713850109402
23.993852169127067 2.7623582831948146 11.336495876694435 9.894998009237822
31.3146395569545 3.25812804044065 15.357430114049547 12.69908140246429
40.17199463276286 3.7823193150335013 20.43341285678486 15.956262460944492
50.33040078992555 4.268851726712861 26.44379930166346 19.617749761549224
61.30295428283116 4.618961279723968 33.15753733191911 23.526455671188085
72.19618980180806 4.729718740938376 40.0947304828846 27.371740577985072
81.75621948574984 4.534572244508825 46.45714397005063 30.764503271190375
88.53876185408801 4.141235327759681 51.18905415874097 33.20847236758736
90.97157057227955 3.546184644207216 53.18393958909139 34.241446338980964
88.53876185407192 4.141235327753246 51.18905415873473 33.208472367583916
81.75621948573283 4.534572244514763 46.457143970035595 30.764503271182445
72.19618980178257 4.729718740941134 40.09473048286646 27.371740577975004
61.30295428279504 4.618961279721351 33.15753733189777 23.526455671175913
50.33040078988865 4.268851726709491 26.443799301642418 19.61774976153672
40.17199463272577 3.782319315030197 20.43341285676405 15.95626246093151
31.31463955691997 3.2581280404397988 15.35743011402929 12.699081402450881
23.993852169093675 2.7623582831924307 11.336495876676237 9.89499800922501
17.87425999789508 2.3340442918172055 8.01050185598091 7.529713850096966
12.975539900215399 1.9785318711166917 5.465745413089782 5.531262616008922
9.00166001649287 1.6725814199605142 3.473917699814379 3.855160896717976
5.867349076148362 1.399721281425934 1.9899913254454193 2.477636469277008
3.5237275414299356 1.1441284611981222 0.9779725783931326 1.4016265018386815
1.893521559804683 0.894283387444388 0.3604718841514194 0.6387662882088753
0.9344440572453357 0.6793751345005684 0.0840681282974109 0.17100079444735672
0.4615991713359762 0.44905904548179226 0.002435777046462336 0.010104348807721295
0.267044300307821 0.2668436543976853 5.603513856845528e-05 0.00014461077156716434
0.14336842830506247 0.1433688647627205 -1.8036912141597065e-08 -4.184207459031903e-07
0.9834931621164811 0.12954662333595243 0.325616992589125 0.528329546191403
8.664983233853231 4.147000576311858 2.0142743607968785 2.503708296744497
6.449175961255118 3.2174965583886133 1.3779567392460503 1.8537226636204547
0.6368347119804469 0.07529718904577806 0.19843973490250633 0.36309778803216264
0.10136293385856071 0.10136293385856071 0.0 0.0
0.2014898209200399 0.20146878800094853 3.1776186276204116e-06 1.7855300463747044e-05
0.3622553104326877 0.36892908448574757 -0.001722844860466971 -0.004950929192592866
0.7016709683693753 0.5812547916764835 0.03371263454098316 0.08670354215190838
1.4894156569317945 0.8200923330116502 0.23495227573374763 0.43437104818639666
2.856128854361156 1.0478232811964872 0.7149530950492766 1.0933524781153925
4.886332311309771 1.2882859736729229 1.559032362825938 2.03901397481091
7.597078504828577 1.5358575150627471 2.8075885385399353 3.253632451225897
10.999733201026203 1.802736395345452 4.4705622916869405 4.7264345139938095
15.22646364607742 2.1126470000838267 6.64379114030733 6.470025505686258
20.34899410084386 2.478937485747768 9.338878782671921 8.531177832424175
26.747054787821593 2.9070218986950196 12.874554095632455 10.965478793494132
34.31811657872528 3.373737549516264 17.124132480285702 13.820246548923302
43.05103346743522 3.821527744913486 22.174458557216866 17.055047165304877
52.68485884428934 4.174544591883937 27.983791249531194 20.526523002874203
62.34237794363994 4.331748669520935 34.01244343806389 23.998185836055104
70.90780046683537 4.217757515683605 39.58261881762584 27.10742413352592
77.08393605962013 3.9017789821048736 43.78625202960206 29.39590504791322
79.305601805128 3.192257444668721 45.71258088688391 30.40076347357537
77.0839360596164 3.9017789821090676 43.786252029596824 29.395905047910475
70.90780046681456 4.217757515681334 39.58261881761389 27.107424133519356
62.34237794361338 4.331748669519396 34.01244343804784 23.998185836046144
52.68485884426055 4.174544591882731 27.983791249513846 20.52652300286398
43.051033467404146 3.8215277449117218 22.17445855719872 17.055047165293725
34.318116578694074 3.3737375495126836 17.124132480268933 13.82024654891245
26.747054787789068 2.9070218986903145 12.874554095615974 10.965478793482783
20.348994100817407 2.4789374857486326 9.338878782656156 8.531177832412618
15.22646364605147 2.112647000081569 6.643791140294147 6.470025505675756
10.999733201004256 1.802736395344345 4.470562291675768 4.7264345139841435
7.597078504811488 1.5358575150612948 2.807588538531885 3.253632451218307
4.88633231129653 1.2882859736715813 1.559032362820178 2.0390139748047713
2.8561288543528662 1.0478232811956718 0.7149530950461187 1.093352478111076
1.4894156569269188 0.8200923330104519 0.23495227573222277 0.4343710481842435
0.7016709683673765 0.5812547916753859 0.03371263454066345 0.08670354215132726
0.36225531043219167 0.3689290844851114 -0.0017228448604480933 -0.004950929192471585
0.20148982091989395 0.20146878800082405 3.1776186257206937e-06 1.785530044423007e-05
0.10136293385844838 0.10136293385844838 0.0 0.0
0.6368347119772751 0.07529718904567814 0.19843973490118766 0.36309778803040926
6.449175961239124 3.2174965583820527 1.3779567392416592 1.853722663615413
4.721317725988305 2.4740400054604557 0.9035391479735787 1.3437385725542692
0.46764170925591164 0.10693971990593965 0.13381534880600027 0.22688664054397195
0.09201740904901767 0.09201740904901767 0.0 0.0
0.15942074928167646 0.15941332046315815 4.1024249203392503e-07 7.018576026238409e-06
0.28754644810271085 0.28887857036273673 -0.0003055310880073451 -0.001026591172018483
0.526053918750905 0.5007537810588668 0.0052149731062009 0.020085164585837118
1.1236428349963583 0.7247170107241458 0.13911732846456826 0.25980849580764487
2.2259621699112344 0.9466217775955603 0.4817575680361745 0.7975828242795
3.9382669441784683 1.1703559616290253 1.1590561759293407 1.6088548066201027
6.228800820614159 1.3949085398428538 2.1737971317591898 2.660095149012116
9.108502983483184 1.630245503876151 3.547890887426739 3.9303665921802917
12.638247520782436 1.8944992650680232 5.319960161810752 5.4237880939036645
16.976093255538178 2.207884206877378 7.589171939597818 7.179037109062977
22.181746443289402 2.573102399338892 10.349427214429259 9.259216829521247
28.587770859077416 2.973759193682231 13.913642068194584 11.700369597200613
36.07258135296747 3.38447259852983 18.19756725391397 14.49054150052366
44.271744923746525 3.742333103724245 22.99540175913269 17.534010060889592
52.69908719923056 3.95084725480686 28.13534132105836 20.612898623365346
60.34686937073678 3.925269989336673 33.00065367100944 23.42094571039066
66.04528785609907 3.674865157998827 36.80915413651873 25.56126856158148
68.12558531511355 2.8356768737987474 38.68843178483079 26.601476656484046
66.04528785609035 3.6748651579982323 36.80915413651354 25.561268561578572
60.34686937072257 3.9252699893362824 33.0006536710006 23.420945710385684
52.69908719920873 3.9508472548053795 28.135341321045516 20.612898623357832
44.271744923725464 3.742333103727499 22.995401759117584 17.534010060880377
36.07258135294271 3.384472598530508 18.19756725389844 14.490541500513759
28.587770859051858 2.9737591936794825 13.91364206818097 11.700369597191411
22.181746443264938 2.5731023993370097 10.349427214416115 9.259216829511796
16.976093255513756 2.2078842068760527 7.589171939584798 7.179037109052907
12.638247520762002 1.8944992650675938 5.319960161799846 5.423788093894561
9.108502983464753 1.6302455038745998 3.547890887417886 3.930366592172269
6.228800820599631 1.3949085398415662 2.1737971317525426 2.6600951490055227
3.9382669441675136 1.1703559616272372 1.1590561759251279 1.6088548066151467
2.225962169904185 0.9466217775946582 0.4817575680335662 0.7975828242759598
1.1236428349925836 0.7247170107230566 0.13911732846350586 0.2598084958060215
0.5260539187497699 0.500753781058144 0.00521497310607519 0.020085164585550472
0.2875464481023645 0.288878570362362 -0.000305531088002977 -0.001026591171994393
0.1594207492814499 0.15941332046293583 4.1024249179030226e-07 7.018576022264267e-06
0.0920174090488132 0.0920174090488132 0.0 0.0
0.46764170925338683 0.10693971990585603 0.13381534880493556 0.2268866405425956
4.721317725975677 2.4740400054551612 0.9035391479703196 1.3437385725501956
3.387562778256171 1.8909870779587847 0.571280471627214 0.9252952286701729
0.3317972468086335 0.143108721988005 0.05799143012211123 0.13069709469851695
0.10296899097336473 0.10296899097336473 0.0 0.0
0.13807182046485775 0.13807213992753803 -1.2239768657509634e-08 -3.072229116306911e-07
0.2353764219801757 0.23594507071152157 -8.379029686608344e-05 -0.00048485843447979276
0.39725040807965883 0.40130089514426254 -0.0026749495517962786 -0.0013755375128073786
0.7942505860717253 0.6056714117598367 0.05168505344419212 0.1368941208676964
1.6772992514375094 0.8426532580002539 0.3164051141809022 0.5182408792563534
3.013181206924026 1.0405472457302327 0.7824417127275204 1.1901922484662717
4.919402296058674 1.2496253654896432 1.5934747852167874 2.0763021453522423
7.278792033775308 1.455533141254902 2.6786692712130007 3.144589621307406
10.143890710647065 1.6804814518230826 4.0713670132461015 4.392042245577881
13.623440881188612 1.9429872756754112 5.832947683326585 5.847505922186618
17.908023307754167 2.2486537986551083 8.090250271729609 7.569119237369447
23.066388456068456 2.59736783517106 10.865300554629378 9.603720066268016
29.14012033800523 2.958201351713244 14.232422748501591 11.949496237790395
36.12384408172825 3.305642984189588 18.2884254479592 14.529775649579474
43.30706212582848 3.5750259517934704 22.518204515209796 17.213831658825214
50.002996985962035 3.646259122912304 26.61667479923871 19.74006306381103
55.309944111569976 3.4614012118923814 30.09499563011082 21.753547269566784
57.312279379834436 2.4829679414572094 31.988661683976805 22.84064975440041
55.30994411156473 3.461401211892719 30.094995630107316 21.75354726956468
50.00299698595181 3.6462591229143317 26.61667479923102 19.740063063806478
43.307062125808535 3.5750259517891343 22.518204515200072 17.213831658819327
36.123844081707404 3.305642984189793 18.28842544794631 14.529775649571306
29.140120337983486 2.9582013517128076 14.23242274848885 11.949496237781831
23.066388456048834 2.5973678351706746 10.865300554618111 9.603720066260038
17.90802330773438 2.2486537986540873 8.09025027171896 7.569119237361333
13.623440881167786 1.9429872756715842 5.832947683317189 5.847505922179013
10.143890710629156 1.6804814518216176 4.07136701323734 4.392042245570201
7.278792033760548 1.4555331412546906 2.678669271205552 3.1445896213003075
4.919402296046702 1.2496253654883844 1.5934747852116498 2.076302145346665
3.013181206915305 1.04054724572927 0.782441712724095 1.1901922484619405
1.677299251431963 0.8426532579992472 0.31640511417896217 0.5182408792537528
0.7942505860691161 0.6056714117587201 0.051685053443663524 0.13689412086673278
0.3972504080787055 0.401300895143358 -0.002674949551810521 -0.0013755375128417775
0.2353764219798773 0.23594507071121618 -8.37902968650788e-05 -0.0004848584344738332
0.1380718204645896 0.1380721399272692 -1.2239768622387086e-08 -3.0722291093115194e-07
0.1029689909731051 0.1029689909731051 0.0 0.0
0.33179724680677947 0.14310872198783944 0.0579914301214179 0.13069709469752228
3.3875627782464055 1.8909870779545719 0.5712804716248853 0.9252952286669479
2.3383218163216983 1.4232718098298842 0.31994176392047896 0.5951082425713357
0.25701549141303637 0.18255175149832692 0.019322665834034566 0.05514107408067483
0.12328539391050075 0.12328539391050075 0.0 0.0
0.13301939234867857 0.13301939234867857 0.0 0.0
0.19991220506815352 0.19979219762837122 1.122869259387209e-05 0.00010877874718846257
0.310641154766494 0.3210540698978707 -0.0025090963065132013 -0.007903818824863431
0.5591526375012513 0.5056629289502862 0.010510879237139243 0.042978829313825725
1.1369524954655579 0.6980127061399166 0.1388172673884235 0.3001225219372177
2.2220016709938046 0.9171291788943718 0.5184815993407332 0.7863908927587
3.6435521261315267 1.0913236142667007 1.0486242007109414 1.5036043111538855
5.528860219326029 1.276228266557244 1.8808359795078333 2.371795973260952
7.771722371214361 1.4672471512799266 2.929219211095193 3.375256008839242
10.46116648015902 1.6842300004852473 4.240027188652524 4.5369092910212485
13.746419211096148 1.9362346895644698 5.904130671163334 5.906053850368342
17.749782003273857 2.2251122141618422 7.991918916290759 7.532750872821256
22.638646156511896 2.5489880119364683 10.662154381696634 9.427503762878795
28.037948363035692 2.874074067838433 13.606129896630547 11.557744398566719
34.0560206949012 3.1794196278280884 17.079715602430635 13.796885464642472
39.99014969003869 3.3626446843745 20.613508103272267 16.013996902391916
44.888197746729816 3.2646537394773416 23.69411813477401 17.92942587247849
46.88827836494235 2.142743946232412 25.646321363136426 19.099213055573525
44.88819774672707 3.2646537394789608 23.69411813477125 17.92942587247685
39.990149690031544 3.362644684378373 20.613508103265467 16.0139969023877
34.0560206948891 3.179419627827661 17.079715602423533 13.796885464637898
28.037948363018277 2.8740740678369217 13.606129896621034 11.55774439856032
22.63864615649436 2.54898801193567 10.662154381686843 9.427503762871845
17.749782003256072 2.2251122141587154 7.991918916282444 7.532750872814908
13.746419211081545 1.936234689564462 5.904130671155274 5.906053850361805
10.461166480144962 1.6842300004841353 4.240027188645575 4.536909291015251
7.771722371201735 1.4672471512802485 2.9292192110884794 3.375256008833009
5.528860219312742 1.276228266554582 1.8808359795026137 2.3717959732555447
3.643552126121939 1.0913236142653784 1.0486242007070772 1.5036043111494832
2.222001670986658 0.9171291788929676 0.5184815993381314 0.7863908927555587
1.1369524954616126 0.698012706139026 0.13881726738723926 0.30012252193534744
0.5591526374996184 0.5056629289493637 0.010510879236907172 0.042978829313347545
0.3106411547658066 0.32105406989705004 -0.0025090963064731903 -0.007903818824770219
0.19991220506770738 0.19979219762792372 1.1228692593733897e-05 0.00010877874718988818
0.1330193923483808 0.1330193923483808 0.0 0.0
0.12328539391014834 0.12328539391014834 0.0 0.0
0.2570154914117151 0.1825517514981059 0.019322665833614285 0.055141074079994835
2.3383218163146227 1.4232718098267367 0.31994176391896156 0.5951082425689248
1.6012512385163076 1.103543580471048 0.17980003379915696 0.31790762424610314
0.19971866971656624 0.1954002796379118 -0.005667439911084119 0.00998582998973847
0.14568697484924115 0.14569216029509413 -2.1719582759986377e-07 -4.968250025342334e-06
0.1390971996440436 0.13908228792689897 1.0560203186344187e-06 1.3855696825976251e-05
0.17876346703859064 0.17890241654381633 -1.365833151504002e-05 -0.00012529117371062908
0.25505640100783045 0.2596509967032308 -0.0010412571131054476 -0.0035533385822949953
0.3935444954632069 0.398858462379318 -0.003946127501668297 -0.0013678394144427861
0.7321234954402209 0.5593922265643149 0.04279771812207685 0.12993355075382979
1.419455476627875 0.7447897740931377 0.22985652501718615 0.44480917751755117
2.5219200181881876 0.9296709607168505 0.6407593333165928 0.9514897241547435
3.8646118619517895 1.0837039772217822 1.1678549827782028 1.6130529019518047
5.506463866762324 1.2441116218618675 1.883797290553319 2.378554954347139
7.470213093653082 1.4233058606328268 2.795231702681825 3.251675530338427
9.837764108063967 1.6252174283120007 3.9362810069833833 4.2762656727685835
12.773412029184882 1.8640157135983844 5.4130351520041025 5.496361163582398
16.306633572146588 2.1390274137503487 7.225655844093314 6.941950314302933
20.528108985267945 2.440288025831529 9.498586666242144 8.589234293194275
25.161229149484036 2.7629623986824137 11.998995788891436 10.399270961910181
30.015227669074594 3.0441636457483434 14.697166186821002 12.273897836505249
34.605355731509434 3.073650054136695 17.47041329077953 14.061292386593202
36.69666932935675 1.817241459473868 19.532726498078798 15.346701371804096
34.60535573150651 3.073650054136251 17.470413290777962 14.061292386592289
30.01522766906457 3.044163645745598 14.697166186816615 12.273897836502368
25.161229149475105 2.762962398683073 11.99899578888579 10.399270961906247
20.528108985252913 2.440288025827525 9.49858666623577 8.589234293189621
16.306633572132444 2.1390274137483076 7.225655844086454 6.941950314297679
12.773412029174327 1.8640157135980022 5.413035151998513 5.4963611635778165
9.837764108051969 1.6252174283094893 3.9362810069782985 4.276265672764179
7.4702130936432285 1.4233058606331688 2.7952317026765603 3.2516755303334985
5.506463866751368 1.244111621860441 1.8837972905486369 2.3785549543422895
3.8646118619441676 1.0837039772216879 1.1678549827747058 1.6130529019477726
2.521920018181315 0.9296709607156713 0.6407593333139974 0.9514897241516465
1.4194554766235743 0.7447897740921787 0.22985652501582354 0.44480917751557214
0.7321234954375846 0.5593922265632136 0.04279771812155266 0.12993355075281798
0.3935444954621234 0.3988584623784708 -0.003946127501710332 -0.0013678394146370838
0.2550564010073854 0.25965099670251257 -0.0010412571130698233 -0.0035533385820574804
0.17876346703824286 0.17890241654349984 -1.3658331517523972e-05 -0.00012529117373944753
0.1390971996438104 0.13908228792667054 1.056020318217606e-06 1.3855696821625504e-05
0.1456869748488121 0.14569216029465418 -2.171958270000216e-07 -4.968250015090288e-06
0.19971866971574645 0.1954002796375848 -0.005667439911226459 0.009985829989388116
1.6012512385112363 1.1035435804687967 0.17980003379801524 0.31790762424442437
1.030172696259015 0.8215553429720183 0.061171849576925466 0.14744550371007115
0.17523856029792778 0.19403030451886033 -0.006981483644083495 -0.011810260576849115
0.16574466530678353 0.16583073436338516 -7.296353753386552e-06 -7.877270284823133e-05
0.15164408180714825 0.1516732197560669 -1.9411755506939065e-06 -2.7196773367962188e-05
0.17023718058404938 0.17029628907709535 -7.400449447274791e-06 -5.170804359870197e-05
0.2186187125919799 0.22002916285995727 -0.00038142765562305817 -0.0010290226123543355
0.2979841443298603 0.3101999424996343 -0.003726612823730339 -0.008489185346043641
0.4588283332174106 0.4356207991737715 0.0033861882279448445 0.019821345815694412
0.8083635675972138 0.5683848845789039 0.06658334460851607 0.17339533840979382
1.4424783627124715 0.7176136383085113 0.2555453386660168 0.4693193857379438
2.306445313457645 0.852992076796212 0.5540340225865606 0.8994192140748727
3.3881597265080963 0.9910113131357825 0.9831029411053962 1.4140454722669165
4.66939471865078 1.136490313601417 1.5262642864242595 2.0066401186251035
6.202965724275829 1.2949381575640964 2.209162486191299 2.698865080520432
8.10209794271808 1.4830767624454504 3.0952329663168827 3.5237882139557466
10.466869159796131 1.7111350861016184 4.240011281565297 4.515722792129213
13.348737884518009 1.9875570504888547 5.670050461898473 5.691130372130677
16.66162237486145 2.284476809837275 7.346835545758909 7.030310019265273
20.471318909845266 2.635105966557444 9.31812781214198 8.518085131145835
24.680844010268988 2.8753637273974704 11.66276723626917 10.14271304660235
26.889094041219884 1.5335076963691199 13.715012403345836 11.640573941504925
24.680844010272 2.875363727401756 11.662767236268415 10.142713046601827
20.4713189098414 2.6351059665564835 9.318127812140306 8.518085131144618
16.661622374858585 2.284476809842764 7.346835545754147 7.030310019261671
13.348737884508639 1.9875570504867308 5.670050461894475 5.691130372127436
10.466869159788105 1.7111350861014012 4.240011281561078 4.515722792125627
8.1020979427112 1.4830767624457912 3.0952329663130977 3.5237882139523062
6.202965724270166 1.2949381575629637 2.2091624861890016 2.6988650805182037
4.669394718642949 1.1364903135993467 1.5262642864215068 2.0066401186220952
3.3881597265017125 0.991011313134986 0.9831029411027521 1.4140454722639735
2.306445313451587 0.8529920767959904 0.5540340225840337 0.8994192140715629
1.4424783627082503 0.7176136383072423 0.2555453386647786 0.4693193857362291
0.8083635675948093 0.568384884578334 0.06658334460786415 0.17339533840861102
0.45882833321630057 0.43562079917285285 0.003386188227900761 0.019821345815546877
0.2979841443293595 0.3101999424988944 -0.003726612823698677 -0.008489185345836196
0.2186187125914353 0.22002916285923546 -0.00038142765559881237 -0.0010290226122013548
0.1702371805837597 0.17029628907684477 -7.400449452094586e-06 -5.170804363292631e-05
0.15164408180686914 0.1516732197557789 -1.941175549920733e-06 -2.7196773359839426e-05
0.16574466530647602 0.1658307343630548 -7.2963537516321735e-06 -7.877270282710897e-05
0.1752385602974156 0.19403030451824949 -0.006981483644056903 -0.011810260576777027
1.0301726962558333 0.8215553429704638 0.06117184957633706 0.14744550370903292
0.6698425721142404 0.630989033116938 0.009930240334295855 0.028923298663006646
0.16711575801902057 0.17416676514746937 -0.0016639133181595542 -0.00538709381028922
0.18096217659642333 0.18097957063208897 -9.224449329999089e-07 -1.6471590732581265e-05
0.16691555442476602 0.166929637875899 -6.269657850398564e-07 -1.3456485347957748e-05
0.17191460229082875 0.17190092101937535 3.4691910472380345e-06 1.0212080406141121e-05
0.2000319318241349 0.20240152203135686 -0.00047662365392507026 -0.0018929665532968105
0.24716979669333144 0.25276584670708646 -0.0017706374308726993 -0.0038254125828823334
0.31266485667055244 0.30084817696907606 0.0018746765627990474 0.009942003138677257
0.4203488131807577 0.36850135328844447 0.01194604708071777 0.03990141281159536
0.6347149862451469 0.45545638894837104 0.05045997518756411 0.1287986221092118
1.0248957387746176 0.5704562298262583 0.16009736417331843 0.2943421447750403
1.523900653514318 0.6614303343742962 0.31025604869840984 0.5522142704416124
2.1653464428105442 0.7536115485494398 0.5416788880993509 0.8700560061617539
2.9649663684062295 0.8595436850985044 0.8535884081409933 1.2518342751667324
3.9583142419440507 0.9898965365314268 1.257947832998097 1.710469872414526
5.237790929918565 1.162254031837899 1.7958172595233883 2.279719638557277
6.921105517727217 1.395343670140569 2.5287602394413797 2.9970016081452666
9.09244170093008 1.682315058473521 3.5267925742600554 3.8833340681965014
11.660056322627517 1.9736635304242827 4.753463240654908 4.9329295515483285
15.071823381327707 2.483962302365806 6.341924118442059 6.245936960519838
17.97010419663518 1.3311255359795764 8.640117476424546 7.998861184231055
15.071823381325855 2.4839623023630693 6.341924118442555 6.245936960520227
11.660056322625778 1.9736635304235894 4.753463240654309 4.932929551547875
9.092441700922324 1.6823150584723523 3.5267925742565356 3.8833340681934363
6.92110551772341 1.3953436701416833 2.5287602394388156 2.997001608142909
5.237790929912645 1.1622540318357797 1.7958172595215136 2.279719638555353
3.9583142419416264 0.9898965365328689 1.2579478329962945 1.7104698724124616
2.964966368403788 0.859543685098399 0.8535884081398945 1.2518342751654936
2.1653464428082865 0.7536115485493532 0.5416788880984011 0.8700560061605315
1.5239006535110153 0.6614303343737087 0.31025604869726436 0.5522142704400421
1.0248957387713116 0.5704562298253962 0.16009736417233553 0.2943421447735798
0.6347149862439047 0.45545638894762963 0.05045997518739431 0.12879862210888074
0.4203488131798236 0.3685013532880613 0.011946047080541713 0.03990141281122063
0.3126648566702115 0.300848176968775 0.0018746765627844072 0.009942003138652088
0.24716979669294714 0.25276584670663815 -0.0017706374308610964 -0.0038254125828299486
0.20003193182369805 0.2024015220309297 -0.0004766236539234015 -0.00189296655330826
0.17191460229048655 0.17190092101900814 3.4691910495680358e-06 1.0212080428849803e-05
0.16691555442454664 0.16692963787566298 -6.269657839693201e-07 -1.3456485332418166e-05
0.18096217659602498 0.18097957063167858 -9.224449321673981e-07 -1.6471590721401528e-05
0.167115758018744 0.17416676514708385 -0.0016639133181302987 -0.005387093810209494
0.6698425721125951 0.6309890331158047 0.009930240334141114 0.02892329866264941
0.4409754917393407 0.4388021523290122 0.00014223253672168774 0.002031106873606879
0.16384420562454247 0.16409389719005651 -1.539846080154831e-05 -0.0002342931047124995
0.19081053542248277 0.19094451620360392 -1.105474144848618e-05 -0.00012292603967267707
0.18203345081190156 0.18207805568316057 -3.0090264717618683e-06 -4.159584478721377e-05
0.18109025727286468 0.18109565285764803 3.9458864817556315e-07 -5.790173431598466e-06
0.1986210842540166 0.20087649495384047 -0.0004628815192274186 -0.0017925291805964724
0.23172393074974812 0.2365654682893102 -0.0014785726197725443 -0.0033629649197893584
0.2703656054200202 0.25379699553194657 0.002698817892862008 0.013869791995211619
0.30459777280455347 0.2501383117703273 0.015326076129398911 0.039133384904827415
0.339257877127957 0.2215835023410535 0.033902989848297226 0.08377138493860622
0.410717330367497 0.20185040441995908 0.072396924008805 0.1364700019387332
0.5241111814316701 0.1988938504078656 0.11383962156730566 0.21137770945649875
0.700734905864878 0.22256559046411933 0.17890022719094043 0.29926908820981857
0.9427419145272463 0.2700416906929517 0.2659546297131284 0.40674559412116623
1.2841387687949708 0.28769486848512976 0.40372427254999227 0.5927196277598479
1.732727358267615 0.29356218136999457 0.593081935560017 0.8460832413376033
2.3331202367295965 0.3107858710589252 0.8650757192478831 1.1572586464227883
3.1330267584055136 0.3511842665754163 1.2382017817649644 1.5436407100651315
4.430788548742696 0.5197194082495908 1.797766764249403 2.1133023762437038
7.1588160703443675 1.355143238847796 2.6812196971439564 3.1224531343526154
11.801394750700986 1.1687009535527402 5.210478130519396 5.42221566662885
7.158816070348801 1.3551432388496436 2.681219697145389 3.122453134353771
4.430788548741135 0.5197194082488785 1.7977667642489994 2.1133023762432583
3.133026758407568 0.35118426658022983 1.2382017817634206 1.5436407100639171
2.3331202367249264 0.3107858710573804 0.8650757192463927 1.1572586464211507
1.7327273582656053 0.29356218136986456 0.593081935559217 0.8460832413365231
1.2841387687913268 0.287694868483516 0.40372427254910986 0.5927196277587009
0.9427419145261569 0.27004169069241474 0.26595462971286826 0.4067455941208741
0.7007349058636541 0.2225655904645537 0.1789002271902205 0.29926908820887965
0.5241111814301529 0.19889385040768254 0.11383962156679564 0.21137770945567524
0.4107173303664208 0.20185040442012409 0.07239692400828887 0.13647000193800746
0.3392578771277762 0.2215835023409921 0.03390298984826718 0.08377138493851718
0.30459777280426226 0.2501383117703599 0.015326076129289769 0.03913338490461261
0.270365605419597 0.25379699553181534 0.0026988178927708456 0.01386979199501075
0.23172393074918807 0.23656546828869754 -0.0014785726197605207 -0.0033629649197489116
0.19862108425341934 0.2008764949530661 -0.00046288151919799927 -0.0017925291804488303
0.1810902572724942 0.18109565285729531 3.9458864404082984e-07 -5.790173445231866e-06
0.182033450811602 0.18207805568284122 -3.009026470089872e-06 -4.1595844769073125e-05
0.1908105354221323 0.19094451620324165 -1.105474144691902e-05 -0.00012292603966245578
0.1638442056242874 0.16409389718981704 -1.539846080253624e-05 -0.00023429310472714837
0.4409754917382655 0.4388021523277908 0.0001422325367279263 0.002031106873746659
0.29465551026938264 0.29469893897777794 -2.4699665670363174e-06 -4.095874182818501e-05
0.15551974709533647 0.15552381458848505 -3.861226354782416e-07 -3.6813705130687944e-06
0.19463506702662406 0.1945986393817802 3.190405678564828e-06 3.323723916521672e-05
0.19490771788722994 0.19496593316946176 -4.697108408866033e-06 -5.351817382301497e-05
0.1954671254203928 0.19574068565437472 -3.895985399312144e-05 -0.0002346003799887789
0.21328516412764187 0.2140148298478436 -0.0002806286597311727 -0.00044903706047051597
0.2539100902534298 0.26122860093244715 -0.0019454656320394197 -0.005373045046977932
0.3148111062142849 0.30214191804744767 0.002233579058903294 0.010435609107933936
0.4205946241242621 0.36818587677093945 0.012144076981903743 0.04026467037141876
0.6337125503610346 0.45492967989009114 0.050265799130506515 0.12851707134043716
1.0236159170629344 0.5738128189539257 0.15868597423695588 0.29111712387205313
1.528396157035437 0.6618897395580515 0.3131644246435238 0.5533419928338621
2.17620797735598 0.7555843635845333 0.5454458843962611 0.8751777293751861
2.985867725907489 0.8629568646616399 0.8618990934748599 1.2610117677709896
3.953870259757698 0.9857638459302773 1.2584689482222429 1.7096374656051787
5.061967791267482 1.1219035962328738 1.732618214793759 2.2074459802408493
6.177795864012432 1.263140600876702 2.2219797678891546 2.6926754952465775
7.110965453159872 1.397712977511196 2.6668308862322796 3.0464215894163984
7.444050246557325 1.4725153566707823 2.8314865273326757 3.1400483625538653
5.971523340078381 0.7563361658706158 2.5312967140733424 2.6838904601344242
11.939672778967637 2.1178965881316145 4.709545318747765 5.112230872088257
5.971523340079619 0.756336165868534 2.531296714075139 2.6838904601359412
7.444050246556351 1.4725153566707476 2.8314865273321708 3.1400483625534354
7.110965453147787 1.3977129775017267 2.6668308862308443 3.046421589415217
6.177795864007386 1.2631406008773491 2.221979767886263 2.692675495243777
5.061967791263981 1.121903596234287 1.7326182147913594 2.207445980238334
3.953870259754664 0.9857638459308227 1.258468948220624 1.7096374656032174
2.985867725902336 0.8629568646607082 0.8618990934729119 1.2610117677687172
2.1762079773488003 0.7555843635826448 0.5454458843938943 0.8751777293722611
1.5283961570305533 0.661889739557512 0.3131644246417164 0.5533419928313246
1.023615917058472 0.5738128189526996 0.15868597423562802 0.29111712387014466
0.6337125503589536 0.45492967988914695 0.05026579913012083 0.12851707133968568
0.42059462412339804 0.36818587677034437 0.012144076981826606 0.04026467037122698
0.3148111062136603 0.3021419180470153 0.002233579058842248 0.010435609107802828
0.2539100902527994 0.2612286009317872 -0.0019454656320338443 -0.005373045046953873
0.2132851641270196 0.21401482984710077 -0.0002806286597154353 -0.0004490370603657672
0.19546712542006422 0.19574068565404604 -3.89598539932481e-05 -0.0002346003799885805
0.1949077178868156 0.19496593316906435 -4.69710841068446e-06 -5.351817383800327e-05
0.19463506702646552 0.19459863938160718 3.1904056793260094e-06 3.323723917896743e-05
0.1555197470950042 0.1555238145881449 -3.861226352988379e-07 -3.681370505393053e-06
0.2946555102687375 0.2946989389771059 -2.4699665649585164e-06 -4.095874180351584e-05
0.19000645978047223 0.19000645978047223 0.0 0.0
0.14169940598417533 0.1416908985330412 4.6505239045753023e-07 8.042398743661904e-06
0.19166220034000475 0.1916728749380285 -6.212266519077512e-08 -1.061247535855677e-05
0.20430040445988748 0.20424591816882956 7.561930689466413e-06 4.692436036847682e-05
0.21330746800919437 0.2132833529353464 2.2648586723483384e-05 1.4664871245161418e-06
0.24375065747636893 0.25025786176998466 -0.0012516560608225806 -0.0052555482327932244
0.30879195839418117 0.31169077731887357 -0.0020066420744486732 -0.0008921768502436565
0.46265721277269667 0.43659626687945985 0.004351090411904693 0.02170985548133226
0.807925321564198 0.568121524707457 0.0665070787952957 0.17329671806144545
1.4405468064653872 0.7174010980273708 0.2547444529328438 0.4684012555051722
2.3056419195165456 0.8528009808597414 0.5536889682338713 0.8991519704229319
3.3909252442864224 0.991358173262707 0.9842219992032879 1.4153450718204277
4.678955559173419 1.1376826439762295 1.5304236458182254 2.010849269378964
6.220948611805429 1.2961690397619265 2.2179131453555216 2.706866426687979
8.098297655861504 1.4760387064305627 3.0977456266787957 3.5245133227521475
10.298620452053083 1.668412647449422 4.173796430052085 4.45641137455157
12.646249796033182 1.8640834941903313 5.35038314315745 5.431783158685403
14.760559690692194 2.0704847605626635 6.387713219364367 6.302361710765167
15.900078517663015 2.1341280798826556 7.003455394302913 6.762495043477448
14.708732467388883 2.1369358558450253 6.416103897810295 6.15569271373356
17.699193677069427 4.707750243148275 6.539912909329571 6.451530524591574
14.708732467392714 2.136935855844947 6.4161038978125395 6.155692713735226
15.900078517662237 2.1341280798831943 7.0034553943021525 6.76249504347689
14.760559690685 2.0704847605619525 6.3877132193606885 6.302361710762353
12.646249796021458 1.8640834941882227 5.350383143152132 5.431783158681105
10.29862045204147 1.6684126474469294 4.17379643004718 4.456411374547361
8.09829765585056 1.4760387064272686 3.0977456266747896 3.5245133227484993
6.22094861179593 1.2961690397608476 2.217913145351298 2.7068664266837836
4.678955559165884 1.137682643977374 1.5304236458140044 2.0108492693745044
3.3909252442769082 0.991358173261559 0.9842219991993634 1.4153450718159863
2.305641919508644 0.8528009808585377 0.5536889682309545 0.899151970419151
1.4405468064601656 0.7174010980261682 0.2547444529311612 0.46840125550283734
0.8079253215614385 0.5681215247063969 0.06650707879469842 0.17329671806034286
0.462657212771319 0.4365962668786209 0.004351090411742996 0.02170985548095518
0.3087919583934231 0.31169077731794903 -0.00200664207441636 -0.0008921768501096699
0.24375065747581504 0.25025786176941167 -0.001251656060811089 -0.0052555482327854225
0.21330746800876324 0.2132833529348799 2.2648586727384224e-05 1.4664871559796617e-06
0.20430040445941483 0.20424591816819643 7.561930703477517e-06 4.6924360514943846e-05
0.1916622003398019 0.1916728749378479 -6.212266772438603e-08 -1.0612475378233728e-05
0.14169940598385022 0.1416908985327242 4.6505239000204435e-07 8.042398736028437e-06
0.19000645978006014 0.19000645978006014 0.0 0.0
0.11693651150330417 0.11693651150330417 0.0 0.0
0.12277242544730893 0.12277408636877771 -9.533615641300818e-08 -1.565585312364224e-06
0.18224081525574004 0.1822103540409395 2.1056555596612594e-06 2.83555592408956e-05
0.2097024828114893 0.20979024280395106 -7.43468851167506e-06 -8.032530395013747e-05
0.2341021440610728 0.23539630223936586 -0.00021242046182511236 -0.001081737716467923
0.2848838974116463 0.28520975338955834 -0.0005722989975819766 0.0002464430196700555
0.41002647526038677 0.4130174714096578 -0.002555695378371535 -0.0004353007708994437
0.736354932959501 0.5605845978020819 0.04427411161776089 0.13149622353965829
1.4178671224678268 0.744713909704174 0.22921405055334299 0.4439391622103097
2.520395297024933 0.9297649251480615 0.6402911960638237 0.9503391758130473
3.863807909030836 1.0833775293022638 1.1664480390795107 1.613982340649063
5.508456681468749 1.2440395463822043 1.8848688678401198 2.379548267246425
7.4749123899890595 1.4237436605161802 2.7974641663489854 3.253704563123893
9.845337860836793 1.625790970885296 3.94012154165973 4.279425348291763
12.7623453621073 1.8575324883735562 5.41073454754541 5.494078326188332
16.176954094537624 2.100795489131121 7.1745383140688945 6.901620291337609
20.012442052329774 2.3410856067212613 9.25876028130468 8.412596164303835
23.493587568563854 2.495609620252719 11.176420506771674 9.821557441539456
25.409619019199276 2.4761142253943174 12.317439184849253 10.616065608955704
23.527464020818186 2.2066526524629158 11.376882618119241 9.94392875023603
26.43031490113745 7.1398540726756305 10.172988385849186 9.117472442612634
23.527464020818858 2.206652652461231 11.376882618120618 9.943928750237003
25.409619019193645 2.476114225392698 12.317439184846847 10.616065608954097
23.493587568550616 2.495609620250475 11.176420506765218 9.821557441534932
20.01244205231519 2.3410856067209758 9.25876028129639 8.41259616429782
16.176954094524593 2.100795489131081 7.1745383140615715 6.901620291331943
12.762345362093663 1.8575324883726432 5.410734547538392 5.494078326182631
9.84533786082453 1.625790970885205 3.940121541653214 4.279425348286112
7.474912389975128 1.4237436605141551 2.7974641663428144 3.253704563118158
5.508456681456128 1.2440395463819527 1.8848688678339494 2.3795482672402257
3.863807909019867 1.0833775293010335 1.1664480390748886 1.6139823406439444
2.5203952970161176 0.9297649251466384 0.640291196060462 0.9503391758090163
1.417867122462502 0.7447139097026434 0.22921405055177632 0.44393916220808294
0.7363549329566137 0.5605845978010093 0.044274111617147324 0.13149622353845675
0.4100264752591063 0.41301747140851164 -0.0025556953784019705 -0.00043530077100349587
0.2848838974110514 0.285209753388776 -0.0005722989975549119 0.0002464430198303453
0.23410214406055113 0.2353963022387201 -0.00021242046181020686 -0.0010817377163587975
0.20970248281105425 0.20979024280352887 -7.43468851382981e-06 -8.032530396081739e-05
0.18224081525540212 0.18221035404061264 2.1056555587426653e-06 2.835555923076314e-05
0.12277242544710894 0.12277408636857669 -9.533615634106578e-08 -1.565585311427026e-06
0.11693651150306242 0.11693651150306242 0.0 0.0
0.06826405039841098 0.06826405039841098 0.0 0.0
0.10097869051690378 0.10097869051690378 0.0 0.0
0.16747885721869019 0.1674684163932412 6.169848764971448e-07 9.823840572470336e-06
0.21151545732870397 0.21141805196825048 1.2027838475508783e-05 8.53775219779628e-05
0.2567622200398319 0.2574294643171402 -9.738561261248966e-05 -0.0005698586646957322
0.341193516044607 0.35570090409758065 -0.0033579870346625864 -0.011149401018311113
0.5726372311556773 0.5028483685502194 0.014806086386872959 0.05498277621858506
1.1394689281338592 0.6985040176694807 0.1399501423360897 0.3010147681282888
2.2198820745537637 0.9173642955861406 0.5174108167557776 0.7851069622118463
3.6425146945583298 1.0915362956779275 1.0478634929182893 1.5031149059621134
5.5298772677540455 1.2759361618934892 1.8817215422301978 2.372219563630357
7.772214998377591 1.4665366304443668 2.9298597738729897 3.3758185940602354
10.457203003372076 1.6829083442945698 4.23867520174482 4.535619457332688
13.733932585758406 1.9350843677109835 5.897988485367814 5.900859732679606
17.727508519183075 2.2234819508304695 7.980204601242283 7.523821967110327
22.589415380084926 2.5365133853722197 10.640388362644195 9.41251363206852
27.76229660205829 2.791750393844553 13.490667257129813 11.479878951083938
32.68253363844077 2.866187710271646 16.437057354871556 13.379288573297575
35.31930464031226 2.6465698971921072 18.199852841521093 14.47288190159906
32.78477068708307 2.2755885235217086 16.87753964200047 13.631642521560886
35.971988027439465 9.47430836715673 14.419520473885367 12.078159186397368
32.78477068708644 2.2755885235241573 16.877539642001064 13.63164252156122
35.3193046403133 2.646569897197696 18.199852841518318 14.472881901597304
32.68253363843016 2.866187710275609 16.43705735486268 13.379288573291864
27.76229660204092 2.7917503938448194 13.490667257119336 11.479878951076769
22.589415380063926 2.536513385368754 10.640388362633933 9.412513632061232
17.727508519164356 2.2234819508286705 7.980204601232688 7.52382196710299
13.73393258573991 1.9350843677091363 5.8979884853585824 5.900859732672194
10.457203003354506 1.6829083442930588 4.23867520173618 4.535619457325264
7.772214998360904 1.4665366304433238 2.9298597738649272 3.375818594052652
5.529877267738256 1.2759361618913296 1.8817215422235076 2.372219563623418
3.6425146945476943 1.091536295677535 1.0478634929135304 1.5031149059566287
2.2198820745457852 0.9173642955849244 0.517410816752716 0.785106962208144
1.1394689281294124 0.698504017668517 0.1399501423347306 0.30101476812616557
0.5726372311536919 0.5028483685491455 0.014806086386575644 0.054982776217970694
0.341193516043827 0.3557009040964461 -0.003357987034577654 -0.011149401018041363
0.2567622200393452 0.2574294643166528 -9.738561261457615e-05 -0.0005698586646930976
0.21151545732843932 0.21141805196796762 1.2027838476774322e-05 8.537752199495387e-05
0.16747885721826516 0.16746841639282115 6.169848761276928e-07 9.823840567913113e-06
0.10097869051671408 0.10097869051671408 0.0 0.0
0.06826405039831972 0.06826405039831972 0.0 0.0
0.037526192866598675 0.037526192866598675 0.0 0.0
0.07882553429733587 0.07882553429733587 0.0 0.0
0.14913253569688956 0.149127822011761 2.7264122338958563e-07 4.441043905202767e-06
0.21088841862063093 0.21084122085937027 5.046930881792163e-06 4.21508303789271e-05
0.28097897465971416 0.2804170660935627 8.834646480091099e-05 0.0004735621013505189
0.4229505437680312 0.4282587503944836 -0.0023875220108224636 -0.002920684615629921
0.806266706316856 0.6080134416691236 0.05581730487938842 0.142435959768344
1.677773373838903 0.8431297321477798 0.3165132957732422 0.5181303459178808
3.01178202787235 1.0410489718941867 0.7817088519734239 1.1890242040047398
4.919551146171246 1.249823628326013 1.5933903697131293 2.0763371481321045
7.280231471292164 1.455210485823033 2.6795628256821034 3.1454581597870286
10.142271098053437 1.6789700741777516 4.071309912116424 4.391991111759259
13.60771319404243 1.9387786295098646 5.826617128281717 5.84231743625085
17.868086991862505 2.2438344057599084 8.070307011985177 7.553945574117419
23.030097597647185 2.6047534432970614 10.839765833666014 9.58557832068411
29.173907792578934 2.9790348472322297 14.239810446009606 11.9550624993371
36.08485390037454 3.2504210478297457 18.297730190254878 14.536702662289912
42.21749533096471 3.203083856257711 22.073700741096992 16.940710733610025
45.25320965528999 2.7307882534931958 24.215154103607873 18.307267298188926
42.26734205266811 2.372687288476799 22.630053391475947 17.26460137271536
46.37952665013466 11.897073711378887 19.30386952299632 15.178583415759455
42.267342052661995 2.372687288472494 22.630053391474803 17.264601372714694
45.25320965527422 2.7307882534849055 24.21515410360322 18.307267298186083
42.217495330948765 3.203083856258692 22.073700741086498 16.940710733603584
36.08485390035014 3.2504210478272664 18.297730190241428 14.53670266228145
29.173907792558467 2.9790348472335273 14.23981044599662 11.955062499328335
23.030097597623367 2.604753443295045 10.839765833653262 9.585578320675054
17.868086991840855 2.2438344057595887 8.070307011973057 7.5539455741082095
13.607713194020807 1.9387786295082723 5.826617128270679 5.842317436241853
10.142271098032653 1.6789700741765263 4.071309912105982 4.391991111750146
7.280231471274828 1.4552104858219876 2.6795628256737727 3.1454581597790683
4.919551146157161 1.2498236283243906 1.593390369707057 2.0763371481257153
3.011782027863174 1.041048971893391 0.7817088519697725 1.1890242040000103
1.6777733738326006 0.8431297321464857 0.31651329577108633 0.5181303459150286
0.8062667063138073 0.6080134416677503 0.05581730487879983 0.14243595976725715
0.42295054376690927 0.4282587503935168 -0.0023875220108622603 -0.002920684615745309
0.28097897465916016 0.28041706609282635 8.834646482083834e-05 0.0004735621015130295
0.21088841862027352 0.21084122085901394 5.046930881510891e-06 4.215083037810097e-05
0.14913253569660584 0.14912782201147917 2.726412232514537e-07 4.441043903424872e-06
0.07882553429717978 0.07882553429717978 0.0 0.0
0.03752619286649024 0.03752619286649024 0.0 0.0
0.019371363118168387 0.019371363118168387 0.0 0.0
0.058397013242249336 0.058397013242249336 0.0 0.0
0.12943863337068248 0.12943863337068248 0.0 0.0
0.20942075517526618 0.20935428332647324 6.182295350369131e-06 6.0289553442539645e-05
0.3124903692096019 0.3186711086893439 -0.001223721064792349 -0.004957018414949648
0.5354941807494753 0.48441704334099356 0.00985859476023356 0.04121854264824791
1.1292804423314016 0.7259769413923227 0.14170695132177735 0.2615965496173015
2.2257103614988556 0.9471934060691314 0.4812336957382813 0.7972832596914431
3.9383813233536364 1.1708524237839348 1.1590971466999853 1.6084317528697163
6.230245511496613 1.3950963165773114 2.1744527099967073 2.6606964849225943
9.110081560244057 1.6298012125729722 3.5489641808723613 3.9313161667987235
12.633588149403149 1.8920641914865508 5.318753545803126 5.422770412113473
16.94817814348195 2.200618232335959 7.577486783744309 7.170073127401676
22.115432362232365 2.5638266873927793 10.316254607436534 9.235351067403045
28.5270385609697 2.9851466574351737 13.870562698823306 11.671329204711222
36.14204714282178 3.434737011922351 18.208882676013914 14.49842745488551
44.389647112572476 3.721669266149688 23.08087657982318 17.587101266599618
51.7971164493091 3.5167287129192273 27.840029251466454 20.440358484923422
55.48329300311084 2.7918118066061526 30.628978869936255 22.062502326568435
52.10434420100018 2.4643000249154667 28.703102901038562 20.936941275046166
57.39220867680518 14.401449698162299 24.51520987721521 18.47554910142769
52.10434420099625 2.4643000249165334 28.703102901035415 20.9369412750443
55.48329300309943 2.791811806608128 30.628978869927725 22.062502326563568
51.79711644928807 3.5167287129193396 27.840029251453103 20.440358484915627
44.38964711254659 3.7216692661495694 23.080876579807207 17.587101266589823
36.142047142793274 3.4347370119202023 18.208882675997835 14.498427454875236
28.5270385609425 2.9851466574340764 13.870562698807738 11.671329204700676
22.11543236220616 2.5638266873909243 10.316254607422376 9.235351067392859
16.94817814345505 2.200618232334385 7.577486783730004 7.17007312739066
12.633588149378797 1.8920641914851861 5.318753545790573 5.422770412103036
9.110081560221643 1.6298012125694288 3.548964180862447 3.931316166789763
6.230245511479666 1.395096316575536 2.174452709989119 2.6606964849150088
3.9383813233414253 1.1708524237819236 1.1590971466953375 1.6084317528641645
2.225710361490808 0.9471934060678214 0.481233695735359 0.7972832596876275
1.1292804423267242 0.7259769413907549 0.1417069513205371 0.26159654961543144
0.5354941807479106 0.48441704334006386 0.009858594760021771 0.041218542647824714
0.31249036920906137 0.31867110868877535 -0.001223721064777251 -0.004957018414936763
0.2094207551748707 0.20935428332607153 6.182295350853157e-06 6.028955344833653e-05
0.12943863337056344 0.12943863337056344 0.0 0.0
0.058397013242155967 0.058397013242155967 0.0 0.0
0.019371363118073897 0.019371363118073897 0.0 0.0
0.009521660250816697 0.009521660250816697 0.0 0.0
0.041229132941979316 0.041229132941979316 0.0 0.0
0.11067877422348772 0.11067877422348772 0.0 0.0
0.21001414312906228 0.2100073525370356 -3.761220198506445e-07 7.166714046555867e-06
0.35662556036201665 0.36459259250463455 -0.0019875480218940625 -0.005979484120724011
0.6975448739198862 0.5782651949261194 0.0338269655219283 0.08545271347183858
1.4886810772011387 0.8192931828646266 0.23499129459222606 0.43439659974428624
2.8577119114977285 1.0482509639500472 0.7157161074257652 1.0937448401219156
4.888691433126295 1.2886959956524844 1.5600855999565038 2.0399098375173086
7.59958368282507 1.5360108689420895 2.808855988370631 3.2547168255123484
11.000640608421907 1.8020034063756392 4.471474266145095 4.727162935901172
15.217610021589646 2.109204187170856 6.640775352342678 6.467630482076116
20.311248076243814 2.469721846493356 9.322413894097869 8.519112335652588
26.6629227823856 2.8943680779482848 12.832123493284694 10.93643121115263
34.220539872990685 3.377779990299623 17.062411466881077 13.780348415809978
43.0610761880271 3.870652746152432 22.150441359468974 17.03998208240571
52.77914746321546 4.18419149452028 28.037282126814596 20.55767384188058
61.45888810080584 3.867119848782583 33.744714081778234 23.84705417024504
65.90324739967379 2.866887150168271 37.221832542929995 25.814527706575532
62.488474655779555 2.509286064437206 35.279791419614185 24.699397171728158
69.44071311379489 16.938769794024918 30.51326221241152 21.98868110735843
62.488474655768506 2.509286064433093 35.2797914196097 24.699397171725714
65.90324739965762 2.866887150168197 37.221832542919614 25.814527706569802
61.45888810078077 3.8671198487836995 33.74471408176144 23.847054170235623
52.77914746318249 4.184191494517706 28.03728212679545 20.55767384186935
43.061076187996875 3.870652746153495 22.150441359449566 17.039982082393813
34.22053987295751 3.377779990297249 17.0624114668624 13.780348415797864
26.662922782352222 2.8943680779432084 12.8321234932679 10.936431211141107
20.3112480762137 2.4697218464934885 9.322413894080428 8.519112335639784
15.217610021560812 2.1092041871680784 6.6407753523281965 6.467630482064536
11.000640608396735 1.802003406373546 4.4714742661327 4.7271629358904885
7.599583682805163 1.5360108689408967 2.8088559883609845 3.254716825503282
4.888691433112003 1.288695995650733 1.5600855999504604 2.0399098375108076
2.857711911488392 1.048250963949304 0.7157161074221879 1.0937448401169
1.4886810771955368 0.8192931828635092 0.2349912945903933 0.43439659974163486
0.6975448739175018 0.5782651949251214 0.03382696552145369 0.08545271347092648
0.35662556036135323 0.3645925925037344 -0.001987548021850318 -0.005979484120530811
0.2100141431287349 0.21000735253674083 -3.761220240094513e-07 7.166714018098271e-06
0.11067877422329514 0.11067877422329514 0.0 0.0
0.041229132941932964 0.041229132941932964 0.0 0.0
0.0095216602507677 0.0095216602507677 0.0 0.0
0.004652750995284841 0.004652750995284841 0.0 0.0
0.02817065679107895 0.02817065679107895 0.0 0.0
0.09532005415847689 0.09532005415847689 0.0 0.0
0.21673775696732467 0.21676571639331632 -2.1449399111980753e-06 -2.5814486080462045e-05
0.4205297863523634 0.41067851665761773 0.0013133212602245473 0.008537948434521065
0.9131647728191198 0.6707275083681554 0.07949135662051968 0.16294590783044455
1.890310009551598 0.8937011202266416 0.3586253947739535 0.6379834945510027
3.5300201242054245 1.144273336858637 0.9821570487062058 1.403589738640582
5.8718182900818965 1.3999968733598254 1.9920579505754532 2.479763466146618
9.004886890512479 1.6726587250241045 3.47566697288015 3.8565611926082233
12.974910613111309 1.9772985076488936 5.4661226201254545 5.531489485336961
17.86047007840672 2.3296759055703378 8.00515570396237 7.525638468874016
23.949605288163088 2.752708364986422 11.31619791561998 9.880699007556679
31.223423641890967 3.244157998574999 15.310953828629541 12.668311814686428
40.03501106094057 3.771007498522337 20.35613174470661 15.907871817711623
50.16829236930045 4.264782161548302 26.34495022462779 19.55855998312437
61.06042952689935 4.587225232755849 33.02712065592633 23.446083638217182
71.05762151207199 4.336700473402725 39.60430152282204 27.116619515847237
76.53985872479701 3.0035707544547376 44.05508356356857 29.4812044067737
73.52710740825711 2.4331696123471005 42.477722224794306 28.616215571115706
82.60737449450916 19.36190094121061 37.36478840415575 25.880685149142778
73.5271074082479 2.4331696123470268 42.477722224788394 28.61621557111246
76.5398587247725 3.003570754452395 44.05508356355415 29.48120440676599
71.05762151204448 4.336700473404994 39.60430152280279 27.116619515836668
61.060429526864155 4.587225232756199 33.02712065590362 23.44608363820435
50.16829236926307 4.264782161545075 26.344950224606368 19.55855998311162
40.035011060903194 3.7710074985217252 20.356131744683957 15.907871817697512
31.22342364185428 3.244157998572395 15.310953828609058 12.668311814672839
23.949605288127803 2.752708364984222 11.316197915600593 9.88069900754298
17.860470078372842 2.3296759055672496 8.005155703944812 7.525638468860779
12.974910613083336 1.9772985076473486 5.466122620111024 5.531489485324964
9.004886890490646 1.6726587250228873 3.4756669728693743 3.8565611925983827
5.871818290065455 1.3999968733581443 1.9920579505682061 2.479763466139107
3.5300201241940705 1.1442733368572684 0.9821570487016689 1.4035897386351328
1.8903100095450358 0.8937011202253685 0.35862539477200833 0.6379834945476575
0.9131647728161336 0.6707275083670396 0.0794913566198418 0.16294590782925225
0.420529786351404 0.41067851665675864 0.0013133212601891251 0.008537948434456315
0.2167377569669488 0.2167657163929252 -2.1449399102669095e-06 -2.581448606613111e-05
0.09532005415826961 0.09532005415826961 0.0 0.0
0.02817065679105662 0.02817065679105662 0.0 0.0
0.004652750995275011 0.004652750995275011 0.0 0.0
0.0022084139345460137 0.0022084139345460137 0.0 0.0
0.01918758158039298 0.01918758158039298 0.0 0.0
0.08659976819270734 0.08659976819270734 0.0 0.0
0.23612858949998594 0.23637599969826245 -4.476923134109648e-05 -0.00020264096693538305
0.5218542133659603 0.48592171212353996 0.009771171617542967 0.026161329624877404
1.1628766866319518 0.7465715701371656 0.1386098476444643 0.2776952688503221
2.3468194755586365 0.97597442911815 0.5215333242182345 0.8493117222222516
4.223329558168479 1.2337742939268797 1.266063487415284 1.7234917768263143
6.896683015534835 1.5070975282391896 2.463895023991725 2.92569046330392
10.44431455999161 1.8079924545314348 4.172413708843271 4.463908396616903
14.978591773177156 2.152298544025674 6.481444321303375 6.344848907848104
20.671936833650996 2.560640009745761 9.518017628868346 8.593279195036892
27.539159153634273 3.0465259731919074 13.225992064046606 11.266641116395764
36.00793044940005 3.6003051511083175 17.99542683014764 14.412198468144107
46.04349069034632 4.175608204299452 23.82120691415836 18.046675571888503
57.36416397469459 4.648133289516275 30.64035278487549 22.07567790030283
69.18976688879633 4.8618479109901465 38.08441440131819 26.24350457648799
80.22766558476016 4.740727970640654 45.34301995934175 30.143917654777717
87.34153060784729 3.5758450810161255 50.775945948649074 32.98973957818205
85.2627408114831 2.0883870206497503 50.41076207011318 32.763591720720186
96.83938794784532 20.7032082118551 45.76500830781139 30.371171428178805
85.26274081146256 2.0883870206416777 50.41076207010499 32.763591720715894
87.34153060782492 3.5758450810216744 50.77594594863079 32.98973957817249
80.22766558472263 4.740727970637606 45.34301995931919 30.14391765476582
69.18976688875546 4.861847910989222 38.08441440129255 26.243504576473672
57.36416397464949 4.648133289510765 30.640352784850347 22.0756779002884
46.043490690305404 4.175608204300542 23.821206914132176 18.04667557187269
36.007930449357055 3.600305151105646 17.995426830123044 14.412198468128349
27.5391591535926 3.046525973188038 13.225992064024108 11.266641116380452
20.6719368336138 2.560640009744358 9.518017628847689 8.593279195021756
14.978591773146334 2.1522985440241427 6.48144432128699 6.344848907835208
10.44431455996613 1.807992454528451 4.172413708831252 4.463908396606425
6.896683015516039 1.5070975282372694 2.463895023983216 2.9256904632955516
4.223329558155657 1.2337742939251761 1.2660634874101013 1.7234917768203815
2.346819475550664 0.9759744291169228 0.521533324215447 0.8493117222182945
1.1628766866279694 0.7465715701357379 0.1386098476434712 0.27769526884875995
0.5218542133646403 0.48592171212251367 0.00977117161743551 0.0261613296246915
0.2361285894995179 0.23637599969767972 -4.4769231332019077e-05 -0.00020264096682983751
0.08659976819257509 0.08659976819257509 0.0 0.0
0.01918758158033726 0.01918758158033726 0.0 0.0
0.0022084139345446073 0.0022084139345446073 0.0 0.0
0.000594052644759925 0.000594052644759925 0.0 0.0
0.01371976725396241 0.01371976725396241 0.0 0.0
0.08905396141574626 0.08905396141574626 0.0 0.0
0.27977808246220304 0.28023358716593205 -8.654332000593629e-05 -0.00036896138372305627
0.6723469991402176 0.5914790720001064 0.026050301136610696 0.05481762600350049
1.4724303290345284 0.8834417233063349 0.2065149612990625 0.38247364442913107
2.85256453113048 1.1638043126585604 0.663115535512166 1.0256446829597543
4.98836971348621 1.5083548852682536 1.5052863306553341 1.9747284975626218
8.004773923313708 1.9089735719874492 2.82406187141897 3.2717384799072953
12.065388671536784 2.40053550288797 4.732564539969571 4.932288628679239
17.31274216797303 3.0252138252013396 7.318046025007773 6.96948231776392
23.83031256346023 3.8174868740745698 10.594150805589056 9.418674883796601
31.922701121172995 4.784674398504663 14.809669903379035 12.328356819289294
41.75664015892178 5.920741166439025 20.090536016020263 15.745362976462502
53.28540375026833 7.092885932225694 26.52988650879386 19.662631309248752
65.99976456828576 8.030365334267515 34.01711297315228 23.95228626086595
78.72223890659866 8.385563038934405 41.99566801228505 28.341007855379207
89.82533618901297 7.9539830550777655 49.53456531348242 32.33678782045286
97.9484326985133 7.246680187561736 55.35805520137173 35.343697309579866
94.88430239940472 2.0984550992308346 56.685656824866605 36.10019047530723
139.37911204375666 50.42192669803503 54.2608458070414 34.69633953868024
94.88430239939481 2.098455099237076 56.68565682485588 36.100190475301815
97.94843269848748 7.246680187567041 55.35805520135108 35.34369730956936
89.82533618897033 7.953983055075506 49.53456531345609 32.33678782043877
78.72223890654804 8.385563038927053 41.99566801225687 28.34100785536411
65.99976456823612 8.030365334262893 34.01711297312353 23.952286260849643
53.28540375022095 7.0928859322238464 26.52988650876534 19.662631309231745
41.75664015887465 5.920741166437142 20.090536015992434 15.745362976445097
31.92270112112712 4.784674398500979 14.809669903353742 12.328356819272395
23.830312563418435 3.817486874072114 10.594150805566088 9.418674883780232
17.31274216793616 3.02521382519566 7.31804602499015 6.969482317750348
12.065388671508297 2.4005355028842508 4.73256453995607 4.932288628667973
8.004773923292369 1.908973571984962 2.824061871409242 3.2717384798981684
4.9883697134715606 1.508354885266003 1.5052863306493969 1.9747284975561588
2.852564531121281 1.1638043126574407 0.6631155355086908 1.02564468295515
1.4724303290297476 0.8834417233047102 0.2065149612979748 0.382473644427063
0.6723469991382357 0.5914790719985966 0.026050301136439285 0.054817626003199456
0.2797780824616346 0.28023358716540736 -8.654332000862126e-05 -0.00036896138376411923
0.089053961415521 0.089053961415521 0.0 0.0
0.013719767253916585 0.013719767253916585 0.0 0.0
0.0005940526447611473 0.0005940526447611473 0.0 0.0
CELL_DATA 800
SCALARS Stress float 6
LOOKUP_TABLE default
148.00674121278774 -503.8828547527597 -183.66224278783096 -105.92321117687092 0.0 0.0
393.91884891530754 -24.57655622484696 118.47634521034627 60.21068043162241 0.0 0.0
380.7309579931876 5.828994292365103 115.77179968076106 -5.418777692669989 0.0 0.0
442.2823244699303 -6.832155557958852 132.36051846860732 -12.894884713411903 0.0 0.0
514.1301810695295 -12.015086426091955 171.92917131478438 -11.03475413215124 0.0 0.0
582.1562730570613 -3.5058253113478557 236.92055883916308 -9.387299660350457 0.0 0.0
647.6290637556046 4.875219642727362 298.52290219202905 -9.376803323490059 0.0 0.0
712.8971403986247 21.481633312862677 354.24052161696125 -10.260532241387978 0.0 0.0
778.8751452318943 44.28990951516967 405.22842700783946 -11.384586242693693 0.0 0.0
845.9470760090002 72.16367393521034 455.20429717360327 -12.212405290745869 0.0 0.0
913.762314592645 103.43045941090715 505.6647026981009 -12.598217846457523 0.0 0.0
981.9196580042851 137.76311743789225 557.3203591675591 -12.539207808046582 0.0 0.0
1050.6269731036848 173.47771220956713 609.7519054909612 -12.344031443459286 0.0 0.0
1120.513018598895 211.13733017785754 663.6484529650514 -12.121605458245716 0.0 0.0
1192.3072387824545 251.9581373721706 720.0339056084721 -11.809109024203172 0.0 0.0
1265.5112409930525 296.11328009556837 778.7682059015492 -11.245888103946259 0.0 0.0
1337.809380469973 342.42331293128643 838.1134617110225 -10.230416083580895 0.0 0.0
1405.4605280282126 388.36251157652737 894.9151666683239 -8.667465395928787 0.0 0.0
1464.285527638228 430.9823702329459 945.5746169874528 -7.11672809836317 0.0 0.0
1524.8770388582877 482.77813656793927 1001.2691528116793 -8.193382588108786 0.0 0.0
1524.8770388578425 482.77813656749754 1001.2691528113207 8.193382588118027 0.0 0.0
1464.2855276377209 430.98237023246986 945.5746169870113 7.116728098393897 0.0 0.0
1405.4605280284075 388.3625115767828 894.9151666683913 8.667465395947502 0.0 0.0
1337.80938046961 342.4233129309944 838.1134617106826 10.230416083555426 0.0 0.0
1265.5112409929752 296.11328009558224 778.7682059013978 11.245888103879604 0.0 0.0
1192.3072387823279 251.9581373721526 720.0339056083848 11.80910902420147 0.0 0.0
1120.5130185987393 211.13733017783372 663.6484529648652 12.121605458276552 0.0 0.0
1050.6269731031116 173.4777122091491 609.7519054905146 12.344031443427617 0.0 0.0
981.9196580038252 137.76311743761045 557.3203591672163 12.539207808038118 0.0 0.0
913.762314591796 103.43045941024575 505.66470269751136 12.598217846446175 0.0 0.0
845.9470760082438 72.16367393466646 455.2042971730394 12.212405290719992 0.0 0.0
778.8751452312448 44.28990951472214 405.228427007332 11.384586242632357 0.0 0.0
712.8971403981692 21.4816333126372 354.2405216165937 10.260532241387363 0.0 0.0
647.6290637553124 4.8752196426849395 298.5229021917609 9.376803323495984 0.0 0.0
582.1562730568155 -3.5058253113139877 236.92055883889896 9.387299660357819 0.0 0.0
514.130181069537 -12.015086425785722 171.92917131475235 11.034754132130894 0.0 0.0
442.2823244698185 -6.832155557758948 132.3605184686363 12.894884713383181 0.0 0.0
380.7309579930343 5.828994292326452 115.77179968070661 5.418777692643639 0.0 0.0
393.9188489153096 -24.576556224661825 118.47634521036301 -60.21068043158985 0.0 0.0
148.0067412133228 -503.8828547522607 -183.66224278731642 105.92321117648031 0.0 0.0
52.90458695692638 -533.380964315792 -238.6470307809986 -147.279450005149 0.0 0.0
241.4427386122039 -10.905745408561842 69.16109796109262 13.20117705170991 0.0 0.0
334.2396371796447 21.94199484997126 106.85399948255687 -10.38301643751815 0.0 0.0
401.46464416313955 -4.2839367525044425 119.25135387895013 -32.405672838026035 0.0 0.0
483.8762169362032 -13.439840503771494 152.09898043356026 -31.58102665662008 0.0 0.0
556.8814071556484 -5.096235862127315 214.7845343068729 -27.96323847539864 0.0 0.0
626.7839660492248 3.00651957942846 280.0389436099728 -28.275210992727473 0.0 0.0
693.0557691510355 18.62808427816458 338.7783883195407 -29.6256250943833 0.0 0.0
757.9009573452283 39.8603929852981 390.4932632258505 -31.28713417012921 0.0 0.0
822.4157642843437 65.41321230911528 439.0597723096813 -32.3324800659026 0.0 0.0
886.6269614712232 93.7495846209867 486.72976797547204 -32.4300492041868 0.0 0.0
950.5914099953781 123.58362907266255 534.2469697611392 -31.82181199124226 0.0 0.0
1014.4711695088259 155.34109119850504 582.3729357548419 -30.956504400911214 0.0 0.0
1079.5650376781791 188.91517485538697 631.8807667666349 -30.116535571330385 0.0 0.0
1146.3079955190276 225.07195451681883 683.4437116167095 -29.159275761229587 0.0 0.0
1214.1304327725804 264.1510504920225 736.9780539868392 -27.675050503853623 0.0 0.0
1281.2322245055207 305.3473448843651 791.1841528970758 -25.306941670527653 0.0 0.0
1344.9981953774038 347.26400920407514 844.0264137709796 -22.04131094346019 0.0 0.0
1405.554891714206 391.53875256817327 896.2746762423072 -18.550634156940223 0.0 0.0
1448.4617871505495 425.16392023416995 934.3401781004493 -13.959024119435234 0.0 0.0
1448.4617871509265 425.1639202345562 934.3401781008046 13.959024119464189 0.0 0.0
1405.5548917143435 391.53875256834795 896.274676242498 18.550634157004943 0.0 0.0
1344.9981953768354 347.2640092035557 844.0264137705168 22.041310943513448 0.0 0.0
1281.23222450481 305.34734488372976 791.1841528964571 25.30694167061145 0.0 0.0
1214.1304327724276 264.1510504919628 736.978053986616 27.675050503839543 0.0 0.0
1146.3079955187977 225.07195451669642 683.4437116164873 29.159275761253184 0.0 0.0
1079.5650376780272 188.91517485536897 631.8807667664644 30.116535571364835 0.0 0.0
1014.4711695087152 155.34109119854253 582.3729357546509 30.95650440089272 0.0 0.0
950.591409995312 123.58362907277875 534.2469697609965 31.821811991271794 0.0 0.0
886.6269614703493 93.74958462029925 486.72976797480175 32.430049204146385 0.0 0.0
822.415764283412 65.41321230838261 439.0597723090324 32.332480065920706 0.0 0.0
757.900957344875 39.86039298515543 390.49326322560313 31.287134170062437 0.0 0.0
693.055769150787 18.628084278158347 338.7783883193027 29.625625094362412 0.0 0.0
626.7839660491484 3.0065195796407806 280.03894360980007 28.27521099270325 0.0 0.0
556.8814071552712 -5.09623586223573 214.78453430655165 27.963238475408883 0.0 0.0
483.8762169358187 -13.4398405039229 152.09898043334323 31.58102665663857 0.0 0.0
401.4646441628649 -4.283936752558304 119.25135387885857 32.40567283801985 0.0 0.0
334.23963717953325 21.94199484983954 106.8539994824843 10.38301643753288 0.0 0.0
241.44273861239006 -10.905745408250255 69.16109796124194 -13.201177051852959 0.0 0.0
52.90458695723581 -533.3809643154435 -238.64703078063357 147.27945000491238 0.0 0.0
8.671370355022248 -533.9769816456129 -251.79917025658216 -161.13100291796795 0.0 0.0
140.9422125179072 -11.936552515044328 38.70169800085885 -38.76948447196515 0.0 0.0
272.23203216087467 27.26415458257587 89.84885602303515 -31.140362808345348 0.0 0.0
355.50320362829257 2.0416662084110424 107.27468684884646 -50.73886754300215 0.0 0.0
443.70117133578003 -11.15119819379624 134.10054947243142 -54.11517219013432 0.0 0.0
528.9003578968708 -9.551608090202851 188.99779346929762 -48.984219580904636 0.0 0.0
601.5182165407747 2.1112171107777584 258.305530795145 -47.471452632925356 0.0 0.0
668.7029806453774 15.74249214200329 319.6159178455216 -48.97560323272208 0.0 0.0
733.1555549144521 35.48573228766156 373.0347581177325 -50.83168273909945 0.0 0.0
795.2665356897256 58.52818337389839 420.6157091713668 -51.848374988724196 0.0 0.0
855.8989980653208 83.45998840989981 465.4786409993708 -51.60953728078012 0.0 0.0
915.3875482463825 109.70495181645896 509.26909285292294 -50.42860326422469 0.0 0.0
975.053409003483 136.95070250951403 553.1739354349296 -49.07592469677684 0.0 0.0
1035.2891020878947 166.34845249408005 598.24569898473 -47.69209643786071 0.0 0.0
1096.7455428874987 197.72076319879844 644.8167862015616 -46.13317404263425 0.0 0.0
1159.1027856854487 231.43255244656584 692.9658421136304 -43.873631072263784 0.0 0.0
1221.0687572294166 267.3643216759194 741.9881532292285 -40.44930767001377 0.0 0.0
1282.092995403548 306.25244561874456 791.926910760185 -35.80338844444361 0.0 0.0
1337.5058411794937 344.80616689005353 838.7934812263422 -29.47061822903692 0.0 0.0
1374.9812321582851 372.02947396502765 870.9999920572857 -19.204433127899794 0.0 0.0
1374.981232157661 372.0294739644173 870.9999920567963 19.204433127966617 0.0 0.0
1337.5058411795567 344.80616689016085 838.7934812262829 29.470618229204483 0.0 0.0
1282.092995403807 306.25244561907357 791.9269107602734 35.803388444536296 0.0 0.0
1221.0687572291438 267.3643216757175 741.9881532290087 40.449307670035765 0.0 0.0
1159.102785684629 231.43255244581616 692.9658421129967 43.87363107220385 0.0 0.0
1096.7455428871833 197.7207631985835 644.8167862012912 46.13317404263929 0.0 0.0
1035.2891020872848 166.34845249358884 598.2456989842527 47.69209643786813 0.0 0.0
975.0534090032677 136.9507025094395 553.173935434741 49.075924696734205 0.0 0.0
915.3875482457547 109.70495181598105 509.2690928524647 50.42860326416212 0.0 0.0
855.8989980654475 83.45998841023462 465.47864099942075 51.60953728080358 0.0 0.0
795.2665356896634 58.528183374077074 420.61570917129114 51.84837498878524 0.0 0.0
733.1555549144105 35.485732287884666 373.03475811764054 50.83168273915955 0.0 0.0
668.7029806455251 15.742492142407826 319.6159178455102 48.97560323264667 0.0 0.0
601.5182165404958 2.111217110768372 258.30553079485 47.47145263288091 0.0 0.0
528.9003578966017 -9.551608090135403 188.99779346906755 48.98421958094545 0.0 0.0
443.7011713357149 -11.151198193474318 134.10054947246255 54.115172190074915 0.0 0.0
355.5032036281961 2.041666208755321 107.27468684893157 50.73886754295161 0.0 0.0
272.2320321608684 27.26415458254879 89.84885602302516 31.140362808375237 0.0 0.0
140.9422125180605 -11.936552514777317 38.70169800098495 38.76948447189042 0.0 0.0
8.671370355172343 -533.9769816453054 -251.7991702562737 161.13100291783337 0.0 0.0
-7.034914578627223 -516.8683265720313 -240.8166499214497 -163.7469626877681 0.0 0.0
83.47408953213282 -19.221092534129763 19.27589909940091 -82.82385137660492 0.0 0.0
212.9445988162032 27.029737341978304 71.99230084745446 -58.668059137228205 0.0 0.0
305.79626970537356 6.8055306519763565 93.7724752905861 -70.52158494261312 0.0 0.0
393.93512021747136 -7.852802632079038 116.95861894109555 -77.76200725076093 0.0 0.0
488.0140674601204 -11.427364084179352 162.42682821297836 -72.22236037101882 0.0 0.0
568.7488033079012 -0.6012087656405836 230.6011030866087 -67.64734956452278 0.0 0.0
639.5515943123023 13.504089842948005 296.57880854823316 -68.52197758170469 0.0 0.0
703.6282556722447 30.936366116343404 351.78194681629157 -70.01767464537876 0.0 0.0
763.6559307728578 51.36091176855768 399.05956466534434 -70.78610301291342 0.0 0.0
820.9612390889778 73.01256311670423 441.68011812877296 -70.14031779873457 0.0 0.0
876.6515365623305 95.4878958537333 482.1710882582786 -68.47168277027613 0.0 0.0
931.5237357553534 118.69309797439567 521.8781722534 -66.63407071183777 0.0 0.0
987.3200784677756 143.6198113941238 562.6202449032068 -64.8626346131597 0.0 0.0
1043.6529815496312 169.95259992621018 604.1810834528537 -62.794829839280816 0.0 0.0
1100.0400601652755 198.2468677410716 646.6688146442121 -59.86753907428619 0.0 0.0
1157.1532793553436 229.0480273546509 690.7197734262793 -55.697273513088476 0.0 0.0
1213.7196245348332 262.7995798016537 735.8862577111935 -49.72981958733765 0.0 0.0
1265.0126965037316 296.0329812158235 778.0629935163846 -40.41789157733714 0.0 0.0
1300.4282791932806 319.5396748769227 807.3960915646834 -24.794308782412994 0.0 0.0
1300.4282791936403 319.53967487730415 807.3960915649061 24.794308782505983 0.0 0.0
1265.0126965036484 296.03298121579894 778.062993516319 40.41789157755538 0.0 0.0
1213.7196245338505 262.79957980072356 735.8862577105057 49.729819587377165 0.0 0.0
1157.1532793550098 229.0480273543733 690.7197734259813 55.69727351309838 0.0 0.0
1100.0400601647154 198.2468677406098 646.6688146437624 59.86753907433635 0.0 0.0
1043.6529815489137 169.95259992558724 604.1810834523139 62.79482983929457 0.0 0.0
987.3200784665748 143.61981139301213 562.6202449023781 64.86263461311103 0.0 0.0
931.5237357552563 118.69309797446157 521.8781722532939 66.63407071189911 0.0 0.0
876.6515365622136 95.48789585381552 482.171088258125 68.47168277034311 0.0 0.0
820.9612390885256 73.01256311645254 441.68011812839825 70.14031779879973 0.0 0.0
763.6559307725984 51.36091176851211 399.0595646651088 70.78610301291101 0.0 0.0
703.6282556716916 30.93636611607608 351.78194681588326 70.01767464551975 0.0 0.0
639.5515943117185 13.504089842594517 296.5788085477638 68.52197758164553 0.0 0.0
568.7488033075733 -0.6012087656490195 230.60110308631016 67.64734956453177 0.0 0.0
488.014067459614 -11.427364084404175 162.4268282126548 72.22236037098762 0.0 0.0
393.9351202170632 -7.85280263222009 116.95861894094065 77.76200725073124 0.0 0.0
305.7962697051437 6.805530651810174 93.77247529046863 70.52158494255943 0.0 0.0
212.9445988161496 27.029737341821118 71.9923008473912 58.668059137046725 0.0 0.0
83.474089532215 -19.221092533838323 19.275899099513005 82.8238513763466 0.0 0.0
-7.034914578513934 -516.8683265717449 -240.81664992116293 163.74696268765487 0.0 0.0
-9.268805619440627 -489.517223502745 -217.1488428934805 -162.15074680818407 0.0 0.0
49.317082093838245 -26.84258359720336 6.742349548990464 -116.9642227610525 0.0 0.0
161.0953837185094 23.549577669378504 55.39348841636636 -86.7666019170556 0.0 0.0
253.4378417441063 9.900322931729473 79.0011716550896 -91.52263849474829 0.0 0.0
337.8324759675629 -3.390172900351513 100.49519674730801 -100.06245990393458 0.0 0.0
435.7112471890706 -11.547734274240558 136.36510449883292 -98.0924869910317 0.0 0.0
527.9513964597111 -4.329743490599809 198.28331459422574 -90.45751641040418 0.0 0.0
603.9054112106742 10.878660087060506 267.81896033328485 -88.1910274614787 0.0 0.0
668.3793804754443 26.43731519651385 325.7422437039039 -88.98038380941522 0.0 0.0
726.8603196518841 43.95392865441127 373.5689353049506 -89.21730523968647 0.0 0.0
781.3079380760008 62.32748148781809 414.71201679119554 -88.08900963824848 0.0 0.0
833.0433112236267 81.03841590068191 452.1462247903544 -85.92819866234916 0.0 0.0
883.8378555570098 100.32938153408844 488.26769281995075 -83.75364867098395 0.0 0.0
934.3524756243639 120.80818427163679 524.341426128382 -81.57517596960008 0.0 0.0
985.4569273617489 142.23082187783518 560.9325782819933 -79.10710227927575 0.0 0.0
1037.0781321733548 165.02718329986917 598.3533502493217 -75.7696585563332 0.0 0.0
1088.222345695879 189.91628061949658 636.5074706380227 -70.97648838702047 0.0 0.0
1139.4934786886972 217.5678500327292 676.0129802358364 -63.86804510229813 0.0 0.0
1187.3523294839647 245.50295631512532 713.8474682863674 -51.84448447726696 0.0 0.0
1222.6672371790823 266.3890096681953 741.810443253073 -31.172225691340046 0.0 0.0
1222.6672371787863 266.3890096679232 741.8104432528577 31.172225691451423 0.0 0.0
1187.3523294833963 245.50295631460367 713.8474682859497 51.84448447738934 0.0 0.0
1139.4934786881502 217.56785003226804 676.0129802355033 63.868045102479186 0.0 0.0
1088.222345696431 189.91628062016656 636.5074706383812 70.9764883871671 0.0 0.0
1037.0781321736208 165.02718330025223 598.3533502494632 75.76965855639895 0.0 0.0
985.4569273614301 142.23082187762392 560.9325782817442 79.10710227929687 0.0 0.0
934.3524756236773 120.80818427107607 524.3414261278435 81.57517596966642 0.0 0.0
883.8378555566366 100.32938153391704 488.26769281968285 83.7536486711552 0.0 0.0
833.0433112236758 81.03841590091146 452.1462247903139 85.92819866233955 0.0 0.0
781.3079380758289 62.32748148787212 414.7120167910235 88.08900963831658 0.0 0.0
726.8603196515143 43.95392865421649 373.5689353046419 89.21730523961087 0.0 0.0
668.3793804749079 26.437315196244164 325.74224370349856 88.98038380944632 0.0 0.0
603.9054112104989 10.878660087175888 267.81896033304645 88.19102746146845 0.0 0.0
527.9513964594277 -4.329743490483491 198.28331459396992 90.45751641046367 0.0 0.0
435.71124718894055 -11.547734273873493 136.36510449882132 98.09248699103841 0.0 0.0
337.8324759675686 -3.3901728997169167 100.49519674750024 100.06245990386111 0.0 0.0
253.43784174418053 9.900322932129772 79.00117165523261 91.52263849465706 0.0 0.0
161.0953837185249 23.549577669507137 55.393488416409596 86.76660191687839 0.0 0.0
49.31708209389322 -26.842583596996796 6.742349549068926 116.96422276086675 0.0 0.0
-9.268805619373992 -489.5172235024349 -217.1488428931949 162.15074680811892 0.0 0.0
-5.569236216362441 -455.4328531868858 -187.3098487903494 -159.09741168226589 0.0 0.0
27.0714077949186 -33.27305564804446 -1.860494355937757 -142.1139970034043 0.0 0.0
116.21025615786402 18.599567993337466 40.442947245360436 -112.08456284823758 0.0 0.0
200.50706562427828 12.09707349385085 63.78124173543874 -111.99907175364514 0.0 0.0
278.7050719448308 -0.23177315547177613 83.49780749333448 -120.96007048309886 0.0 0.0
367.82048953056733 -9.39667613721674 111.11795218764412 -123.87793560853297 0.0 0.0
469.2365418773684 -6.368300924792684 162.92736552678917 -116.52827641954069 0.0 0.0
556.015300766569 6.426628158992823 230.5081848236225 -109.7479112622713 0.0 0.0
625.6187307240227 21.6205213440485 293.02019387241 -108.00259177214024 0.0 0.0
683.509846797006 36.46583769681804 342.6214557840324 -107.22754432663959 0.0 0.0
735.1828538502526 51.24745177892646 382.9840102749258 -105.48430395514256 0.0 0.0
783.5847284126801 66.42032903241011 418.3674754676522 -102.91166256593739 0.0 0.0
830.1172039922911 81.9816255420294 451.22908406969555 -100.34848182142095 0.0 0.0
875.9376138242656 97.9449605213702 483.0955365448715 -97.95813859846308 0.0 0.0
921.9166684215782 114.43133713249166 514.8455874505917 -95.23741021387514 0.0 0.0
967.6487104484086 132.1670817260923 546.8775547867251 -91.43186026972923 0.0 0.0
1013.3135412761812 150.5534758252881 579.1208395566407 -86.24795405188067 0.0 0.0
1058.564287674076 170.79020298940418 611.9746241958462 -78.35232451276578 0.0 0.0
1102.7050229131282 192.89882078472206 645.0652207258316 -64.1125644987891 0.0 0.0
1139.4650844582054 211.59816091673454 672.6282286495705 -38.80995319366265 0.0 0.0
1139.4650844582698 211.5981609168221 672.6282286496546 38.80995319377959 0.0 0.0
1102.7050229130584 192.89882078473894 645.065220725789 64.11256449901516 0.0 0.0
1058.564287673778 170.79020298919755 611.9746241956151 78.35232451295278 0.0 0.0
1013.3135412757426 150.55347582496142 579.1208395562725 86.24795405204645 0.0 0.0
967.6487104481862 132.1670817259678 546.8775547865088 91.43186026976245 0.0 0.0
921.9166684213847 114.4313371324002 514.8455874503851 95.23741021388244 0.0 0.0
875.9376138241789 97.94496052142969 483.0955365447839 97.95813859853394 0.0 0.0
830.1172039914823 81.9816255413666 451.22908406912825 100.34848182145075 0.0 0.0
783.5847284120864 66.42032903190831 418.3674754672231 102.9116625658713 0.0 0.0
735.1828538500371 51.24745177892805 382.98401027472573 105.48430395516706 0.0 0.0
683.5098467969688 36.46583769690893 342.6214557838948 107.22754432646042 0.0 0.0
625.6187307238912 21.62052134419084 293.02019387222884 108.00259177214845 0.0 0.0
556.0153007663844 6.426628159126537 230.50818482340244 109.74791126224741 0.0 0.0
469.2365418767072 -6.368300925185332 162.92736552634435 116.52827641950283 0.0 0.0
367.820489530101 -9.396676137317497 111.1179521874584 123.8779356084224 0.0 0.0
278.70507194469053 -0.2317731553016653 83.49780749334626 120.9600704829397 0.0 0.0
200.50706562419876 12.097073493914372 63.78124173543394 111.99907175350423 0.0 0.0
116.21025615786854 18.59956799343701 40.44294724539166 112.08456284801126 0.0 0.0
27.07140779498185 -33.273055647822154 -1.8604943558520899 142.1139970031844 0.0 0.0
-5.569236216264265 -455.43285318657377 -187.30984879006255 159.09741168215277 0.0 0.0
0.07792273208735168 -415.89056032868314 -155.05291952452083 -155.50803345062732 0.0 0.0
10.001157905890157 -39.344823226067355 -8.803099596053158 -159.61950142549486 0.0 0.0
76.47470239625918 13.606672806870446 27.024412560938888 -133.16052393931471 0.0 0.0
148.51156695664207 13.927778358559863 48.731803594560574 -130.69022285803285 0.0 0.0
216.41597050873688 1.935224471835332 65.50658672728434 -139.81005878481517 0.0 0.0
293.7372692260945 -5.818508892687781 87.35012000288125 -147.32877490349682 0.0 0.0
392.5883403377542 -6.5597607563791085 126.43035180002073 -144.3370198553122 0.0 0.0
489.64529537982776 2.2958090307088828 185.87392520918462 -134.62155685790646 0.0 0.0
568.5072656200921 15.435372537372652 249.42303148979846 -128.23773130624048 0.0 0.0
630.2180693652881 28.72913952881851 303.06966624292784 -125.1467023978262 0.0 0.0
680.0650321095603 39.83020483374576 343.93056235809365 -122.45755396816068 0.0 0.0
725.609088553714 51.64891637228373 378.52801579684063 -119.45249349418762 0.0 0.0
768.2004925623304 63.3898046563365 408.95805060159586 -116.5785779467573 0.0 0.0
809.2321595929711 75.32954050652087 437.2702134956568 -113.9658473435134 0.0 0.0
849.4150150788851 86.75014569237554 464.0342868050497 -111.15393426209053 0.0 0.0
890.5401253895755 99.36928275967514 491.40664341580634 -107.15200567858344 0.0 0.0
930.1885574373807 111.63279899110442 517.6960988767557 -101.3697737957929 0.0 0.0
968.1938165581578 123.45985106061669 542.8414233890123 -93.06927610697211 0.0 0.0
1008.1145839779288 137.51415470078894 569.8656080135734 -77.63297123435329 0.0 0.0
1047.9873988600402 153.9401869090832 597.8055074843397 -48.42588436952997 0.0 0.0
1047.9873988607842 153.9401869098776 597.8055074848031 48.42588436971784 0.0 0.0
1008.1145839785515 137.5141547015528 569.8656080140407 77.63297123463143 0.0 0.0
968.1938165579388 123.45985106048116 542.8414233889033 93.0692761071031 0.0 0.0
930.1885574371162 111.63279899100243 517.6960988765761 101.36977379603564 0.0 0.0
890.5401253891971 99.36928275941557 491.40664341553907 107.15200567864909 0.0 0.0
849.4150150785903 86.7501456921533 464.0342868048552 111.15393426206055 0.0 0.0
809.232159592462 75.3295405060941 437.2702134953064 113.96584734348963 0.0 0.0
768.2004925621231 63.389804656235995 408.95805060141276 116.5785779467717 0.0 0.0
725.6090885539747 51.648916372787916 378.5280157969703 119.4524934942576 0.0 0.0
680.0650321090365 39.83020483341885 343.9305623577153 122.45755396818299 0.0 0.0
630.2180693645031 28.729139528147364 303.0696662423094 125.14670239771931 0.0 0.0
568.5072656193786 15.435372536823316 249.42303148925703 128.23773130616172 0.0 0.0
489.64529537915416 2.2958090302444063 185.87392520867851 134.62155685782366 0.0 0.0
392.5883403375996 -6.559760755997836 126.43035179999512 144.33701985525826 0.0 0.0
293.7372692257382 -5.818508892832472 87.35012000272292 147.32877490332632 0.0 0.0
216.41597050839545 1.9352244714031057 65.50658672705882 139.81005878463316 0.0 0.0
148.51156695657482 13.927778358616447 48.73180359455738 130.69022285787915 0.0 0.0
76.47470239626237 13.60667280700602 27.024412560980522 133.16052393913964 0.0 0.0
10.001157905862401 -39.344823226018256 -8.803099596046753 159.6195014253305 0.0 0.0
0.07792273213755863 -415.8905603283302 -155.0529195242693 155.50803345055462 0.0 0.0
3.1431488468538546 -372.49915659275223 -125.48851349827564 -151.87428089089644 0.0 0.0
-6.3260979069689185 -45.2755149046268 -15.4804551492387 -169.98928792513513 0.0 0.0
40.494228028542516 9.624070823268998 15.035489655543454 -149.93336652031792 0.0 0.0
97.95189722106939 15.200172354427355 33.944017186378034 -146.5588455440202 0.0 0.0
152.60334759468978 4.5869764809134255 47.15037807020081 -155.60973682903267 0.0 0.0
212.36650848826915 -2.9303652337677875 63.27726200773286 -166.50294429498325 0.0 0.0
293.9439261910047 -4.124741509976069 90.52498778731412 -170.48218198518785 0.0 0.0
396.1084850316554 -0.017117011283157346 135.77295037264778 -163.0920413624038 0.0 0.0
487.02583705952844 8.577085105625518 192.58535587639318 -152.02910090170678 0.0 0.0
556.501955975099 19.925206242132795 248.0601427439409 -144.00214582247213 0.0 0.0
609.6406010789592 27.998839145351376 291.82464561313463 -139.6744288032296 0.0 0.0
652.7070513377157 36.322105059026 326.8523292001221 -135.7243603942998 0.0 0.0
691.9156498317296 44.84255610389792 356.7298844371452 -132.49050178727722 0.0 0.0
728.4545550464755 52.68770408671655 382.67096062484995 -129.72339478204174 0.0 0.0
763.6893377827187 59.69796404159304 406.01138285747123 -126.97543858193592 0.0 0.0
798.6693192187864 66.38915881762945 427.9756137400567 -122.9440862412269 0.0 0.0
834.3903410556245 73.42599087956856 449.91570445941585 -116.63039432347743 0.0 0.0
865.7480303095033 77.07282815941002 467.91805402033856 -107.72752806618331 0.0 0.0
896.9650046955155 79.05433017150467 484.79145092768726 -92.32124875352127 0.0 0.0
940.362122433726 91.31500647198396 512.3302866255825 -60.98568279822433 0.0 0.0
940.362122433229 91.31500647151702 512.3302866252816 60.98568279836704 0.0 0.0
896.9650046950921 79.05433017117142 484.7914509274797 92.32124875373574 0.0 0.0
865.7480303094402 77.0728281594312 467.9180540202573 107.727528066333 0.0 0.0
834.3903410547841 73.42599087889121 449.91570445883235 116.63039432368689 0.0 0.0
798.6693192182402 66.38915881710739 427.97561373963043 122.94408624119868 0.0 0.0
763.6893377823379 59.697964041272556 406.01138285715723 126.9754385819017 0.0 0.0
728.4545550461075 52.687704086497575 382.67096062461536 129.7233947821378 0.0 0.0
691.9156498315867 44.84255610397669 356.7298844370376 132.49050178744494 0.0 0.0
652.7070513373305 36.322105058780885 326.85232919981627 135.72436039426435 0.0 0.0
609.6406010789372 27.99883914549322 291.8246456130147 139.67442880319143 0.0 0.0
556.50195597523 19.925206242582817 248.06014274394965 144.0021458224433 0.0 0.0
487.0258370591828 8.577085105604407 192.58535587612178 152.0291009017199 0.0 0.0
396.10848503110606 -0.01711701147755207 135.77295037232994 163.09204136239964 0.0 0.0
293.9439261903413 -4.124741510470191 90.524987786959 170.4821819850843 0.0 0.0
212.36650848821733 -2.930365233366299 63.277262007834224 166.50294429480542 0.0 0.0
152.60334759479184 4.586976481376349 47.15037807037136 155.6097368288494 0.0 0.0
97.95189722110908 15.200172354531382 33.94401718642166 146.558845543824 0.0 0.0
40.49422802847526 9.624070823240174 15.035489655514631 149.93336652012147 0.0 0.0
-6.326097907054201 -45.275514904717554 -15.480455149291643 169.9892879249246 0.0 0.0
3.1431488468572866 -372.4991565924366 -125.48851349808642 151.874280890738 0.0 0.0
-2.1063694437262157 -326.2776771108406 -103.54514207996226 -145.76723239612753 0.0 0.0
-23.612984423272174 -51.39202067992518 -22.500261241441137 -176.47293002222347 0.0 0.0
7.406177406459317 7.123878581458068 4.358720954518236 -162.29868430435576 0.0 0.0
48.93236855641674 15.941856563974234 19.46115381261686 -158.9486488968625 0.0 0.0
87.97743126008297 7.931534368959255 28.773540496308673 -167.21227459344064 0.0 0.0
127.83751026121318 0.0008249365703905109 38.52135765205428 -180.98651132991316 0.0 0.0
179.53048098580769 -2.138689692175894 54.607094675191334 -190.34402125133155 0.0 0.0
257.0486085033075 0.8251605571368916 82.34901633257816 -189.8936566687536 0.0 0.0
354.7310294225302 4.47683548665017 122.70138952264497 -181.00342261265445 0.0 0.0
438.77501492438904 9.710772117606233 169.36253015894792 -167.38220844387178 0.0 0.0
500.33904215971825 16.28033732733463 213.50147711512548 -158.18066312684797 0.0 0.0
545.3154496167305 20.42355193750099 249.04895409073828 -152.74351418679902 0.0 0.0
583.1392284170892 25.833748961792182 280.07583225356535 -148.6416862618406 0.0 0.0
616.2508371593741 30.2796486766567 306.37648647629237 -145.40527490632613 0.0 0.0
646.2455623535238 32.94806560320675 328.26668912561814 -142.53088153261365 0.0 0.0
675.3109781379789 33.90980083625551 346.8705144413039 -138.8269579780279 0.0 0.0
706.6391984608873 34.310029344193296 364.50517448795244 -132.42052614480363 0.0 0.0
739.0880547239211 34.03673583622266 381.69881687283 -122.19555544344395 0.0 0.0
759.6428424044607 19.501060218151252 386.1164925029264 -107.33473364982513 0.0 0.0
802.6665971579024 18.87749243658969 406.9217030177202 -77.828389246594 0.0 0.0
802.6665971582041 18.877492436951144 406.92170301793357 77.82838924671582 0.0 0.0
759.6428424046245 19.501060218469377 386.1164925030724 107.33473365017807 0.0 0.0
739.0880547245517 34.03673583708692 381.6988168732611 122.19555544373216 0.0 0.0
706.6391984609438 34.31002934455367 364.50517448806653 132.42052614505428 0.0 0.0
675.3109781381559 33.909800836499755 346.8705144413868 138.82695797803572 0.0 0.0
646.2455623533792 32.94806560308466 328.2666891254733 142.53088153256817 0.0 0.0
616.2508371593113 30.279648676790472 306.3764864762569 145.40527490643734 0.0 0.0
583.1392284165697 25.833748961338593 280.07583225320747 148.64168626189368 0.0 0.0
545.3154496161393 20.423551936914905 249.04895409024394 152.7435141867354 0.0 0.0
500.33904215969886 16.28033732754087 213.50147711504957 158.18066312682984 0.0 0.0
438.77501492388126 9.710772117199177 169.36253015856494 167.38220844372117 0.0 0.0
354.7310294219729 4.476835486357285 122.70138952232938 181.00342261268554 0.0 0.0
257.04860850282995 0.8251605569348293 82.34901633234871 189.89365666873067 0.0 0.0
179.53048098550636 -2.1386896923990832 54.607094675028954 190.34402125125428 0.0 0.0
127.83751026109184 0.0008249365902912587 38.521357652023845 180.9865113297475 0.0 0.0
87.9774312601006 7.9315343691255755 28.773540496367577 167.21227459326593 0.0 0.0
48.932368556518234 15.941856564214028 19.461153812719655 158.9486488967284 0.0 0.0
7.406177406499873 7.123878581609574 4.358720954575974 162.29868430420976 0.0 0.0
-23.612984423300745 -51.39202067986952 -22.500261241433538 176.47293002213502 0.0 0.0
-2.106369443851385 -326.2776771105599 -103.54514207987836 145.7672323959876 0.0 0.0
-11.352419548628202 -279.0486013459687 -87.64614655248639 -136.3704014317028 0.0 0.0
-39.710498366976154 -56.02250088040352 -28.717151534158507 -179.89506917844656 0.0 0.0
-23.601495283382203 5.410557368319351 -5.457128749612033 -170.5881183171046 0.0 0.0
1.5241619103672712 16.458175644523074 5.394471560598098 -167.32148338712636 0.0 0.0
23.320926360318712 11.185766688390954 10.350133344177843 -174.4776328342669 0.0 0.0
41.05420531689581 3.927513215261219 13.554018713536445 -188.50463674067933 0.0 0.0
59.95494241903037 0.12001868400960136 18.454487816397155 -201.21377599459456 0.0 0.0
86.88407225179887 0.10299598996449433 27.32602616830445 -207.5496150473215 0.0 0.0
126.47190222684675 2.0063098627604177 41.40385141898323 -202.58585648111708 0.0 0.0
177.89631511968705 3.8205166165730233 60.04102846131492 -192.77181114927797 0.0 0.0
234.98390355206763 6.105036182913835 82.69553856378771 -180.34028838440332 0.0 0.0
281.98191038470486 6.604578883136874 105.25651339166745 -171.92542045571778 0.0 0.0
323.6750891249134 9.136660093953417 129.74909805305305 -166.4245777032851 0.0 0.0
364.3322614836493 9.19305002335095 154.73625138488762 -162.35028466021805 0.0 0.0
397.70158396768744 7.224625749034928 177.03991935235567 -158.04680279715117 0.0 0.0
428.9673872413815 2.1453384905994852 196.80628090725327 -154.10396729073378 0.0 0.0
465.22284319862854 -5.277817492417171 215.99870963470588 -148.3508996122182 0.0 0.0
511.21823345244235 -11.701209007594827 239.47732847906371 -138.48150860734734 0.0 0.0
555.9533096659635 -26.562635858794323 259.2465594886386 -120.34275700364033 0.0 0.0
579.9930601488403 -77.73683151981064 247.8926105256789 -97.22919438374508 0.0 0.0
579.9930601488813 -77.7368315196162 247.8926105257489 97.22919438409039 0.0 0.0
555.9533096659886 -26.56263585859631 259.2465594886568 120.34275700411493 0.0 0.0
511.2182334526243 -11.701209007222474 239.47732847921577 138.4815086075997 0.0 0.0
465.22284319876314 -5.277817492212392 215.99870963476906 148.35089961237878 0.0 0.0
428.9673872411691 2.145338490392305 196.80628090711798 154.1039672907869 0.0 0.0
397.701583967941 7.224625749311059 177.0399193524639 158.04680279711937 0.0 0.0
364.33226148402116 9.19305002406054 154.73625138518014 162.3502846603324 0.0 0.0
323.67508912500267 9.136660093985498 129.74909805305637 166.42457770338365 0.0 0.0
281.9819103845918 6.604578882971733 105.2565133915571 171.92542045573353 0.0 0.0
234.98390355195698 6.105036182626133 82.69553856364482 180.3402883843492 0.0 0.0
177.896315119266 3.82051661586938 60.041028460968526 192.7718111491113 0.0 0.0
126.47190222652542 2.006309862161114 41.40385141869643 202.58585648111048 0.0 0.0
86.88407225169361 0.10299598981772462 27.326026168223436 207.54961504727703 0.0 0.0
59.95494241905557 0.1200186840816917 18.454487816424752 201.21377599446396 0.0 0.0
41.05420531681554 3.9275132150799155 13.55401871345803 188.5046367404325 0.0 0.0
23.32092636024423 11.18576668813969 10.350133344080323 174.47763283404186 0.0 0.0
1.524161910300407 16.458175644323028 5.394471560518065 167.32148338697056 0.0 0.0
-23.60149528333392 5.410557368436619 -5.457128749562477 170.58811831689457 0.0 0.0
-39.7104983669709 -56.022500880376 -28.717151534149647 179.8950691782582 0.0 0.0
-11.352419548719508 -279.0486013457082 -87.64614655243868 136.37040143154252 0.0 0.0
-20.542347615972744 -233.43764335304226 -76.18359000741995 -125.01156981234091 0.0 0.0
-52.95738362262216 -56.99584247510997 -32.983732900429736 -179.39540730316065 0.0 0.0
-52.78517283217868 3.7708132302368265 -14.703780066977732 -174.94373067348917 0.0 0.0
-44.29064850553443 16.801377359941387 -8.246203709959675 -171.44072216837517 0.0 0.0
-40.714436220904474 14.113410750875161 -7.976009809722937 -176.83667968225956 0.0 0.0
-46.023673602829874 7.938293414175743 -11.483195674182278 -189.46836043847722 0.0 0.0
-61.0509221517795 2.9087467676770213 -17.879109708155347 -201.31780865129483 0.0 0.0
-86.82765498105074 0.3275202215733639 -27.18050304425396 -207.64625663569964 0.0 0.0
-126.20145760657675 -2.004403178670147 -41.31431777526602 -202.5851540249203 0.0 0.0
-177.82618209598922 -4.116186046113757 -60.10063702823075 -192.7231298768981 0.0 0.0
-235.32786031233894 -5.442622219844367 -82.24752256805067 -180.36688914258886 0.0 0.0
-282.85829613942417 -5.7486476043994585 -105.27320585838802 -171.6385467116467 0.0 0.0
-326.6665262419756 -8.104043924192183 -130.5881018752813 -165.98528181938198 0.0 0.0
-369.80204446029484 -9.654631956858346 -157.29119934122616 -161.9722310914053 0.0 0.0
-402.4301991841044 -15.717596450756872 -182.66422771879644 -159.06949605300386 0.0 0.0
-422.504044882323 -25.68076923533509 -204.65356175208166 -158.79159003584633 0.0 0.0
-419.7516504413303 -37.8742804012886 -217.46921172071688 -160.6173094429839 0.0 0.0
-366.8358363100902 -41.21953777314796 -209.75021019576755 -162.66936815588537 0.0 0.0
-195.08710624120687 -35.825034322715695 -136.2693257801665 -163.81556434349892 0.0 0.0
27.85916846528808 -167.20398116692735 -59.85211126134183 -126.55731873113241 0.0 0.0
27.85916846529412 -167.2039811669348 -59.8521112613611 126.55731873149759 0.0 0.0
-195.08710624099243 -35.825034322312405 -136.26932577998605 163.81556434391536 0.0 0.0
-366.83583630929104 -41.21953777195074 -209.75021019509924 162.6693681561806 0.0 0.0
-419.7516504403487 -37.87428039959211 -217.4692117198084 160.6173094429227 0.0 0.0
-422.5040448825397 -25.68076923577364 -204.6535617522253 158.79159003583163 0.0 0.0
-402.4301991842346 -15.717596451403068 -182.664227718957 159.06949605306852 0.0 0.0
-369.80204446028796 -9.654631957526966 -157.29119934132785 161.97223109146847 0.0 0.0
-326.6665262408736 -8.104043923111782 -130.58810187453554 165.98528181947097 0.0 0.0
-282.858296138752 -5.748647604107816 -105.27320585800574 171.63854671165066 0.0 0.0
-235.32786031171116 -5.442622219877617 -82.2475225678125 180.3668891425441 0.0 0.0
-177.82618209554886 -4.11618604638511 -60.100637028156854 192.7231298768281 0.0 0.0
-126.20145760628529 -2.0044031788154744 -41.31431777521096 202.5851540249517 0.0 0.0
-86.82765498069705 0.32752022171162043 -27.18050304410061 207.64625663568205 0.0 0.0
-61.05092215146583 2.9087467680683656 -17.87910970793751 201.31780865111068 0.0 0.0
-46.0236736027322 7.938293414098512 -11.483195674174963 189.46836043820412 0.0 0.0
-40.71443622097962 14.11341075042212 -7.976009809881685 176.8366796819911 0.0 0.0
-44.29064850560071 16.801377359618222 -8.246203710076772 171.4407221682178 0.0 0.0
-52.78517283215599 3.7708132303051727 -14.703780066950802 174.9437306733599 0.0 0.0
-52.95738362256903 -56.99584247504996 -32.98373290039716 179.39540730302846 0.0 0.0
-20.542347616009607 -233.437643352852 -76.18359000737728 125.01156981215591 0.0 0.0
-24.042297491068908 -190.0416025162941 -64.2251700022089 -112.42849654691246 0.0 0.0
-63.914480018016754 -55.17331062247512 -35.72598247672087 -175.03570771591046 0.0 0.0
-80.01087256363613 2.4195703427356117 -23.27656711971038 -175.1237715998328 0.0 0.0
-88.57104397150607 16.74383864467489 -21.542428567601664 -171.26509238964712 0.0 0.0
-103.41997229963108 16.493461461194478 -26.079443542824237 -174.03347983224236 0.0 0.0
-131.8541815344732 11.200932756669607 -36.4965746728535 -183.3184634221735 0.0 0.0
-180.44838208391963 5.063940519654903 -54.02576421879874 -191.25270349286876 0.0 0.0
-256.9123851846656 -0.4354218750907677 -82.20071327181505 -190.07285387176714 0.0 0.0
-354.4787624068339 -4.577550058292674 -122.63679734358233 -181.00174248384525 0.0 0.0
-438.6010841378304 -9.68002013932233 -169.25715604366826 -167.3301321908892 0.0 0.0
-500.02442417559035 -15.848172518610316 -213.22927086828201 -158.0525611025566 0.0 0.0
-545.258717085944 -19.6179526642201 -248.7441101289564 -152.3652861100197 0.0 0.0
-583.4868247249085 -24.68160572533605 -279.8090341624966 -147.78236337966285 0.0 0.0
-618.5231004869861 -31.022831125576808 -307.76822454474046 -144.57217606611334 0.0 0.0
-652.2819093907015 -40.46221945329678 -334.4515332350814 -143.6497014976341 0.0 0.0
-683.5539210059262 -53.68621092019583 -359.987105520688 -145.74203275625422 0.0 0.0
-709.5549850179517 -70.81978919997948 -383.9133200601682 -151.89669792250618 0.0 0.0
-724.9884600511059 -89.21165042685686 -403.0669765626431 -161.99608009423602 0.0 0.0
-761.1700838460829 -144.07101980980013 -447.9451951955021 -171.51534884365677 0.0 0.0
-735.1560795511241 -208.72098272309785 -464.52355239204326 -181.28963511895824 0.0 0.0
-735.1560795514353 -208.7209827236798 -464.5235523923377 181.2896351192856 0.0 0.0
-761.1700838462789 -144.07101981032108 -447.9451951957148 171.51534884408872 0.0 0.0
-724.9884600508265 -89.21165042675668 -403.0669765624857 161.99608009445103 0.0 0.0
-709.5549850175198 -70.81978919970618 -383.91332005988784 151.8966979226042 0.0 0.0
-683.553921005335 -53.68621091963385 -359.98710552025375 145.74203275616867 0.0 0.0
-652.2819093900705 -40.46221945270523 -334.45153323465274 143.64970149760126 0.0 0.0
-618.5231004865154 -31.022831125125393 -307.76822454437115 144.57217606607028 0.0 0.0
-583.4868247250037 -24.681605725670927 -279.8090341625311 147.78236337972277 0.0 0.0
-545.2587170860415 -19.61795266483025 -248.74411012903943 152.3652861101315 0.0 0.0
-500.0244241751335 -15.848172518447242 -213.22927086791674 158.05256110250463 0.0 0.0
-438.60108413717023 -9.680020138976282 -169.25715604318265 167.3301321907718 0.0 0.0
-354.47876240622236 -4.577550058159165 -122.6367973432657 181.0017424838446 0.0 0.0
-256.9123851840278 -0.43542187496409124 -82.2007132715595 190.07285387182867 0.0 0.0
-180.4483820836046 5.063940519641122 -54.025764218697525 191.2527034927273 0.0 0.0
-131.85418153418993 11.200932756721828 -36.49657467275183 183.31846342200816 0.0 0.0
-103.41997229933742 16.49346146143056 -26.07944354266704 174.03347983202625 0.0 0.0
-88.57104397129265 16.743838644872913 -21.542428567478815 171.26509238949808 0.0 0.0
-80.01087256356493 2.4195703427411166 -23.276567119689943 175.1237715996545 0.0 0.0
-63.914480017999665 -55.17331062252907 -35.725982476732575 175.0357077157541 0.0 0.0
-24.04229749107645 -190.04160251613376 -64.22517000216305 112.42849654675872 0.0 0.0
-25.10429432705432 -149.83864087131585 -52.48288055951103 -99.43906779868792 0.0 0.0
-73.08159909118443 -50.87154468676608 -37.18556027778496 -166.64699757959838 0.0 0.0
-105.46783921120115 1.3403070257033658 -31.235309515030877 -171.0795020708117 0.0 0.0
-131.13168224378526 16.33661773687937 -34.42774776786678 -166.64964585903286 0.0 0.0
-164.49474523302388 17.746949061554812 -44.090157505889444 -166.31529838060442 0.0 0.0
-215.18224830595148 13.114473442433512 -61.21177296812134 -170.44981529674916 0.0 0.0
-294.10390851081274 6.8549386680512026 -89.88860734180204 -171.54164794811635 0.0 0.0
-395.74806776467705 0.23814431506868416 -135.606991989052 -163.38924904414998 0.0 0.0
-486.9336807976959 -8.649462316727703 -192.53290957892827 -151.97650994920266 0.0 0.0
-556.444000376373 -19.905036834158743 -248.02448598619304 -143.94714128444866 0.0 0.0
-609.4783359913465 -27.711461607499484 -291.66913627012735 -139.5569482993582 0.0 0.0
-652.499243855144 -35.63925837478106 -326.4862360087098 -135.32184446181247 0.0 0.0
-691.8911000385165 -43.78531398783655 -356.2233356641985 -131.48896831122016 0.0 0.0
-729.943014033943 -52.959893014344956 -383.4267190918523 -128.4314644147914 0.0 0.0
-768.6130279512781 -65.24683276177791 -410.89933063809843 -127.45974172443812 0.0 0.0
-807.2015513239476 -82.09137644234309 -439.67076514584875 -129.85465645140877 0.0 0.0
-843.6311970327527 -103.27703851125386 -469.2567485333759 -136.59287446866924 0.0 0.0
-885.2629225507351 -138.0078302027742 -508.08370617366387 -144.7657385416018 0.0 0.0
-930.5429288705742 -190.0305367422822 -557.178117475117 -152.77163267343647 0.0 0.0
-996.3842535731407 -301.8465030935559 -642.2383315141578 -163.38247547570828 0.0 0.0
-996.3842535729032 -301.84650309358483 -642.2383315141816 163.38247547602452 0.0 0.0
-930.5429288704593 -190.03053674236622 -557.1781174751114 152.77163267374493 0.0 0.0
-885.2629225505474 -138.0078302027659 -508.0837061735364 144.76573854179927 0.0 0.0
-843.6311970325936 -103.27703851129147 -469.2567485332937 136.59287446885662 0.0 0.0
-807.2015513239703 -82.09137644252417 -439.67076514586677 129.85465645146184 0.0 0.0
-768.6130279512456 -65.2468327619362 -410.89933063810173 127.45974172456978 0.0 0.0
-729.9430140338803 -52.95989301450922 -383.42671909178443 128.4314644148931 0.0 0.0
-691.8911000384169 -43.785313988038084 -356.2233356641173 131.48896831135318 0.0 0.0
-652.4992438547964 -35.63925837466732 -326.4862360084207 135.321844461844 0.0 0.0
-609.4783359911164 -27.711461607545065 -291.66913626990845 139.55694829932088 0.0 0.0
-556.4440003758224 -19.905036833910923 -248.02448598578462 143.94714128441893 0.0 0.0
-486.9336807969121 -8.649462316278907 -192.53290957839175 151.97650994922685 0.0 0.0
-395.74806776365676 0.23814431573318906 -135.60699198845398 163.3892490442086 0.0 0.0
-294.1039085102332 6.8549386681729345 -89.88860734156651 171.541647948004 0.0 0.0
-215.18224830551398 13.114473442625068 -61.21177296793161 170.4498152965905 0.0 0.0
-164.4947452326896 17.746949061783095 -44.09015750572338 166.31529838040393 0.0 0.0
-131.13168224354055 16.33661773705182 -34.42774776774265 166.6496458587987 0.0 0.0
-105.46783921103018 1.340307025821268 -31.235309514945037 171.07950207067802 0.0 0.0
-73.08159909110816 -50.87154468666068 -37.185560277730694 166.64699757944993 0.0 0.0
-25.10429432704691 -149.83864087121316 -52.482880559478005 99.43906779853633 0.0 0.0
-25.66211012685315 -113.41145986995537 -41.72207099904254 -86.24314798267392 0.0 0.0
-81.23804638051911 -44.65975598468061 -37.769340709559906 -154.46609378207452 0.0 0.0
-129.29352337612502 0.6565680111836345 -38.588294677045695 -162.75650397666155 0.0 0.0
-172.0568996620666 15.244240049012081 -47.034135207814856 -157.7080420551461 0.0 0.0
-223.42510283291668 17.803868984664245 -61.74973904891604 -153.57085266549217 0.0 0.0
-294.2087979371424 14.247097329823088 -85.44644019565165 -151.9682545433197 0.0 0.0
-391.87371743670604 8.957872843909561 -125.62259210988726 -145.87361881417263 0.0 0.0
-489.34727101877195 -2.1638199739466337 -185.68190685111665 -134.77727955379353 0.0 0.0
-568.547414327519 -15.541943022676815 -249.44506813104164 -128.1429997704936 0.0 0.0
-630.2035423996045 -28.735977652126728 -303.0841577691917 -125.10003254963746 0.0 0.0
-679.9656366247236 -39.63222573819214 -343.8262869903843 -122.3645708624144 0.0 0.0
-725.4610781584023 -51.1918948929409 -378.27051170509424 -119.07130752910395 0.0 0.0
-768.0590454753906 -62.51852168423889 -408.46234388503774 -115.5201946148062 0.0 0.0
-809.7797576731248 -74.91344381385079 -437.2679691295059 -112.3854496350766 0.0 0.0
-852.101903470797 -89.6359482644283 -466.65672602092354 -111.16011487371512 0.0 0.0
-896.9313826733776 -110.17686037845668 -499.7349420368257 -113.41697324721525 0.0 0.0
-945.9257948525046 -140.3146274111155 -539.4883580909252 -119.28096410660203 0.0 0.0
-1001.3451821061242 -184.47397581418616 -589.6825287016654 -126.42547169877885 0.0 0.0
-1067.3641501938828 -252.10731092349192 -656.5498863868121 -132.12985967826717 0.0 0.0
-1148.3473580614336 -369.492828475879 -753.602201445303 -141.8202033552598 0.0 0.0
-1148.3473580615828 -369.4928284761186 -753.6022014453827 141.82020335544252 0.0 0.0
-1067.3641501946906 -252.10731092454517 -656.5498863873527 132.12985967862136 0.0 0.0
-1001.345182107033 -184.47397581531644 -589.6825287023089 126.42547169906527 0.0 0.0
-945.92579485287 -140.3146274117067 -539.4883580911703 119.28096410679998 0.0 0.0
-896.9313826729128 -110.1768603781046 -499.73494203645396 113.41697324724075 0.0 0.0
-852.1019034700511 -89.63594826371951 -466.6567260203972 111.16011487362093 0.0 0.0
-809.7797576724447 -74.91344381325493 -437.2679691290469 112.385449635036 0.0 0.0
-768.0590454751475 -62.5185216841742 -408.4623438849085 115.52019461482662 0.0 0.0
-725.4610781581162 -51.191894892865434 -378.2705117048792 119.07130752910399 0.0 0.0
-679.9656366239233 -39.632225737575766 -343.8262869898274 122.36457086237478 0.0 0.0
-630.2035423994344 -28.735977652270194 -303.08415776898244 125.1000325496251 0.0 0.0
-568.5474143272567 -15.541943022831472 -249.44506813078812 128.14299977054156 0.0 0.0
-489.3472710183697 -2.1638199740373394 -185.68190685080705 134.77727955386902 0.0 0.0
-391.8737174362893 8.957872843785983 -125.62259210970157 145.87361881414623 0.0 0.0
-294.20879793656917 14.247097330100068 -85.44644019539165 151.96825454318395 0.0 0.0
-223.42510283251153 17.803868984882826 -61.74973904873481 153.57085266535222 0.0 0.0
-172.05689966186617 15.244240049014866 -47.03413520775787 157.70804205501327 0.0 0.0
-129.29352337601094 0.6565680110701275 -38.58829467704628 162.75650397651356 0.0 0.0
-81.23804638047827 -44.6597559847241 -37.769340709560716 154.46609378191866 0.0 0.0
-25.662110126866224 -113.4114598698969 -41.72207099902894 86.24314798260347 0.0 0.0
-26.274993745219923 -81.21617252952845 -32.24734988242451 -72.76298645909789 0.0 0.0
-88.89194542147627 -37.15931489247028 -37.815378094183956 -138.91144263038115 0.0 0.0
-151.72321130909046 0.3599191372705848 -45.407755395531304 -150.24701881155244 0.0 0.0
-211.36180476682895 13.551101325802039 -59.32366544877281 -144.37047982413415 0.0 0.0
-279.9824404901424 16.925606949497606 -78.85759768026003 -136.8176623110454 0.0 0.0
-367.249029976142 15.725276855749067 -109.5178108606031 -129.0906329160338 0.0 0.0
-467.88157615076295 8.172462722903283 -162.0051260797021 -117.67003851781463 0.0 0.0
-555.9015202182738 -6.401160043930066 -230.3787991735401 -109.73844121378855 0.0 0.0
-625.7648844712744 -21.774050717511 -293.13663703007205 -107.88974985352058 0.0 0.0
-683.5317360889946 -36.46522665721908 -342.6520220966583 -107.20608410282364 0.0 0.0
-735.1464920551184 -51.13438781174477 -382.9341478525896 -105.40018602622047 0.0 0.0
-783.5832399123462 -66.22893589543497 -418.291409511962 -102.56284285737819 0.0 0.0
-829.9728791481964 -81.4075591852237 -450.8817859923517 -99.35657898746499 0.0 0.0
-875.3628560075579 -96.77310109705451 -482.22204227831935 -96.37725281030325 0.0 0.0
-921.6590517833811 -114.13336163778227 -514.5258686815755 -94.86715808480098 0.0 0.0
-972.3291393589459 -139.0406636283751 -552.4292972566286 -96.2110937535857 0.0 0.0
-1032.5243254197053 -177.3915993497 -601.6714305961743 -101.05756633807205 0.0 0.0
-1102.9526333364788 -233.94758387575644 -665.2968574962946 -107.14242141541907 0.0 0.0
-1182.7994080744825 -314.080788160384 -745.3355552362243 -112.48051058122816 0.0 0.0
-1261.2620643746523 -427.3828268427792 -840.0976067435085 -125.70773845341557 0.0 0.0
-1261.2620643743046 -427.38282684247986 -840.0976067432935 125.70773845352363 0.0 0.0
-1182.7994080736369 -314.08078815963927 -745.3355552356547 112.48051058143828 0.0 0.0
-1102.9526333357344 -233.94758387511098 -665.2968574957064 107.1424214155744 0.0 0.0
-1032.5243254190266 -177.39159934911225 -601.6714305956169 101.0575663381421 0.0 0.0
-972.3291393591005 -139.04066362864182 -552.4292972566408 96.21109375365475 0.0 0.0
-921.6590517832401 -114.13336163780446 -514.5258686814166 94.8671580849103 0.0 0.0
-875.3628560074835 -96.77310109713434 -482.2220422782399 96.3772528103476 0.0 0.0
-829.9728791477929 -81.40755918499693 -450.88178599201996 99.35657898751575 0.0 0.0
-783.583239911855 -66.22893589512903 -418.29140951157893 102.56284285737067 0.0 0.0
-735.1464920549821 -51.13438781184204 -382.93414785246654 105.40018602619688 0.0 0.0
-683.5317360887892 -36.4652266572549 -342.6520220964642 107.2060841027689 0.0 0.0
-625.7648844711512 -21.77405071772977 -293.1366370299069 107.88974985355757 0.0 0.0
-555.9015202181207 -6.401160044257185 -230.37879917335948 109.7384412139017 0.0 0.0
-467.88157615018815 8.172462723067902 -162.00512607931392 117.67003851780993 0.0 0.0
-367.2490299756582 15.725276855695729 -109.51781086044726 129.09063291599583 0.0 0.0
-279.98244048978887 16.92560694950072 -78.85759768015869 136.81766231092467 0.0 0.0
-211.36180476652288 13.55110132606018 -59.323665448605 144.37047982401975 0.0 0.0
-151.7232113088781 0.3599191374563606 -45.40775539541245 150.24701881140527 0.0 0.0
-88.89194542134337 -37.15931489239501 -37.815378094121506 138.91144263019544 0.0 0.0
-26.274993745190102 -81.21617252948022 -32.24734988240109 72.76298645899328 0.0 0.0
-26.98782259208707 -53.67408604299999 -24.198572590526116 -58.86579407098187 0.0 0.0
-96.10480865769279 -28.92634316913803 -37.50934554804924 -120.3668303626269 0.0 0.0
-172.98890370770906 0.38593851310503613 -51.780889558381205 -133.6778779451085 0.0 0.0
-248.88721563353965 10.902764888202453 -71.38484381949742 -126.70512431282457 0.0 0.0
-331.82294348962785 16.331680095977948 -95.07795495056732 -116.21256783768305 0.0 0.0
-431.4206387304472 15.88009678675365 -134.54040292334656 -103.43170335866114 0.0 0.0
-526.7063244073299 5.651500214192495 -197.37831578558973 -91.22990826116953 0.0 0.0
-604.0516574969122 -11.018424623449754 -267.87309786424623 -87.9703799181107 0.0 0.0
-668.544937951021 -26.58371637475684 -325.89334355195626 -88.89979060979478 0.0 0.0
-726.8781656418707 -43.94452401237772 -373.58709395570617 -89.21183065286175 0.0 0.0
-781.3301740670204 -62.287649370356775 -414.71311959985485 -88.00283612419716 0.0 0.0
-833.1722090125583 -81.07073020418676 -452.23217356649656 -85.61330402790045 0.0 0.0
-883.7158463996366 -100.06058326959273 -488.09123182653116 -82.95307086319153 0.0 0.0
-932.8623648323648 -119.12105228337923 -522.7986412521439 -80.27726067164423 0.0 0.0
-982.7053374755114 -139.34499580022305 -558.1392358633434 -78.40070312455504 0.0 0.0
-1039.250250446498 -167.84628862293889 -600.6809819273193 -78.56817773546621 0.0 0.0
-1108.6080415661604 -214.1081417388898 -658.2951108721409 -81.86598514092728 0.0 0.0
-1192.6381514795455 -283.09219852452577 -734.7421474125216 -87.5167575815691 0.0 0.0
-1281.7905255409426 -372.234350530929 -823.9970774804324 -94.75382595293729 0.0 0.0
-1359.1087441418238 -483.3619432453642 -917.757824338592 -113.38950433245942 0.0 0.0
-1359.1087441423551 -483.36194324595664 -917.7578243390577 113.38950433257 0.0 0.0
-1281.790525541518 -372.234350531563 -823.9970774808749 94.75382595305427 0.0 0.0
-1192.6381514795262 -283.09219852461695 -734.7421474124817 87.51675758173528 0.0 0.0
-1108.6080415655476 -214.1081417383476 -658.2951108716911 81.86598514095797 0.0 0.0
-1039.2502504464892 -167.84628862303964 -600.6809819272348 78.56817773551403 0.0 0.0
-982.7053374748657 -139.34499579969622 -558.1392358628605 78.40070312460178 0.0 0.0
-932.8623648322211 -119.12105228336665 -522.7986412519622 80.27726067164619 0.0 0.0
-883.7158463994075 -100.06058326954029 -488.0912318263397 82.95307086325047 0.0 0.0
-833.172209012073 -81.0707302038824 -452.23217356616414 85.61330402788042 0.0 0.0
-781.3301740660887 -62.28764936956273 -414.7131195991833 88.00283612407289 0.0 0.0
-726.8781656409506 -43.9445240116048 -373.5870939550265 89.21183065267365 0.0 0.0
-668.5449379502849 -26.583716374212543 -325.8933435513743 88.89979060971058 0.0 0.0
-604.0516574964504 -11.018424623335047 -267.8730978638365 87.97037991816953 0.0 0.0
-526.7063244065458 5.651500214629769 -197.37831578501408 91.22990826119766 0.0 0.0
-431.4206387300322 15.880096786724504 -134.54040292314596 103.43170335863822 0.0 0.0
-331.82294348930316 16.331680095815003 -95.0779549505278 116.21256783762335 0.0 0.0
-248.8872156333326 10.902764888135756 -71.3848438194573 126.70512431263816 0.0 0.0
-172.98890370758707 0.3859385131085076 -51.78088955834357 133.67787794503374 0.0 0.0
-96.10480865754413 -28.926343169086522 -37.50934554798919 120.36683036255644 0.0 0.0
-26.987822592050644 -53.67408604296836 -24.198572590505698 58.86579407092209 0.0 0.0
-27.51909904196735 -31.183221239592676 -17.610696084468007 -44.48605875523955 0.0 0.0
-102.51650669292493 -20.460492753714878 -36.89309983399194 -99.16188215380873 0.0 0.0
-193.18095617949567 0.6057413808591718 -57.772564439590944 -113.00721436038243 0.0 0.0
-285.1934598008072 7.450320143661985 -83.3168456016983 -105.35870681833875 0.0 0.0
-382.5089585112605 16.045504437202275 -111.27738216709176 -92.49085449941713 0.0 0.0
-483.9407031156306 15.081341843995224 -160.00091938287318 -76.75989949576345 0.0 0.0
-568.3092105692808 1.0312786033989596 -230.1761723309421 -67.70815495257854 0.0 0.0
-639.8256095051129 -13.689046424556118 -296.78135146985915 -68.25973575759667 0.0 0.0
-703.7612646182733 -31.02985059605853 -351.90259892411007 -69.97314667692383 0.0 0.0
-763.6854715979805 -51.360761464644 -399.08121330502223 -70.78963854369597 0.0 0.0
-821.0286412938879 -73.03580350648963 -441.72616734574996 -70.0456899454952 0.0 0.0
-876.8189989122345 -95.63710436325208 -482.32991918601283 -68.19829012580273 0.0 0.0
-931.3448377290392 -118.5798222764906 -521.7557533016092 -66.08767327969157 0.0 0.0
-985.5540233296558 -141.97280500632013 -560.9705982942653 -64.00686813174646 0.0 0.0
-1039.7444387334988 -166.01383598867838 -600.3167360476306 -61.95232916661757 0.0 0.0
-1098.8005176306058 -196.85964850834435 -645.2664995333604 -60.565503018646005 0.0 0.0
-1175.1899937521998 -248.46245137991895 -708.9567171645391 -62.06075514714485 0.0 0.0
-1270.9612294660274 -327.9590219123518 -796.3696789373737 -67.83222366957047 0.0 0.0
-1371.096403538566 -427.7510206046545 -896.456858076047 -78.41629521238382 0.0 0.0
-1451.7632740566676 -541.4652914120953 -993.6558118956641 -103.02366246423655 0.0 0.0
-1451.7632740565443 -541.465291412044 -993.6558118956219 103.02366246437072 0.0 0.0
-1371.096403538562 -427.7510206046832 -896.4568580760584 78.4162952124394 0.0 0.0
-1270.9612294659257 -327.95902191234563 -796.3696789372859 67.8322236697588 0.0 0.0
-1175.189993751587 -248.4624513793707 -708.9567171640576 62.06075514712667 0.0 0.0
-1098.800517630687 -196.85964850849936 -645.2664995333123 60.565503018595564 0.0 0.0
-1039.744438732971 -166.01383598828565 -600.3167360472365 61.95232916672691 0.0 0.0
-985.5540233285524 -141.97280500532747 -560.9705982934665 64.00686813170323 0.0 0.0
-931.3448377284636 -118.57982227607026 -521.7557533011542 66.08767327970853 0.0 0.0
-876.8189989120183 -95.63710436325646 -482.32991918580484 68.19829012590043 0.0 0.0
-821.0286412933792 -73.03580350620648 -441.72616734537513 70.0456899455127 0.0 0.0
-763.6854715976607 -51.360761464562444 -399.08121330478355 70.78963854366634 0.0 0.0
-703.7612646178311 -31.029850595873114 -351.90259892375616 69.97314667692265 0.0 0.0
-639.825609504872 -13.68904642466373 -296.78135146959727 68.25973575769865 0.0 0.0
-568.309210569054 1.031278603211252 -230.17617233067563 67.70815495261817 0.0 0.0
-483.94070311547165 15.081341843728623 -160.00091938274795 76.75989949566426 0.0 0.0
-382.5089585110336 16.045504436880705 -111.277382167108 92.49085449935762 0.0 0.0
-285.1934598004613 7.450320143795382 -83.31684560156351 105.35870681823755 0.0 0.0
-193.18095617919917 0.605741381120454 -57.7725644394236 113.00721436033547 0.0 0.0
-102.51650669279951 -20.460492753642825 -36.893099833932695 99.16188215375534 0.0 0.0
-27.519099041935593 -31.183221239557717 -17.61069608444799 44.486058755152015 0.0 0.0
-27.228160491481077 -14.124241764521834 -12.405720676800872 -29.760591948868594 0.0 0.0
-107.21720157713878 -12.174613721555883 -35.817544589608396 -75.47147763497433 0.0 0.0
-212.43815964718823 0.6100704723141508 -63.548426752462206 -88.14752661234344 0.0 0.0
-320.8304124504383 4.4552835111738975 -94.89856124417736 -80.42426901620229 0.0 0.0
-429.8870277881568 16.29776739294277 -127.85188551411575 -66.196930093964 0.0 0.0
-525.8328249614128 11.355612865742916 -186.85715367091166 -51.70806023524918 0.0 0.0
-601.7916413899137 -2.3534986158962994 -258.49799995996113 -47.21162013877038 0.0 0.0
-668.9804025797557 -15.879326496584738 -319.85013484904084 -48.75626042252735 0.0 0.0
-733.2374918269196 -35.515393541084705 -373.1023964979655 -50.8127837395379 0.0 0.0
-795.3211386334826 -58.55325315454383 -420.65656506245546 -51.85359338752576 0.0 0.0
-855.9921092932659 -83.5351515113855 -465.56004410396054 -51.514831232148296 0.0 0.0
-915.4767247682925 -109.84263340549325 -509.3852743325041 -50.21532668060519 0.0 0.0
-974.742488461074 -136.8209597520823 -552.9767731948189 -48.76542873334588 0.0 0.0
-1033.7762959678698 -165.1268720607591 -596.9245902085238 -47.259052350575914 0.0 0.0
-1093.4658671172392 -194.63787464440713 -641.6874694635783 -45.444484127723236 0.0 0.0
-1155.9994025623164 -228.21378058314656 -689.7975259142763 -43.00223225903919 0.0 0.0
-1230.08437269796 -276.80868395871255 -750.8461207596772 -42.08013924279387 0.0 0.0
-1336.0022125099222 -365.2007804997741 -847.5218373020305 -47.555463127157196 0.0 0.0
-1453.3512617753968 -480.8681605380792 -964.1373069070321 -62.27457101352598 0.0 0.0
-1547.6713727161605 -606.2497657516739 -1074.3915320595404 -93.36164371364195 0.0 0.0
-1547.6713727167426 -606.2497657522856 -1074.3915320598494 93.361643713716 0.0 0.0
-1453.3512617752258 -480.8681605379681 -964.1373069068416 62.27457101363105 0.0 0.0
-1336.0022125096602 -365.2007804995938 -847.5218373017678 47.55546312731543 0.0 0.0
-1230.0843726977691 -276.8086839586022 -750.8461207594589 42.08013924282055 0.0 0.0
-1155.9994025621716 -228.2137805830957 -689.7975259141339 43.002232259057166 0.0 0.0
-1093.4658671169786 -194.63787464427233 -641.6874694633892 45.44448412776907 0.0 0.0
-1033.776295967401 -165.12687206040198 -596.9245902081113 47.25905235049986 0.0 0.0
-974.7424884603513 -136.82095975151682 -552.9767731942771 48.76542873335446 0.0 0.0
-915.4767247674079 -109.84263340479349 -509.38527433187494 50.21532668066395 0.0 0.0
-855.9921092926188 -83.53515151093856 -465.5600441035133 51.51483123210325 0.0 0.0
-795.3211386335615 -58.55325315485044 -420.65656506247603 51.853593387417256 0.0 0.0
-733.237491826966 -35.51539354136821 -373.10239649794426 50.81278373942226 0.0 0.0
-668.9804025795273 -15.879326496643838 -319.8501348487998 48.75626042254338 0.0 0.0
-601.7916413896893 -2.353498616017628 -258.49799995969306 47.21162013880574 0.0 0.0
-525.8328249611488 11.35561286564442 -186.85715367067223 51.70806023519785 0.0 0.0
-429.88702778777986 16.297767392882637 -127.85188551398323 66.19693009393728 0.0 0.0
-320.83041245008314 4.455283511401147 -94.89856124400512 80.42426901616184 0.0 0.0
-212.43815964693562 0.6100704723858001 -63.548426752364946 88.14752661227512 0.0 0.0
-107.2172015771321 -12.174613721650626 -35.817544589634814 75.47147763490175 0.0 0.0
-27.228160491478544 -14.124241764555062 -12.40572067681008 29.76059194883657 0.0 0.0
-24.876992668060524 -2.80690557068197 -8.305169471622749 -15.201674633104666 0.0 0.0
-108.56925587630263 -4.592251524562762 -33.94845222025961 -49.27458740565275 0.0 0.0
-230.95235206399235 0.19203341233737703 -69.22809559549648 -58.57262593194335 0.0 0.0
-357.43277100678546 2.5537478749151648 -106.42289923759938 -52.29172136991522 0.0 0.0
-470.2185005846526 17.193382597633715 -144.97154153357556 -39.49714169796754 0.0 0.0
-555.5796890256586 5.219142561191905 -213.53043099693974 -28.91540911732497 0.0 0.0
-627.5082659417878 -3.6167319768918915 -280.70799932052876 -27.99784389760646 0.0 0.0
-693.1775219459292 -18.685680783958396 -338.93217772913033 -29.491570768388105 0.0 0.0
-757.9491686416898 -39.842787104196404 -390.5207388331836 -31.276773127041494 0.0 0.0
-822.500212039247 -65.4717890520161 -439.1284720302869 -32.33379092905848 0.0 0.0
-886.7158864043935 -93.85195241806761 -486.82353436475745 -32.3561096586194 0.0 0.0
-950.5292005549509 -123.61951472978389 -534.2410997368236 -31.687457301843043 0.0 0.0
-1014.0139721590967 -155.1061377076659 -582.0458258197875 -30.822260262305907 0.0 0.0
-1078.5268354712166 -188.21300316706618 -631.0383155146251 -29.9489555996746 0.0 0.0
-1144.8056180573642 -223.97943452110584 -682.1690376680104 -28.712985462408255 0.0 0.0
-1212.4945704729325 -263.0034382917987 -735.5899928833715 -26.346584406432772 0.0 0.0
-1282.5082558313063 -307.6487809899976 -792.8218187701924 -23.301888075660777 0.0 0.0
-1370.7060674113234 -376.98338057665654 -870.9450719073236 -25.954076666561985 0.0 0.0
-1531.0517155988991 -532.5483209918816 -1028.6149663836268 -44.07461242964266 0.0 0.0
-1657.309867947211 -686.3605223549682 -1169.5989300625065 -83.30674984297897 0.0 0.0
-1657.309867946883 -686.3605223546485 -1169.598930062317 83.30674984300427 0.0 0.0
-1531.051715598873 -532.548320991886 -1028.6149663835956 44.07461242962729 0.0 0.0
-1370.7060674110066 -376.9833805763974 -870.9450719070193 25.95407666665893 0.0 0.0
-1282.5082558304825 -307.6487809892436 -792.8218187695394 23.301888075639944 0.0 0.0
-1212.4945704723075 -263.0034382912666 -735.5899928828449 26.346584406502828 0.0 0.0
-1144.8056180569633 -223.97943452082023 -682.1690376676881 28.71298546237405 0.0 0.0
-1078.526835470781 -188.2130031667416 -631.0383155143071 29.948955599581147 0.0 0.0
-1014.013972158292 -155.1061377070218 -582.0458258192108 30.822260262311033 0.0 0.0
-950.5292005543415 -123.61951472936761 -534.2410997363921 31.68745730188833 0.0 0.0
-886.7158864040184 -93.85195241791479 -486.82353436444623 32.3561096586448 0.0 0.0
-822.5002120385984 -65.47178905157983 -439.1284720297811 32.333790928982694 0.0 0.0
-757.9491686412628 -39.8427871040114 -390.5207388328445 31.27677312701405 0.0 0.0
-693.1775219453268 -18.68568078363653 -338.9321777286524 29.491570768480805 0.0 0.0
-627.5082659412961 -3.6167319766851946 -280.70799932007947 27.99784389760134 0.0 0.0
-555.5796890251931 5.2191425613654765 -213.53043099654025 28.915409117309807 0.0 0.0
-470.2185005842823 17.193382597632393 -144.97154153338911 39.49714169796682 0.0 0.0
-357.43277100656206 2.5537478746989217 -106.42289923760217 52.29172136982122 0.0 0.0
-230.95235206366402 0.1920334125634895 -69.22809559533015 58.57262593182379 0.0 0.0
-108.56925587612503 -4.59225152432804 -33.94845222013592 49.27458740562073 0.0 0.0
-24.876992668055788 -2.8069055706726953 -8.305169471618544 15.201674633130285 0.0 0.0
-18.07610796037183 2.58009722797663 -4.648803219718558 -2.019733258849478 0.0 0.0
-103.8221742350358 1.5933212603373086 -30.668655892409532 -20.09937213852077 0.0 0.0
-249.38496142613093 -1.1182103031453465 -75.15095151878288 -23.177622950403094 0.0 0.0
-396.770548439691 3.745636635166643 -118.0189116743745 -21.249879171431616 0.0 0.0
-505.9743422225959 14.965996969648884 -164.86835870992655 -13.704250267146453 0.0 0.0
-582.898486947202 1.7103893740673044 -237.34569195504042 -9.194114375397865 0.0 0.0
-648.1833056562167 -5.322393380714352 -299.1192164643532 -9.304501630464642 0.0 0.0
-713.1166429069856 -21.51465087032568 -354.4282216511126 -10.201026509283242 0.0 0.0
-778.9126523341688 -44.25218777008237 -405.2390996856783 -11.37090791610088 0.0 0.0
-846.0395335544173 -72.23681565234133 -455.2828502690064 -12.209561982758085 0.0 0.0
-913.8284677514896 -103.53700297164784 -505.75169051780006 -12.567611923277148 0.0 0.0
-981.701946455077 -137.67317787619817 -557.1774292641695 -12.495854914994194 0.0 0.0
-1050.0617547427685 -173.1334944117574 -609.3103165653653 -12.315468368335955 0.0 0.0
-1120.0195143261546 -210.96978447621507 -663.3274132822648 -12.04213363909024 0.0 0.0
-1192.6868076672401 -252.90456174677328 -720.692587799731 -11.452919577738813 0.0 0.0
-1267.2798227197866 -299.10067849244916 -781.1128009952524 -10.154477980010673 0.0 0.0
-1339.5793814756253 -346.8118352086725 -841.106044547063 -7.518278521959196 0.0 0.0
-1407.1376973246688 -395.5160788435591 -898.9847116550794 -5.5014177514414 0.0 0.0
-1501.6880710960108 -481.0088756868885 -988.0653692873811 -19.161204824281263 0.0 0.0
-1850.9926944407562 -848.9774168516144 -1347.7394472776946 -67.03807412275931 0.0 0.0
-1850.9926944417607 -848.9774168526405 -1347.7394472784213 67.03807412277149 0.0 0.0
-1501.688071096179 -481.00887568709277 -988.0653692875101 19.161204824283264 0.0 0.0
-1407.137697324516 -395.51607884346504 -898.9847116548979 5.501417751524416 0.0 0.0
-1339.5793814751926 -346.8118352083145 -841.106044546691 7.5182785219267885 0.0 0.0
-1267.2798227194785 -299.100678492234 -781.1128009950006 10.154477980073873 0.0 0.0
-1192.6868076670312 -252.90456174668353 -720.6925877995129 11.45291957771366 0.0 0.0
-1120.019514325967 -210.9697844761626 -663.327413282031 12.042133639064602 0.0 0.0
-1050.0617547427364 -173.13349441188635 -609.3103165652769 12.31546836833188 0.0 0.0
-981.7019464546601 -137.67317787597585 -557.1774292638188 12.495854914973519 0.0 0.0
-913.8284677509637 -103.53700297133241 -505.7516905174226 12.56761192332497 0.0 0.0
-846.0395335538855 -72.2368156520423 -455.2828502686425 12.209561982793293 0.0 0.0
-778.9126523338101 -44.25218776997043 -405.2390996854115 11.37090791606164 0.0 0.0
-713.1166429067514 -21.514650870361024 -354.42822165090035 10.201026509215803 0.0 0.0
-648.1833056557997 -5.3223933805757255 -299.11921646398497 9.3045016304431 0.0 0.0
-582.8984869470137 1.7103893739368665 -237.34569195480918 9.194114375412479 0.0 0.0
-505.9743422220862 14.965996969899985 -164.86835870959342 13.704250267083406 0.0 0.0
-396.77054843931927 3.745636635056714 -118.01891167431219 21.24987917135078 0.0 0.0
-249.38496142584174 -1.1182103031556085 -75.1509515186992 23.17762295039028 0.0 0.0
-103.82217423488633 1.593321260444057 -30.66865589233268 20.09937213846953 0.0 0.0
-18.0761079603773 2.580097227956747 -4.648803219726164 2.0197332588323977 0.0 0.0
SCALARS Strain float 6
LOOKUP_TABLE default
0.0093010818144832 -0.010380158527138805 0.0 -0.005628339094934293 0.0 0.0
0.0020032166511856717 -0.0010275793753840579 0.0 0.000975758283949274 0.0 0.0
0.0017164995239502476 -0.0007118360200176199 0.0 -6.98820767910946e-05 0.0 0.0
0.002061688596071325 -0.0009260672213101673 0.0 -0.00017282959918568652 0.0 0.0
0.0028672887379555725 -0.0015192002060391285 0.0 -0.00020444399954130943 0.0 0.0
0.00449398907375013 -0.0028628470605803757 0.0 -0.0002809441301587501 0.0 0.0
0.0069741628072327155 -0.005072108436051992 0.0 -0.0004167645891656746 0.0 0.0
0.010406237389478228 -0.00822899879882133 0.0 -0.0006111039706601928 0.0 0.0
0.014838704493743356 -0.012381917530233544 0.0 -0.0008678939256548945 0.0 0.0
0.02029496103683507 -0.017548330942599444 0.0 -0.00116670969033289 0.0 0.0
0.026845307770787284 -0.023799592817383974 0.0 -0.0014724722270972324 0.0 0.0
0.03462523459854965 -0.03127122832933016 0.0 -0.0017965000743597193 0.0 0.0
0.04378229444448315 -0.040114581262874704 0.0 -0.0021487393861737702 0.0 0.0
0.05442363811890059 -0.05043304051541697 0.0 -0.0025308303491697604 0.0 0.0
0.0664887669858614 -0.06216016842233518 0.0 -0.002948164025787847 0.0 0.0
0.07958655235958578 -0.07490576690560546 0.0 -0.0033310143240710133 0.0 0.0
0.09292075850395623 -0.08788406619373168 0.0 -0.0035107537103731545 0.0 0.0
0.10533294061048493 -0.09995546419793877 0.0 -0.0032547181615972254 0.0 0.0
0.11543874884256394 -0.10975706381284667 0.0 -0.002561569555735277 0.0 0.0
0.12158205671205702 -0.11556420805558121 0.0 -0.0021971779843609762 0.0 0.0
0.121582056712051 -0.11556420805557766 0.0 0.00219717798436464 0.0 0.0
0.1154387488425442 -0.10975706381282979 0.0 0.002561569555748433 0.0 0.0
0.1053329406104522 -0.09995546419790502 0.0 0.0032547181616040533 0.0 0.0
0.09292075850391476 -0.08788406619369216 0.0 0.0035107537103776787 0.0 0.0
0.07958655235954229 -0.07490576690556239 0.0 0.0033310143240646295 0.0 0.0
0.06648876698581496 -0.06216016842228922 0.0 0.0029481640257876807 0.0 0.0
0.054423638118854784 -0.050433040515371896 0.0 0.0025308303491697326 0.0 0.0
0.043782294444436515 -0.04011458126283096 0.0 0.002148739386173104 0.0 0.0
0.03462523459850439 -0.03127122832928708 0.0 0.0017965000743560555 0.0 0.0
0.026845307770746007 -0.023799592817346893 0.0 0.0014724722270952895 0.0 0.0
0.0202949610368007 -0.0175483309425688 0.0 0.0011667096903286156 0.0 0.0
0.014838704493716381 -0.012381917530209785 0.0 0.0008678939256528406 0.0 0.0
0.010406237389456924 -0.008228998798802123 0.0 0.0006111039706587218 0.0 0.0
0.006974162807217965 -0.005072108436038447 0.0 0.00041676458916489745 0.0 0.0
0.0044939890737407395 -0.002862847060571938 0.0 0.00028094413015808395 0.0 0.0
0.0028672887379516954 -0.0015192002060346876 0.0 0.00020444399954072656 0.0 0.0
0.002061688596070449 -0.000926067221309057 0.0 0.0001728295991852702 0.0 0.0
0.0017164995239496994 -0.0007118360200175644 0.0 6.988207679076153e-05 0.0 0.0
0.002003216651184553 -0.0010275793753825313 0.0 -0.0009757582839478307 0.0 0.0
0.00930108181447395 -0.010380158527126461 0.0 0.005628339094906815 0.0 0.0
0.00644102409804885 -0.007879270914328579 0.0 -0.006660203237982193 0.0 0.0
0.0011198306642322235 -0.000520434481902754 0.0 0.00017161530167222883 0.0 0.0
0.001477993984884289 -0.0005519227218599432 0.0 -0.0001349755744232961 0.0 0.0
0.0018371109921206732 -0.0008042468695415028 0.0 -0.0004227917735221409 0.0 0.0
0.0024792262200915086 -0.0012341555063595244 0.0 -0.00048439290796883916 0.0 0.0
0.0038704112324892993 -0.0023372718212885113 0.0 -0.0006756792216907892 0.0 0.0
0.006095320582199654 -0.0042756617237224015 0.0 -0.0010301255604085735 0.0 0.0
0.009202277894717795 -0.0071013534112203125 0.0 -0.0015066398445534313 0.0 0.0
0.013213025297536107 -0.010836516070423352 0.0 -0.0020993695204246654 0.0 0.0
0.018124617886678653 -0.015470840388872364 0.0 -0.002766694884761056 0.0 0.0
0.023979715319123077 -0.021045502690987705 0.0 -0.003450179555945093 0.0 0.0
0.030899787187508562 -0.027682943169850205 0.0 -0.0041312812393291265 0.0 0.0
0.03906140506591245 -0.0355570346729881 0.0 -0.0048896919242799874 0.0 0.0
0.0485915684014983 -0.04479084644289788 0.0 -0.005762845326932248 0.0 0.0
0.059445310034740066 -0.055335662711434974 0.0 -0.006705582959136452 0.0 0.0
0.0712869190573169 -0.06685639998281401 0.0 -0.0075726874200768846 0.0 0.0
0.08341607470276888 -0.07866054725819493 0.0 -0.008002697296654954 0.0 0.0
0.09478999807267174 -0.08971742083596679 0.0 -0.0075659450677367235 0.0 0.0
0.10405606833893194 -0.09866933169788261 0.0 -0.006194445836750606 0.0 0.0
0.10957540212737138 -0.10395947035640107 0.0 -0.0038227117149592926 0.0 0.0
0.10957540212736523 -0.10395947035639264 0.0 0.003822711714971838 0.0 0.0
0.10405606833891388 -0.09866933169786352 0.0 0.006194445836775586 0.0 0.0
0.09478999807264331 -0.08971742083594147 0.0 0.007565945067753044 0.0 0.0
0.08341607470273299 -0.07866054725816296 0.0 0.008002697296665251 0.0 0.0
0.07128691905727808 -0.06685639998277604 0.0 0.007572687420072111 0.0 0.0
0.05944531003469852 -0.05533566271139456 0.0 0.0067055829591355365 0.0 0.0
0.04859156840145701 -0.044790846442857246 0.0 0.005762845326931776 0.0 0.0
0.03906140506587105 -0.03555703467294724 0.0 0.004889691924278017 0.0 0.0
0.030899787187468192 -0.027682943169810015 0.0 0.004131281239324158 0.0 0.0
0.023979715319086187 -0.021045502690955287 0.0 0.0034501795559396253 0.0 0.0
0.018124617886647598 -0.015470840388845941 0.0 0.0027666948847545614 0.0 0.0
0.013213025297511533 -0.01083651607040026 0.0 0.002099369520420613 0.0 0.0
0.009202277894698602 -0.007101353411202105 0.0 0.00150663984454949 0.0 0.0
0.006095320582186259 -0.004275661723709079 0.0 0.0010301255604059922 0.0 0.0
0.00387041123248158 -0.002337271821282405 0.0 0.0006756792216893182 0.0 0.0
0.0024792262200886706 -0.0012341555063581922 0.0 0.0004843929079686726 0.0 0.0
0.001837110992119667 -0.0008042468695413363 0.0 0.00042279177352211317 0.0 0.0
0.0014779939848840462 -0.0005519227218603318 0.0 0.0001349755744234904 0.0 0.0
0.001119830664232463 -0.0005204344819016993 0.0 -0.00017161530167408845 0.0 0.0
0.006441024098038067 -0.00787927091431575 0.0 0.006660203237960072 0.0 0.0
0.004686745652300376 -0.006240955215394722 0.0 -0.0061436210355605425 0.0 0.0
0.0006645633443608141 -0.00032914862835337066 0.0 -0.0005040032981355469 0.0 0.0
0.001185490644895957 -0.0004068005593629853 0.0 -0.0004048247165084895 0.0 0.0
0.0016138076155674252 -0.0006841685021963251 0.0 -0.0006598426067146446 0.0 0.0
0.0021370987380195175 -0.0010037976927906866 0.0 -0.0007555268829681494 0.0 0.0
0.0032636206173141426 -0.0018469275307622102 0.0 -0.0009833385057713973 0.0 0.0
0.005215303666364468 -0.0034914337374710724 0.0 -0.0014888928001164647 0.0 0.0
0.007983744631326648 -0.005975621850060842 0.0 -0.0022045206586968347 0.0 0.0
0.0115629797773983 -0.009279627686758607 0.0 -0.0030674733536225907 0.0 0.0
0.015927094608133654 -0.013378273751663672 0.0 -0.004023687114804775 0.0 0.0
0.021095231666333814 -0.01828555641138463 0.0 -0.005006063038536457 0.0 0.0
0.027172180251178644 -0.02410345706534711 0.0 -0.005986102718765762 0.0 0.0
0.0343321945147289 -0.03100183842083304 0.0 -0.007039830937794811 0.0 0.0
0.042728193934199216 -0.03912842742706579 0.0 -0.008276548101043446 0.0 0.0
0.05234717410861613 -0.0484686079240404 0.0 -0.009652761452638048 0.0 0.0
0.06291532580603013 -0.05874832344553882 0.0 -0.010904684573264156 0.0 0.0
0.0738438065045848 -0.06938296404031563 0.0 -0.011568695688897901 0.0 0.0
0.08420122666827809 -0.0794406819647131 0.0 -0.011095626011778936 0.0 0.0
0.09270031131484693 -0.0876581003362551 0.0 -0.009068780293236267 0.0 0.0
0.09789547519092832 -0.09265945379456708 0.0 -0.005065586698466851 0.0 0.0
0.09789547519092219 -0.09265945379456442 0.0 0.005065586698488889 0.0 0.0
0.09270031131483113 -0.08765810033623911 0.0 0.009068780293270684 0.0 0.0
0.08420122666825283 -0.07944068196468645 0.0 0.01109562601180214 0.0 0.0
0.0738438065045536 -0.06938296404028588 0.0 0.01156869568890806 0.0 0.0
0.06291532580599574 -0.05874832344550884 0.0 0.010904684573258883 0.0 0.0
0.05234717410857964 -0.048468607924005536 0.0 0.009652761452635883 0.0 0.0
0.04272819393416252 -0.039128427427032264 0.0 0.008276548101041226 0.0 0.0
0.03433219451469241 -0.03100183842079751 0.0 0.007039830937790703 0.0 0.0
0.02717218025114332 -0.024103457065314915 0.0 0.005986102718757325 0.0 0.0
0.021095231666301534 -0.018285556411351322 0.0 0.005006063038529407 0.0 0.0
0.015927094608105985 -0.013378273751635916 0.0 0.0040236871147960596 0.0 0.0
0.011562979777376275 -0.009279627686736402 0.0 0.0030674733536179 0.0 0.0
0.00798374463130952 -0.005975621850042634 0.0 0.002204520658690451 0.0 0.0
0.005215303666353088 -0.0034914337374608584 0.0 0.0014888928001127733 0.0 0.0
0.0032636206173078386 -0.00184692753075677 0.0 0.000983338505769843 0.0 0.0
0.00213709873801754 -0.0010037976927881331 0.0 0.0007555268829668171 0.0 0.0
0.001613807615566537 -0.0006841685021947708 0.0 0.000659842606714145 0.0 0.0
0.0011854906448959812 -0.00040680055936309634 0.0 0.0004048247165088781 0.0 0.0
0.0006645633443609911 -0.00032914862835245473 0.0 0.0005040032981345755 0.0 0.0
0.004686745652290186 -0.006240955215382999 0.0 0.006143621035542807 0.0 0.0
0.0034845855958812594 -0.005014025378025477 0.0 -0.005209368509288964 0.0 0.0
0.00041728823781275737 -0.0002502304456179494 0.0 -0.001076710067895864 0.0 0.0
0.0009161899367968671 -0.0002922566627855949 0.0 -0.0007626847687839666 0.0 0.0
0.0013779361417729508 -0.0005651875904770787 0.0 -0.0009165927841217614 0.0 0.0
0.0018324681231781867 -0.0008263862501252106 0.0 -0.0010324425629336664 0.0 0.0
0.0027072358641103966 -0.0014292088009325576 0.0 -0.0012336124515305857 0.0 0.0
0.004338285299517873 -0.0027407879042601335 0.0 -0.0017996423741001022 0.0 0.0
0.006761331938906413 -0.004862062953499446 0.0 -0.0026985693363988095 0.0 0.0
0.009899454974838864 -0.007726761837629104 0.0 -0.0037649772637844137 0.0 0.0
0.013714362852814993 -0.011286210038401467 0.0 -0.00493860811726668 0.0 0.0
0.01820223601174651 -0.015530928171077596 0.0 -0.006136140526672662 0.0 0.0
0.023446974558463327 -0.020538353517114638 0.0 -0.007334199763503468 0.0 0.0
0.029613212451073394 -0.026469022439107093 0.0 -0.008629791003990278 0.0 0.0
0.0368630734527989 -0.03347595318326868 0.0 -0.010104414380438409 0.0 0.0
0.04522089572310435 -0.04158532239324697 0.0 -0.011741462525576368 0.0 0.0
0.054491859640167485 -0.050601948155066356 0.0 -0.013294433764328262 0.0 0.0
0.06420159610752205 -0.06004775394724948 0.0 -0.014201508857997203 0.0 0.0
0.07354385388859815 -0.06911904296450277 0.0 -0.013760217209142167 0.0 0.0
0.08137682223761468 -0.0766986048951428 0.0 -0.011273443181441634 0.0 0.0
0.08639797839455449 -0.08154325030328469 0.0 -0.006096320584322856 0.0 0.0
0.08639797839454884 -0.08154325030327714 0.0 0.006096320584351167 0.0 0.0
0.0813768222376006 -0.07669860489512903 0.0 0.01127344318148149 0.0 0.0
0.07354385388857519 -0.06911904296448501 0.0 0.013760217209168701 0.0 0.0
0.06420159610749535 -0.060047753947224614 0.0 0.014201508858009138 0.0 0.0
0.054491859640137225 -0.050601948155039045 0.0 0.013294433764325098 0.0 0.0
0.04522089572307264 -0.04158532239321899 0.0 0.011741462525572843 0.0 0.0
0.03686307345276707 -0.033475953183243146 0.0 0.010104414380434745 0.0 0.0
0.029613212451041815 -0.026469022439075784 0.0 0.008629791003987197 0.0 0.0
0.023446974558432976 -0.020538353517084662 0.0 0.007334199763495142 0.0 0.0
0.018202236011719025 -0.015530928171052283 0.0 0.0061361405266651126 0.0 0.0
0.013714362852790818 -0.011286210038378375 0.0 0.004938608117255661 0.0 0.0
0.00989945497481931 -0.007726761837612006 0.0 0.003764977263780056 0.0 0.0
0.006761331938891613 -0.004862062953487456 0.0 0.0026985693363924534 0.0 0.0
0.004338285299508388 -0.002740787904251918 0.0 0.0017996423740964385 0.0 0.0
0.0027072358641057337 -0.0014292088009300041 0.0 0.0012336124515283098 0.0 0.0
0.001832468123176778 -0.0008263862501252106 0.0 0.0010324425629333889 0.0 0.0
0.0013779361417722569 -0.0005651875904774117 0.0 0.0009165927841210952 0.0 0.0
0.0009161899367969295 -0.00029225666278620555 0.0 0.0007626847687816074 0.0 0.0
0.0004172882378125631 -0.00025023044561678365 0.0 0.0010767100678925057 0.0 0.0
0.0034845855958724747 -0.005014025378015319 0.0 0.0052093685092746145 0.0 0.0
0.002591529304908115 -0.004023399048939447 0.0 -0.004268930322262776 0.0 0.0
0.0002767357615415106 -0.00021830206545025987 0.0 -0.0015205348958936826 0.0 0.0
0.0006870623194639297 -0.00020698541985542107 0.0 -0.0011279658249217228 0.0 0.0
0.0011338310997505013 -0.00044915242708865044 0.0 -0.0011897855015725323 0.0 0.0
0.0015475973254480135 -0.0006777223258189746 0.0 -0.0013061048064883785 0.0 0.0
0.0022151302244988944 -0.0010940729896715684 0.0 -0.001479652980987206 0.0 0.0
0.0034993305332742947 -0.00205552059814762 0.0 -0.0019849407486415283 0.0 0.0
0.005537601865863509 -0.0037723958026014692 0.0 -0.002948104745629898 0.0 0.0
0.008233812054953556 -0.0061926941762018295 0.0 -0.004182800554780153 0.0 0.0
0.011497320916422714 -0.00920855454920022 0.0 -0.005501651602352137 0.0 0.0
0.015311380295091298 -0.012794685422381269 0.0 -0.006843146145559614 0.0 0.0
0.01973443507189178 -0.017001979168062453 0.0 -0.008177822425941977 0.0 0.0
0.02491549627271237 -0.02197062641289027 0.0 -0.009604041440907124 0.0 0.0
0.031018468277602164 -0.0278594641055534 0.0 -0.01124064511220546 0.0 0.0
0.03810223656601085 -0.03472499591096767 0.0 -0.0130360996850509 0.0 0.0
0.046043990184830214 -0.04244307285338511 0.0 -0.014725028006466578 0.0 0.0
0.05448996797791704 -0.050660675784010234 0.0 -0.01582265703415564 0.0 0.0
0.06280526682975983 -0.0587391182118453 0.0 -0.015527502399095783 0.0 0.0
0.07003076154470711 -0.06573735603653619 0.0 -0.012864423682323156 0.0 0.0
0.07497732792735345 -0.07051559454715273 0.0 -0.006969033493053112 0.0 0.0
0.07497732792734836 -0.07051559454714917 0.0 0.006969033493082866 0.0 0.0
0.07003076154469434 -0.06573735603652642 0.0 0.01286442368236218 0.0 0.0
0.06280526682973984 -0.05873911821182798 0.0 0.015527502399125315 0.0 0.0
0.05448996797789442 -0.05066067578398448 0.0 0.015822657034170073 0.0 0.0
0.046043990184803804 -0.04244307285335713 0.0 0.014725028006463192 0.0 0.0
0.038102236565983744 -0.034724995910942136 0.0 0.01303609968504671 0.0 0.0
0.031018468277575498 -0.027859464105530307 0.0 0.011240645112202963 0.0 0.0
0.024915496272685883 -0.0219706264128654 0.0 0.00960404144090532 0.0 0.0
0.019734435071866063 -0.017001979168036252 0.0 0.008177822425931902 0.0 0.0
0.015311380295068067 -0.01279468542235862 0.0 0.006843146145549539 0.0 0.0
0.011497320916402543 -0.009208554549181791 0.0 0.005501651602338287 0.0 0.0
0.008233812054936479 -0.0061926941761871745 0.0 0.004182800554772936 0.0 0.0
0.005537601865851477 -0.003772395802590034 0.0 0.0029481047456231535 0.0 0.0
0.0034993305332664537 -0.0020555205981406255 0.0 0.001984940748638281 0.0 0.0
0.0022151302244956816 -0.0010940729896679047 0.0 0.0014796529809855685 0.0 0.0
0.0015475973254467923 -0.000677722325816088 0.0 0.001306104806487407 0.0 0.0
0.0011338310997500711 -0.0004491524270869851 0.0 0.0011897855015713665 0.0 0.0
0.0006870623194637493 -0.00020698541985486596 0.0 0.001127965824919419 0.0 0.0
0.00027673576154135793 -0.0002183020654494272 0.0 0.0015205348958912679 0.0 0.0
0.0025915293049012245 -0.004023399048931233 0.0 0.004268930322252534 0.0 0.0
0.0019071295059879395 -0.003203753382375135 0.0 -0.0034589244096073224 0.0 0.0
0.00018805736398056633 -0.00020418164839869357 0.0 -0.001847481961044256 0.0 0.0
0.0004924875079312732 -0.0001419819651381493 0.0 -0.0014570993170270885 0.0 0.0
0.0008887178552774572 -0.00033594709357032126 0.0 -0.0014559879327973868 0.0 0.0
0.0012676633567413886 -0.0005437211441760015 0.0 -0.001570684800767802 0.0 0.0
0.0017737480968240474 -0.0008346645656620577 0.0 -0.001734740428145587 0.0 0.0
0.0027354710496210466 -0.0014838798366623163 0.0 -0.002151273642805762 0.0 0.0
0.004342084753909167 -0.0027561845264107987 0.0 -0.0030190992993436583 0.0 0.0
0.006571127364052583 -0.00469060847217162 0.0 -0.004281788154783389 0.0 0.0
0.009287959224656778 -0.007162764944101063 0.0 -0.005697800885878818 0.0 0.0
0.012431593292571576 -0.010092764660763365 0.0 -0.007106315232430993 0.0 0.0
0.016045383054294725 -0.013508637988469241 0.0 -0.008502898606979642 0.0 0.0
0.020254400465578172 -0.017527744638370146 0.0 -0.009983605590614564 0.0 0.0
0.025213538432795377 -0.022299582211014357 0.0 -0.011644842466788707 0.0 0.0
0.031015420618340964 -0.027913033432331646 0.0 -0.01347838023147685 0.0 0.0
0.0376032125556658 -0.03430982586174336 0.0 -0.015241969557522383 0.0 0.0
0.04473204356717267 -0.04124606785385643 0.0 -0.01643142463374886 0.0 0.0
0.05196644274908467 -0.04828378451936599 0.0 -0.016312863257330168 0.0 0.0
0.058590247689760844 -0.054708909560913455 0.0 -0.013802070925384435 0.0 0.0
0.0635326380331865 -0.05948525508513747 0.0 -0.007695774057038418 0.0 0.0
0.06353263803318206 -0.05948525508513258 0.0 0.0076957740570674504 0.0 0.0
0.05859024768974952 -0.05470890956090235 0.0 0.01380207092542407 0.0 0.0
0.05196644274906806 -0.04828378451935089 0.0 0.016312863257358867 0.0 0.0
0.04473204356715353 -0.04124606785383955 0.0 0.01643142463376268 0.0 0.0
0.03760321255564361 -0.034309825861722265 0.0 0.01524196955751772 0.0 0.0
0.031015420618318454 -0.027913033432310108 0.0 0.013478380231470632 0.0 0.0
0.025213538432773824 -0.02229958221099304 0.0 0.011644842466784766 0.0 0.0
0.02025440046555678 -0.017527744638352827 0.0 0.009983605590610567 0.0 0.0
0.016045383054273915 -0.013508637988451477 0.0 0.008502898606969955 0.0 0.0
0.01243159329255232 -0.010092764660744935 0.0 0.0071063152324208345 0.0 0.0
0.009287959224640402 -0.007162764944084854 0.0 0.005697800885863247 0.0 0.0
0.006571127364038698 -0.004690608472158075 0.0 0.004281788154774813 0.0 0.0
0.004342084753899744 -0.002756184526401917 0.0 0.003019099299336747 0.0 0.0
0.0027354710496152734 -0.0014838798366595407 0.0 0.002151273642801904 0.0 0.0
0.0017737480968217645 -0.0008346645656612806 0.0 0.0017347404281435885 0.0 0.0
0.0012676633567404727 -0.0005437211441750023 0.0 0.0015706848007658314 0.0 0.0
0.0008887178552769714 -0.0003359470935698772 0.0 0.001455987932795555 0.0 0.0
0.0004924875079310997 -0.00014198196513770522 0.0 0.0014570993170241464 0.0 0.0
0.0001880573639804206 -0.0002041816483978054 0.0 0.0018474819610413973 0.0 0.0
0.0019071295059827353 -0.0032037533823685363 0.0 0.003458924409598635 0.0 0.0
0.0013787749721444753 -0.002520506086386709 0.0 -0.0028032779209963554 0.0 0.0
0.00012222767376263155 -0.0001985212035950923 0.0 -0.0020750535185314334 0.0 0.0
0.00032142688392958196 -8.721530840144487e-05 0.0 -0.001731086811211091 0.0 0.0
0.0006485684618535298 -0.00022622616403400464 0.0 -0.0016989728971544271 0.0 0.0
0.0009810091058187614 -0.00041329354240304816 0.0 -0.001817858677770845 0.0 0.0
0.0013700933062319454 -0.0006195555455593693 0.0 -0.001965166414687386 0.0 0.0
0.002046220930893544 -0.0010213030681307522 0.0 -0.0022876011331885715 0.0 0.0
0.0032235340419963787 -0.0018679039827569355 0.0 -0.0029895832678089596 0.0 0.0
0.004937904241763116 -0.0032711729024685887 0.0 -0.004099528426411092 0.0 0.0
0.007093411187719792 -0.005169377437445721 0.0 -0.005481808022907653 0.0 0.0
0.009571834279672412 -0.007444182681069611 0.0 -0.0069090459702029206 0.0 0.0
0.012389030317915675 -0.010077458276469997 0.0 -0.008295548296935573 0.0 0.0
0.015642242798676625 -0.013161146103036092 0.0 -0.009737040590069579 0.0 0.0
0.01947212492450537 -0.01682846109731506 0.0 -0.011334323255657364 0.0 0.0
0.02398414010187569 -0.02118374120672306 0.0 -0.013080045487636693 0.0 0.0
0.029193617713243178 -0.026230985610113056 0.0 -0.014773424169039373 0.0 0.0
0.034955215084603294 -0.03183618017399281 0.0 -0.016004708923815503 0.0 0.0
0.041022526999710235 -0.037753536817694666 0.0 -0.016116754395055055 0.0 0.0
0.04697834671875728 -0.043547358025372684 0.0 -0.014041142851332733 0.0 0.0
0.05195247351111816 -0.04835300732461123 0.0 -0.008265215039582219 0.0 0.0
0.051952473511115066 -0.048353007324604125 0.0 0.00826521503960942 0.0 0.0
0.04697834671874765 -0.04354735802535936 0.0 0.014041142851371036 0.0 0.0
0.041022526999696884 -0.03775353681768223 0.0 0.016116754395081756 0.0 0.0
0.03495521508458754 -0.03183618017397816 0.0 0.016004708923828104 0.0 0.0
0.029193617713225387 -0.02623098561009707 0.0 0.014773424169034821 0.0 0.0
0.02398414010185805 -0.021183741206706852 0.0 0.013080045487628977 0.0 0.0
0.019472124924488576 -0.01682846109730085 0.0 0.011334323255652812 0.0 0.0
0.015642242798660763 -0.013161146103021215 0.0 0.009737040590065082 0.0 0.0
0.012389030317899702 -0.010077458276452234 0.0 0.008295548296926636 0.0 0.0
0.00957183427965752 -0.0074441826810571765 0.0 0.006909045970192318 0.0 0.0
0.007093411187706983 -0.005169377437437062 0.0 0.005481808022895163 0.0 0.0
0.004937904241752847 -0.0032711729024619274 0.0 0.0040995284264032095 0.0 0.0
0.003223534041989426 -0.0018679039827532717 0.0 0.0029895832678030754 0.0 0.0
0.002046220930889728 -0.0010213030681265334 0.0 0.0022876011331844914 0.0 0.0
0.001370093306230405 -0.0006195555455591473 0.0 0.0019651664146846937 0.0 0.0
0.0009810091058182063 -0.00041329354240449145 0.0 0.0018178586777689576 0.0 0.0
0.0006485684618531135 -0.00022622616403361606 0.0 0.0016989728971524287 0.0 0.0
0.00032142688392933216 -8.721530840083425e-05 0.0 0.0017310868112088151 0.0 0.0
0.0001222276737624095 -0.00019852120359481473 0.0 0.002075053518529296 0.0 0.0
0.001378774972140756 -0.00252050608638168 0.0 0.0028032779209906655 0.0 0.0
0.0009803081406043052 -0.0019699971830926533 0.0 -0.0023116681115784854 0.0 0.0
5.9502758268756284e-05 -0.00019366689419042515 0.0 -0.0022098355714300355 0.0 0.0
0.00016548179942449392 -3.517422240978396e-05 0.0 -0.0019491337647641327 0.0 0.0
0.00041601457219117566 -0.00012182239866742606 0.0 -0.0019051009036129551 0.0 0.0
0.0006852711825087038 -0.00027658977821709563 0.0 -0.0020223380427096815 0.0 0.0
0.0009816504351560507 -0.00043622362463158204 0.0 -0.002196899356779053 0.0 0.0
0.0014270864865614102 -0.0006663981416247244 0.0 -0.002442049410316477 0.0 0.0
0.0022020568369789245 -0.001138328200192884 0.0 -0.002909829063277275 0.0 0.0
0.0033845812002398362 -0.0020082046441567414 0.0 -0.003739263259380121 0.0 0.0
0.004936967693965386 -0.0032879930840430394 0.0 -0.004892996741527433 0.0 0.0
0.006743355984797708 -0.004884427813122816 0.0 -0.006196153534209825 0.0 0.0
0.008772082080815313 -0.006740319109621584 0.0 -0.007503380269090976 0.0 0.0
0.011090159213503495 -0.008903183032757944 0.0 -0.008845546301944673 0.0 0.0
0.013808283268114202 -0.011480656828598113 0.0 -0.010280474853079757 0.0 0.0
0.01703728831887348 -0.014578490949509915 0.0 -0.011826210917851077 0.0 0.0
0.020841038598171602 -0.018254970414618654 0.0 -0.013350300544173743 0.0 0.0
0.02518943416024777 -0.02247397008745855 0.0 -0.01449069185746188 0.0 0.0
0.029982215048515698 -0.02716073722353718 0.0 -0.014788727250216516 0.0 0.0
0.03511848727791017 -0.03219686570632074 0.0 -0.013452576122850446 0.0 0.0
0.04010513596722644 -0.037017121136163844 0.0 -0.008649333606461918 0.0 0.0
0.040105135967224356 -0.03701712113616429 0.0 0.008649333606484788 0.0 0.0
0.0351184872779029 -0.032196865706315414 0.0 0.01345257612288353 0.0 0.0
0.029982215048505664 -0.02716073722352741 0.0 0.01478872725023983 0.0 0.0
0.02518943416023557 -0.022473970087450557 0.0 0.014490691857471816 0.0 0.0
0.020841038598158626 -0.018254970414608662 0.0 0.013350300544167915 0.0 0.0
0.017037288318860797 -0.014578490949499257 0.0 0.01182621091784386 0.0 0.0
0.013808283268102559 -0.01148065682858812 0.0 0.010280474853077315 0.0 0.0
0.011090159213493156 -0.008903183032747952 0.0 0.008845546301943952 0.0 0.0
0.008772082080803892 -0.006740319109612036 0.0 0.0075033802690823714 0.0 0.0
0.006743355984787494 -0.004884427813112602 0.0 0.0061961535341996665 0.0 0.0
0.004936967693956351 -0.0032879930840328253 0.0 0.004892996741516054 0.0 0.0
0.0033845812002330083 -0.0020082046441511903 0.0 0.0037392632593741815 0.0 0.0
0.0022020568369743587 -0.0011383282001904416 0.0 0.002909829063273278 0.0 0.0
0.001427086486559162 -0.0006663981416255016 0.0 0.002442049410314534 0.0 0.0
0.0009816504351549543 -0.00043622362462958364 0.0 0.0021968993567764716 0.0 0.0
0.0006852711825082874 -0.00027658977821520825 0.0 0.0020223380427074056 0.0 0.0
0.0004160145721911618 -0.00012182239866703748 0.0 0.0019051009036104571 0.0 0.0
0.00016548179942424412 -3.517422240978396e-05 0.0 0.0019491337647615792 0.0 0.0
5.950275826854812e-05 -0.00019366689419067495 0.0 0.0022098355714273987 0.0 0.0
0.0009803081406018627 -0.0019699971830891942 0.0 0.002311668111573767 0.0 0.0
0.0006964097511512196 -0.001560268128420278 0.0 -0.0019959172766466082 0.0 0.0
-7.230676425495908e-06 -0.00018777985626378113 0.0 -0.002293765172682649 0.0 0.0
1.9806014749518264e-05 1.7971539135352987e-05 0.0 -0.002109716127445538 0.0 0.0
0.00019154012473736326 -2.2869366871347552e-05 0.0 -0.0020660441477098057 0.0 0.0
0.0003848326651063605 -0.00013546765285565865 0.0 -0.002173590710710799 0.0 0.0
0.0005855293777337067 -0.000252809992034031 0.0 -0.0023766552974606447 0.0 0.0
0.0008527511145009214 -0.000388753342563275 0.0 -0.0026331567121634925 0.0 0.0
0.0012815093665630023 -0.0006010637957769571 0.0 -0.00292085627386085 0.0 0.0
0.0019540531705784236 -0.0009902346617147728 0.0 -0.0033496250891904 0.0 0.0
0.002869745830703721 -0.0016340491963018344 0.0 -0.004062466292627576 0.0 0.0
0.003974766445888456 -0.002514524732684098 0.0 -0.005026273089939359 0.0 0.0
0.005204081331570867 -0.0035745054202809268 0.0 -0.006108642204994075 0.0 0.0
0.006600541556009698 -0.004822443936744802 0.0 -0.007286347900706536 0.0 0.0
0.008232646243168343 -0.006326832298543694 0.0 -0.008516405454689624 0.0 0.0
0.010187799570883282 -0.008172878936718586 0.0 -0.009801985906358723 0.0 0.0
0.012565620892915436 -0.010453438306084362 0.0 -0.011086079851322261 0.0 0.0
0.015454409157167767 -0.013243500352581705 0.0 -0.01213500555213487 0.0 0.0
0.01890114118799681 -0.016591493973130866 0.0 -0.012489171850254999 0.0 0.0
0.022972194776069252 -0.020641673985818176 0.0 -0.011839586725499784 0.0 0.0
0.027807300995340678 -0.025350369410116258 0.0 -0.00870378368132807 0.0 0.0
0.027807300995339318 -0.02535036941011315 0.0 0.008703783681346389 0.0 0.0
0.022972194776065186 -0.020641673985812847 0.0 0.01183958672552965 0.0 0.0
0.01890114118799001 -0.016591493973120208 0.0 0.012489171850275704 0.0 0.0
0.01545440915715951 -0.01324350035257238 0.0 0.012135005552139921 0.0 0.0
0.012565620892908011 -0.010453438306075924 0.0 0.011086079851315489 0.0 0.0
0.010187799570875802 -0.008172878936711925 0.0 0.009801985906351507 0.0 0.0
0.008232646243162195 -0.006326832298537477 0.0 0.008516405454687459 0.0 0.0
0.006600541556004369 -0.004822443936742138 0.0 0.007286347900705592 0.0 0.0
0.005204081331564414 -0.003574505420277818 0.0 0.006108642204987469 0.0 0.0
0.003974766445882905 -0.002514524732678325 0.0 0.005026273089931421 0.0 0.0
0.0028697458306986834 -0.001634049196299392 0.0 0.004062466292618194 0.0 0.0
0.001954053170574982 -0.0009902346617136626 0.0 0.00334962508918768 0.0 0.0
0.0012815093665606292 -0.000601063795776402 0.0 0.002920856273858491 0.0 0.0
0.0008527511144998806 -0.00038875334256360805 0.0 0.0026331567121619104 0.0 0.0
0.00058552937773311 -0.0002528099920336979 0.0 0.00237665529745848 0.0 0.0
0.0003848326651061801 -0.00013546765285499252 0.0 0.0021735907107090224 0.0 0.0
0.00019154012473736326 -2.2869366870459373e-05 0.0 0.002066044147708168 0.0 0.0
1.980601474940724e-05 1.797153913596361e-05 0.0 0.0021097161274437337 0.0 0.0
-7.23067642573183e-06 -0.00018777985626347582 0.0 0.002293765172681622 0.0 0.0
0.000696409751149582 -0.0015602681284181616 0.0 0.0019959172766441657 0.0 0.0
0.0004991075284564023 -0.001255201863350569 0.0 -0.001783092277441084 0.0 0.0
-7.14423635753414e-05 -0.00017745793798773501 0.0 -0.002338148698048187 0.0 0.0
-0.00011792886202297015 7.063272869362036e-05 0.0 -0.0022174768089573693 0.0 0.0
-2.5154678243433093e-05 7.190829647441e-05 0.0 -0.0021749663363786753 0.0 0.0
8.428200856082368e-05 5.4316442249513486e-06 0.0 -0.002266975401901211 0.0 0.0
0.00018037406162277336 -6.330258713138637e-05 0.0 -0.00247683339764293 0.0 0.0
0.0002822716827220739 -0.00012521278488319965 0.0 -0.0027692152993820107 0.0 0.0
0.00042306465826735806 -0.00019443846944722232 0.0 -0.003047092876598989 0.0 0.0
0.0006375652765771983 -0.00029780114956001746 0.0 -0.0032944737993145234 0.0 0.0
0.0009329880585543238 -0.00044947233815917365 0.0 -0.003589549017064042 0.0 0.0
0.0013059720342546155 -0.0006584030776570771 0.0 -0.0040641172544233495 0.0 0.0
0.0017149950596181823 -0.0009273090542991635 0.0 -0.004733667779555306 0.0 0.0
0.0021785417621933423 -0.0012534200676495022 0.0 -0.005597565570282292 0.0 0.0
0.0027223378378747054 -0.0016658147120909295 0.0 -0.00664629536496486 0.0 0.0
0.003399442480739423 -0.002235510222601267 0.0 -0.007880847578849715 0.0 0.0
0.004336542223031398 -0.003080704209752927 0.0 -0.009211189493992411 0.0 0.0
0.005737226167605761 -0.004385338696923924 0.0 -0.010363963065531556 0.0 0.0
0.0078331235568916 -0.0063551348510437755 0.0 -0.010831497102322951 0.0 0.0
0.010730083298147397 -0.009152808831555781 0.0 -0.01017870833520812 0.0 0.0
0.014877151288305052 -0.013376853609995631 0.0 -0.008567571432212207 0.0 0.0
0.014877151288304774 -0.013376853609994743 0.0 0.008567571432227972 0.0 0.0
0.010730083298146106 -0.009152808831554005 0.0 0.010178708335232822 0.0 0.0
0.007833123556887686 -0.0063551348510384464 0.0 0.01083149710233633 0.0 0.0
0.005737226167602569 -0.004385338696919927 0.0 0.0103639630655325 0.0 0.0
0.004336542223029621 -0.0030807042097522608 0.0 0.009211189493987526 0.0 0.0
0.003399442480737591 -0.0022355102225981582 0.0 0.00788084757884433 0.0 0.0
0.0027223378378736784 -0.0016658147120871547 0.0 0.006646295364962029 0.0 0.0
0.002178541762193148 -0.0012534200676490581 0.0 0.005597565570280183 0.0 0.0
0.0017149950596171831 -0.0009273090542989415 0.0 0.004733667779550144 0.0 0.0
0.0013059720342539771 -0.0006584030776575212 0.0 0.004064117254417299 0.0 0.0
0.0009329880585533801 -0.00044947233816117205 0.0 0.0035895490170574917 0.0 0.0
0.000637565276576782 -0.00029780114956201587 0.0 0.0032944737993128026 0.0 0.0
0.000423064658267025 -0.00019443846944755538 0.0 0.0030470928765967686 0.0 0.0
0.00028227168272199066 -0.00012521278488286658 0.0 0.002769215299379346 0.0 0.0
0.00018037406162275949 -6.33025871320525e-05 0.0 0.002476833397639655 0.0 0.0
8.428200856097634e-05 5.431644223952148e-06 0.0 0.002266975401898408 0.0 0.0
-2.5154678243349826e-05 7.190829647363284e-05 0.0 0.00217496633637676 0.0 0.0
-0.00011792886202298403 7.063272869406445e-05 0.0 0.0022174768089547325 0.0 0.0
-7.144236357536915e-05 -0.000177457937987624 0.0 0.002338148698045883 0.0 0.0
0.0004991075284555141 -0.0012552018633492472 0.0 0.0017830922774390856 0.0 0.0
0.0003616120403474449 -0.0010219392023003149 0.0 -0.0016249155990220865 0.0 0.0
-0.0001298107596303527 -0.00015606315836597107 0.0 -0.00233173499655126 0.0 0.0
-0.0002475076138686305 0.00012007133453079133 0.0 -0.0022740629193011286 0.0 0.0
-0.00023426054346470382 0.00016278959375359836 0.0 -0.0022284457399670554 0.0 0.0
-0.00021266011885477665 0.00014350604829527214 0.0 -0.002297483290442409 0.0 0.0
-0.0002264268022961896 0.00012728965057051678 0.0 -0.002487963112790731 0.0 0.0
-0.00029374550417625434 0.0001417029339917386 0.0 -0.0027715113940667002 0.0 0.0
-0.00042364297969205156 0.00019628170408458878 0.0 -0.0030488081874431305 0.0 0.0
-0.0006360466255274783 0.0002970062684064523 0.0 -0.0032944774136935973 0.0 0.0
-0.0009314871565647698 0.0004474011462241023 0.0 -0.003586729354604301 0.0 0.0
-0.001304065626427764 0.0006580296162272958 0.0 -0.004059070614659432 0.0 0.0
-0.0017238926574401764 0.0009361323582357528 0.0 -0.0047309221500362875 0.0 0.0
-0.002206370522950696 0.0012756531788677972 0.0 -0.005594417403691321 0.0 0.0
-0.002767568627521852 0.0016940728760050927 0.0 -0.006647112908943431 0.0 0.0
-0.00337738948563715 0.002175765438929833 0.0 -0.0079006361460916 0.0 0.0
-0.00389746530463958 0.0025917885529000984 0.0 -0.009325488770352941 0.0 0.0
-0.004040789660173905 0.0026905993750472312 0.0 -0.010906716504212988 0.0 0.0
-0.0034224777236137455 0.002186866555055733 0.0 -0.012607993141298901 0.0 0.0
-0.001725585404930105 0.000991222472241926 0.0 -0.01397199045320835 0.0 0.0
0.0021253736627748626 -0.002523767510700825 0.0 -0.012025559772093963 0.0 0.0
0.002125373662774821 -0.002523767510700825 0.0 0.012025559772107175 0.0 0.0
-0.0017255854049302854 0.0009912224722437024 0.0 0.013971990453222172 0.0 0.0
-0.0034224777236133014 0.002186866555060618 0.0 0.01260799314130312 0.0 0.0
-0.004040789660170727 0.002690599375051228 0.0 0.010906716504208769 0.0 0.0
-0.003897465304635403 0.002591788552894325 0.0 0.009325488770345391 0.0 0.0
-0.0033773894856334724 0.002175765438924282 0.0 0.007900636146086604 0.0 0.0
-0.0027675686275180494 0.0016940728759997636 0.0 0.00664711290893899 0.0 0.0
-0.0022063705229457276 0.0012756531788686853 0.0 0.005594417403688712 0.0 0.0
-0.0017238926574354857 0.0009361323582337544 0.0 0.004730922150030459 0.0 0.0
-0.001304065626423434 0.0006580296162246313 0.0 0.004059070614653104 0.0 0.0
-0.0009314871565613975 0.00044740114622121574 0.0 0.003586729354598306 0.0 0.0
-0.0006360466255255215 0.00029700626840489797 0.0 0.003294477413692265 0.0 0.0
-0.0004236429796905389 0.00019628170408436674 0.0 0.0030488081874415762 0.0 0.0
-0.0002937455041755188 0.00014170293399284883 0.0 0.0027715113940631475 0.0 0.0
-0.000226426802295579 0.00012728965056996167 0.0 0.0024879631127869284 0.0 0.0
-0.00021266011885426317 0.00014350604829338476 0.0 0.0022974832904394116 0.0 0.0
-0.00023426054346438463 0.0001627895937522661 0.0 0.0022284457399651125 0.0 0.0
-0.00024750761386867215 0.00012007133453106889 0.0 0.0022740629192995743 0.0 0.0
-0.0001298107596302278 -0.00015606315836580453 0.0 0.002331734996549706 0.0 0.0
0.0003616120403469453 -0.0010219392022994232 0.0 0.001624915599019755 0.0 0.0
0.00026118867132240986 -0.0008178068113415538 0.0 -0.0014615704551098618 0.0 0.0
-0.0001832202323169274 -0.00012640731391749815 0.0 -0.0022753977815055115 0.0 0.0
-0.0003687430893149629 0.00016700735063374106 0.0 -0.0022764023161528646 0.0 0.0
-0.0004354971774429284 0.00024875790965406264 0.0 -0.0022254845081405294 0.0 0.0
-0.0005029400324340488 0.0002769281236715271 0.0 -0.0022642591418074176 0.0 0.0
-0.0006285982925484518 0.0003142986456471375 0.0 -0.0024207901829950973 0.0 0.0
-0.0008636174706420502 0.0004047970590759231 0.0 -0.002647931491042671 0.0 0.0
-0.0012818891486323508 0.0006027921079692078 0.0 -0.0029243964972495706 0.0 0.0
-0.0019519099414395391 0.000988523721822121 0.0 -0.003348450222853905 0.0 0.0
-0.0028675464506259796 0.001632469929984337 0.0 -0.004060042709662204 0.0 0.0
-0.003974223520860645 0.002516019785735679 0.0 -0.005024550079463064 0.0 0.0
-0.005212034742548166 0.003584793182789925 0.0 -0.006103427918082549 0.0 0.0
-0.006626251526914137 0.0048502965976886525 0.0 -0.007266798865400659 0.0 0.0
-0.008277404968624516 0.00636277665630991 0.0 -0.00849291953766207 0.0 0.0
-0.01017065819724669 0.008116266873088529 0.0 -0.009862577979909137 0.0 0.0
-0.01216473708200648 0.009970282607112857 0.0 -0.011478662094487335 0.0 0.0
-0.0139153080855835 0.011586731897027303 0.0 -0.013396422717551482 0.0 0.0
-0.014890030834461249 0.012455496660380039 0.0 -0.015506338173459477 0.0 0.0
-0.014208314783450401 0.011501942185747627 0.0 -0.016409540619759466 0.0 0.0
-0.009967492736056183 0.00715069150672365 0.0 -0.014036750022109745 0.0 0.0
-0.00996749273605678 0.0071506915067218735 0.0 0.014036750022127786 0.0 0.0
-0.014208314783449597 0.011501942185744962 0.0 0.016409540619785057 0.0 0.0
-0.014890030834456183 0.012455496660376042 0.0 0.015506338173474632 0.0 0.0
-0.013915308085574424 0.011586731897020197 0.0 0.013396422717551315 0.0 0.0
-0.012164737081996418 0.009970282607105974 0.0 0.011478662094478842 0.0 0.0
-0.010170658197237614 0.008116266873082756 0.0 0.009862577979902698 0.0 0.0
-0.008277404968615718 0.0063627766563036925 0.0 0.008492919537655741 0.0 0.0
-0.006626251526903965 0.00485029659767755 0.0 0.007266798865395718 0.0 0.0
-0.00521203474253798 0.0035847931827781565 0.0 0.006103427918074222 0.0 0.0
-0.003974223520851347 0.0025160197857283517 0.0 0.005024550079452683 0.0 0.0
-0.002867546450618111 0.001632469929979452 0.0 0.004060042709651823 0.0 0.0
-0.0019519099414345292 0.0009885237218192344 0.0 0.003348450222849242 0.0 0.0
-0.0012818891486290895 0.0006027921079679865 0.0 0.00292439649724871 0.0 0.0
-0.0008636174706403571 0.00040479705907503494 0.0 0.0026479314910397567 0.0 0.0
-0.0006285982925472444 0.00031429864564680443 0.0 0.002420790182992849 0.0 0.0
-0.00050294003243323 0.0002769281236720822 0.0 0.002264259141805003 0.0 0.0
-0.0004354971774423594 0.00024875790965456224 0.0 0.0022254845081386976 0.0 0.0
-0.0003687430893147131 0.00016700735063368555 0.0 0.0022764023161510327 0.0 0.0
-0.000183220232316747 -0.0001264073139177757 0.0 0.0022753977815035686 0.0 0.0
0.0002611886713220629 -0.0008178068113408096 0.0 0.0014615704551078634 0.0 0.0
0.00017796081051096868 -0.0006328124420267311 0.0 -0.001292707881382943 0.0 0.0
-0.000233317388551868 -8.896001955960298e-05 0.0 -0.002166339905421394 0.0 0.0
-0.0004824156570513438 0.0002116899736502864 0.0 -0.002223551417864844 0.0 0.0
-0.0006282108346296472 0.00032976521008010184 0.0 -0.0021650360145654135 0.0 0.0
-0.0007845030391805397 0.0004028271318258225 0.0 -0.002167212668845925 0.0 0.0
-0.001018748792450383 0.0004921896967871042 0.0 -0.00226320016244147 0.0 0.0
-0.0014366176006901654 0.0006823424463210381 0.0 -0.002463298964509114 0.0 0.0
-0.0022012387638264824 0.0011390049329491614 0.0 -0.0029149832456925318 0.0 0.0
-0.003381595383574715 0.0020053632781880104 0.0 -0.0037350650176979916 0.0 0.0
-0.004935509911138503 0.003286762864745052 0.0 -0.004890226687600752 0.0 0.0
-0.006744143375764039 0.004886425508026093 0.0 -0.006194801911026615 0.0 0.0
-0.008777288255559193 0.006748038779081922 0.0 -0.007493609548618663 0.0 0.0
-0.011108078429358598 0.008924278929977492 0.0 -0.008801495310549023 0.0 0.0
-0.013844135394623883 0.011511476142343602 0.0 -0.010195437240219096 0.0 0.0
-0.017032568779246776 0.014543050396544466 0.0 -0.01183780025162462 0.0 0.0
-0.020534428694116716 0.017876501308292436 0.0 -0.013950889182542892 0.0 0.0
-0.023927575876374646 0.021095245908219873 0.0 -0.016715567103745832 0.0 0.0
-0.026395940495697073 0.023333231577842728 0.0 -0.019668161923461935 0.0 0.0
-0.02640361863544849 0.023048115469272545 0.0 -0.021203901690528937 0.0 0.0
-0.02142601959628644 0.017545081419924724 0.0 -0.017985556451651785 0.0 0.0
-0.02142601959628651 0.017545081419925168 0.0 0.017985556451676155 0.0 0.0
-0.02640361863544577 0.02304811546926988 0.0 0.02120390169055908 0.0 0.0
-0.02639594049568844 0.023333231577834734 0.0 0.019668161923480754 0.0 0.0
-0.023927575876360463 0.021095245908206106 0.0 0.01671556710374933 0.0 0.0
-0.020534428694101617 0.017876501308276893 0.0 0.013950889182536341 0.0 0.0
-0.017032568779232163 0.014543050396529589 0.0 0.011837800251618735 0.0 0.0
-0.013844135394610185 0.011511476142329835 0.0 0.010195437240212213 0.0 0.0
-0.01110807842934354 0.008924278929962393 0.0 0.008801495310543639 0.0 0.0
-0.008777288255543927 0.006748038779068155 0.0 0.007493609548609281 0.0 0.0
-0.006744143375749911 0.0048864255080127705 0.0 0.006194801911013792 0.0 0.0
-0.004935509911126318 0.003286762864735282 0.0 0.004890226687588983 0.0 0.0
-0.003381595383566069 0.0020053632781829034 0.0 0.0037350650176921074 0.0 0.0
-0.0022012387638210285 0.0011390049329482732 0.0 0.0029149832456903113 0.0 0.0
-0.0014366176006871817 0.0006823424463199279 0.0 0.002463298964506172 0.0 0.0
-0.0010187487924487454 0.0004921896967871042 0.0 0.0022632001624393328 0.0 0.0
-0.0007845030391795266 0.0004028271318262666 0.0 0.0021672126688435656 0.0 0.0
-0.0006282108346288978 0.0003297652100804349 0.0 0.002165036014562499 0.0 0.0
-0.00048241565705081646 0.00021168997365050846 0.0 0.0022235514178632343 0.0 0.0
-0.00023331738855172923 -8.896001955926991e-05 0.0 0.0021663399054195065 0.0 0.0
0.00017796081051080215 -0.0006328124420262784 0.0 0.0012927078813809723 0.0 0.0
0.00010438974566923109 -0.0004659810276609333 0.0 -0.001121160923774761 0.0 0.0
-0.0002825465868612348 -4.478769928828452e-05 0.0 -0.002008059219166969 0.0 0.0
-0.0005894957757232172 0.00025504527563924295 0.0 -0.00211548965248462 0.0 0.0
-0.0008123649640965069 0.0004046713744547681 0.0 -0.002049451534504476 0.0 0.0
-0.0010530680141873083 0.0005183260683929714 0.0 -0.002001402927976015 0.0 0.0
-0.0013999772375644232 0.000669160955958481 0.0 -0.0020511011784071775 0.0 0.0
-0.0020529180537437602 0.0010358411803383927 0.0 -0.0023172696046184216 0.0 0.0
-0.003220820433001273 0.0018664344373136021 0.0 -0.002990242787913683 0.0 0.0
-0.004935046007583779 0.0032679771566213045 0.0 -0.004093387351665034 0.0 0.0
-0.0070933962720265 0.005169348916384653 0.0 -0.005479598743392822 0.0 0.0
-0.009573518767436312 0.00744667046872971 0.0 -0.0069087333974438 0.0 0.0
-0.012390547865846827 0.01008070089633395 0.0 -0.008283885818544334 0.0 0.0
-0.01564522896600648 0.013167149143917145 0.0 -0.009674547246106946 0.0 0.0
-0.019483663400526943 0.016839741059293978 0.0 -0.011185422611858342 0.0 0.0
-0.02398841019077491 0.0211716210352626 0.0 -0.01300246177916664 0.0 0.0
-0.02904187785135995 0.026028191481182628 0.0 -0.01545758997948149 0.0 0.0
-0.034100074524019974 0.03084861696331087 0.0 -0.018780794631288955 0.0 0.0
-0.03793881176321687 0.03438780838997291 0.0 -0.0224635986296155 0.0 0.0
-0.03842103097843942 0.034468988283431035 0.0 -0.024600596357048976 0.0 0.0
-0.03208449565583396 0.027541610879868728 0.0 -0.021729043974354934 0.0 0.0
-0.03208449565583313 0.02754161087986695 0.0 0.021729043974380413 0.0 0.0
-0.03842103097843444 0.034468988283421265 0.0 0.024600596357083004 0.0 0.0
-0.03793881176320492 0.03438780838995559 0.0 0.022463598629639592 0.0 0.0
-0.0341000745240015 0.03084861696329 0.0 0.01878079463129484 0.0 0.0
-0.0290418778513407 0.026028191481165752 0.0 0.015457589979475994 0.0 0.0
-0.023988410190754955 0.021171621035246613 0.0 0.013002461779158647 0.0 0.0
-0.019483663400508153 0.016839741059278657 0.0 0.011185422611849405 0.0 0.0
-0.01564522896598651 0.01316714914389805 0.0 0.009674547246099507 0.0 0.0
-0.012390547865826801 0.010080700896315076 0.0 0.008283885818533454 0.0 0.0
-0.009573518767417265 0.007446670468714611 0.0 0.0069087333974307275 0.0 0.0
-0.007093396272010041 0.005169348916368666 0.0 0.0054795987433789994 0.0 0.0
-0.0049350460075719554 0.0032679771566102023 0.0 0.004093387351657096 0.0 0.0
-0.0032208204329930365 0.0018664344373066077 0.0 0.002990242787908659 0.0 0.0
-0.00205291805373925 0.00103584118033484 0.0 0.0023172696046145913 0.0 0.0
-0.0013999772375622027 0.000669160955958481 0.0 0.002051101178404985 0.0 0.0
-0.0010530680141860316 0.0005183260683933044 0.0 0.0020014029279745715 0.0 0.0
-0.000812364964095709 0.00040467137445449053 0.0 0.002049451534503144 0.0 0.0
-0.0005894957757224956 0.0002550452756385213 0.0 0.002115489652482788 0.0 0.0
-0.0002825465868609642 -4.478769928856208e-05 0.0 0.0020080592191649427 0.0 0.0
0.00010438974566905762 -0.00046598102766064187 0.0 0.0011211609237738451 0.0 0.0
3.88203148918298e-05 -0.00031829734720617564 0.0 -0.0009459188239682725 0.0 0.0
-0.0003319976876274 4.26441081113893e-06 0.0 -0.0018058487541949553 0.0 0.0
-0.0006910125308224879 0.00029747043568778553 0.0 -0.0019530973068793145 0.0 0.0
-0.000987645942947979 0.00047337720516837933 0.0 -0.0018755049032241344 0.0 0.0
-0.001305676041752829 0.0006218471793110192 0.0 -0.0017757903388262442 0.0 0.0
-0.0017960262165696572 0.0008739430886076649 0.0 -0.0018212312632685246 0.0 0.0
-0.0027379570801174535 0.0014945286011023295 0.0 -0.0021763247937855446 0.0 0.0
-0.004338386536243771 0.002753023577372282 0.0 -0.003016081488400907 0.0 0.0
-0.00656957971606692 0.004688228571629205 0.0 -0.004274176750377334 0.0 0.0
-0.009289415345539398 0.007164117375853651 0.0 -0.005695612409824025 0.0 0.0
-0.012433794394549974 0.010095364339111068 0.0 -0.00710552842413692 0.0 0.0
-0.016042615056828774 0.013506407886189287 0.0 -0.008490167087123357 0.0 0.0
-0.020237701478010836 0.017513177029359284 0.0 -0.009913774283435095 0.0 0.0
-0.025186993992381126 0.02227827799361526 0.0 -0.011459617193621707 0.0 0.0
-0.031016882653179173 0.027916246088973695 0.0 -0.013313356943518373 0.0 0.0
-0.03761994945469428 0.03429235125420638 0.0 -0.015811469004294365 0.0 0.0
-0.044313073612846546 0.040689898902115385 0.0 -0.01925001777178087 0.0 0.0
-0.049458268496749114 0.04545387434733206 0.0 -0.023335776734058844 0.0 0.0
-0.05021441494439771 0.04572998344145551 0.0 -0.026298672142178903 0.0 0.0
-0.04236680141569231 0.03730931641977042 0.0 -0.02524555707393794 0.0 0.0
-0.042366801415690145 0.03730931641976998 0.0 0.025245557073964697 0.0 0.0
-0.05021441494438983 0.04572998344145196 0.0 0.02629867214221382 0.0 0.0
-0.049458268496734056 0.045453874347320955 0.0 0.023335776734084768 0.0 0.0
-0.04431307361282427 0.04068989890209673 0.0 0.019250017771787586 0.0 0.0
-0.03761994945467095 0.034292351254182174 0.0 0.015811469004290812 0.0 0.0
-0.03101688265315463 0.027916246088949714 0.0 0.013313356943513571 0.0 0.0
-0.025186993992356993 0.022278277993591278 0.0 0.011459617193613297 0.0 0.0
-0.02023770147798603 0.017513177029336413 0.0 0.009913774283428461 0.0 0.0
-0.016042615056803988 0.01350640788616686 0.0 0.00849016708711331 0.0 0.0
-0.01243379439452634 0.010095364339087753 0.0 0.0071055284241228756 0.0 0.0
-0.009289415345518907 0.007164117375833889 0.0 0.005695612409809009 0.0 0.0
-0.006569579716051904 0.004688228571614328 0.0 0.004274176750369091 0.0 0.0
-0.004338386536232766 0.002753023577361291 0.0 0.0030160814883954945 0.0 0.0
-0.0027379570801108685 0.0014945286010979997 0.0 0.0021763247937813535 0.0 0.0
-0.0017960262165667082 0.0008739430886058885 0.0 0.001821231263267109 0.0 0.0
-0.001305676041751358 0.0006218471793104641 0.0 0.0017757903388249396 0.0 0.0
-0.0009876459429471254 0.00047337720516898996 0.0 0.0018755049032227467 0.0 0.0
-0.0006910125308218981 0.0002974704356882296 0.0 0.0019530973068774549 0.0 0.0
-0.00033199768762694204 4.264410811222197e-06 0.0 0.0018058487541925405 0.0 0.0
3.882031489187143e-05 -0.0003182973472060143 0.0 0.0009459188239669125 0.0 0.0
-1.8130125010146214e-05 -0.00019159083744108019 0.0 -0.0007652553229227643 0.0 0.0
-0.00038087051021268303 5.578951546292288e-05 0.0 -0.0015647687947141498 0.0 0.0
-0.0007878520919706311 0.00033908438246466055 0.0 -0.0017378124132864103 0.0 0.0
-0.0011534524264538437 0.0005347138373241744 0.0 -0.0016466501640988729 0.0 0.0
-0.0015514682173643213 0.0007303297806758868 0.0 -0.001524672169156971 0.0 0.0
-0.002225113600617973 0.0011249517108838925 0.0 -0.001577169118460453 0.0 0.0
-0.003498297874406281 0.002061431594448826 0.0 -0.002005119125845778 0.0 0.0
-0.0055350027521421374 0.003769116392172922 0.0 -0.0029393447235077363 0.0 0.0
-0.008234322267879013 0.006192278272123541 0.0 -0.004175718573980247 0.0 0.0
-0.011499875583473401 0.009211056016253494 0.0 -0.00550013340278338 0.0 0.0
-0.015313416197154983 0.012796754311080516 0.0 -0.006841417345073708 0.0 0.0
-0.019726705597403388 0.016993755371836894 0.0 -0.0081631467357135 0.0 0.0
-0.024878977012554815 0.02193524168956329 0.0 -0.0095389262153176 0.0 0.0
-0.030950295103088832 0.02780073098635305 0.0 -0.011066380610871063 0.0 0.0
-0.03807850913707857 0.03471812999880042 0.0 -0.012810200065728083 0.0 0.0
-0.046170294635261455 0.04255473959326794 0.0 -0.015002712736872148 0.0 0.0
-0.05443990259146732 0.05047788000311293 0.0 -0.018131339476633868 0.0 0.0
-0.060851411103119576 0.05643046610828639 0.0 -0.02233293149702692 0.0 0.0
-0.061877542619471135 0.056921498712366514 0.0 -0.026548747014855156 0.0 0.0
-0.05264721597571308 0.04712675895226148 0.0 -0.028715475679896185 0.0 0.0
-0.052647215975709594 0.04712675895225482 0.0 0.028715475679923386 0.0 0.0
-0.06187754261946023 0.0569214987123523 0.0 0.026548747014888463 0.0 0.0
-0.060851411103101466 0.056430466108268185 0.0 0.022332931497052955 0.0 0.0
-0.05443990259144145 0.05047788000309028 0.0 0.018131339476641306 0.0 0.0
-0.04617029463523395 0.04255473959324041 0.0 0.015002712736870122 0.0 0.0
-0.038078509137049285 0.03471812999877444 0.0 0.012810200065725086 0.0 0.0
-0.030950295103059723 0.02780073098632463 0.0 0.011066380610864152 0.0 0.0
-0.024878977012525234 0.021935241689534646 0.0 0.009538926215310967 0.0 0.0
-0.019726705597373828 0.016993755371809582 0.0 0.008163146735704202 0.0 0.0
-0.015313416197127096 0.012796754311057423 0.0 0.0068414173450594695 0.0 0.0
-0.011499875583449344 0.009211056016234176 0.0 0.005500133402768781 0.0 0.0
-0.00823432226786041 0.0061922782721086644 0.0 0.0041757185739708935 0.0 0.0
-0.0055350027521285095 0.0037691163921612647 0.0 0.002939344723502102 0.0 0.0
-0.0034982978743972465 0.002061431594443386 0.0 0.002005119125841781 0.0 0.0
-0.0022251136006140246 0.001124951710881117 0.0 0.0015771691184582881 0.0 0.0
-0.0015514682173626976 0.0007303297806746656 0.0 0.001524672169156388 0.0 0.0
-0.0011534524264528168 0.0005347138373235083 0.0 0.0016466501640965414 0.0 0.0
-0.0007878520919700829 0.0003390843824644385 0.0 0.001737812413285439 0.0 0.0
-0.0003808705102121071 5.578951546286737e-05 0.0 0.0015647687947132338 0.0 0.0
-1.813012501004213e-05 -0.00019159083744100733 0.0 0.0007652553229219872 0.0 0.0
-6.440461922374574e-05 -8.822141350831036e-05 0.0 -0.0005783187638181142 0.0 0.0
-0.00042655214458306445 0.00010681194602180089 0.0 -0.0012891044679995134 0.0 0.0
-0.0008801545463093807 0.00037945898783292575 0.0 -0.0014690937866849718 0.0 0.0
-0.0013120091728308636 0.0005898892023131763 0.0 -0.0013694117879308187 0.0 0.0
-0.0018036553264622335 0.0008481736539799334 0.0 -0.001236122623600927 0.0 0.0
-0.0027009185346809073 0.0014431979733718903 0.0 -0.0013145744232620216 0.0 0.0
-0.004336045811795586 0.0027411376032019374 0.0 -0.0018068255799352506 0.0 0.0
-0.006762384254880821 0.004861792240081764 0.0 -0.00268785456583176 0.0 0.0
-0.009902146205486129 0.007728758777209244 0.0 -0.0037592599261587756 0.0 0.0
-0.013717567683631915 0.011289312790896622 0.0 -0.0049376494161534334 0.0 0.0
-0.01820294170715911 0.015531360482866852 0.0 -0.006132733635812793 0.0 0.0
-0.02343335998681792 0.02052378794189491 0.0 -0.007317421126218859 0.0 0.0
-0.029561206827367875 0.026417846000753586 0.0 -0.008578340559036945 0.0 0.0
-0.036762522438165135 0.03338552758490465 0.0 -0.009980475441577152 0.0 0.0
-0.04514614699036226 0.04153399696882265 0.0 -0.011517827022136218 0.0 0.0
-0.05460183195627459 0.05071997862492994 0.0 -0.013197374040057275 0.0 0.0
-0.06432661893221829 0.06006140060762499 0.0 -0.015480133790015393 0.0 0.0
-0.07202783815859984 0.06723725829796834 0.0 -0.01939374830118623 0.0 0.0
-0.07356179034941403 0.0681711817849755 0.0 -0.02533232031044219 0.0 0.0
-0.06323849162088424 0.05726472286615536 0.0 -0.03212624702956518 0.0 0.0
-0.06323849162088023 0.05726472286615181 0.0 0.0321262470295926 0.0 0.0
-0.07356179034940033 0.06817118178496173 0.0 0.025332320310472445 0.0 0.0
-0.0720278381585782 0.06723725829794702 0.0 0.019393748301211322 0.0 0.0
-0.06432661893218883 0.06006140060759879 0.0 0.0154801337900215 0.0 0.0
-0.054601831956242776 0.050719978624897744 0.0 0.01319737404005572 0.0 0.0
-0.045146146990328116 0.04153399696879112 0.0 0.011517827022134997 0.0 0.0
-0.03676252243813139 0.03338552758487667 0.0 0.009980475441570935 0.0 0.0
-0.02956120682733343 0.026417846000722056 0.0 0.008578340559030562 0.0 0.0
-0.02343335998678353 0.020523787941861382 0.0 0.007317421126212115 0.0 0.0
-0.01820294170712703 0.015531360482837098 0.0 0.006132733635801468 0.0 0.0
-0.013717567683604437 0.01128931279087042 0.0 0.004937649416141776 0.0 0.0
-0.009902146205464181 0.00772875877718926 0.0 0.0037592599261510873 0.0 0.0
-0.006762384254864598 0.004861792240066332 0.0 0.00268785456582718 0.0 0.0
-0.004336045811784428 0.0027411376031913903 0.0 0.001806825579931115 0.0 0.0
-0.0027009185346754325 0.0014431979733664502 0.0 0.0013145744232580248 0.0 0.0
-0.001803655326460235 0.0008481736539777129 0.0 0.0012361226235998168 0.0 0.0
-0.0013120091728297464 0.0005898892023132873 0.0 0.0013694117879297918 0.0 0.0
-0.0008801545463085411 0.0003794589878335364 0.0 0.0014690937866843612 0.0 0.0
-0.00042655214458263424 0.00010681194602188415 0.0 0.0012891044679988195 0.0 0.0
-6.440461922366941e-05 -8.822141350821322e-05 0.0 0.0005783187638169762 0.0 0.0
-9.634585879542135e-05 -1.117038707018625e-05 0.0 -0.00038688769533529177 0.0 0.0
-0.0004640977704189475 0.00015367905064234133 0.0 -0.0009811292092546664 0.0 0.0
-0.0009677832638157191 0.0004170302319610464 0.0 -0.0011459178459604646 0.0 0.0
-0.001468167297497297 0.0006456199171304133 0.0 -0.0010451973037382822 0.0 0.0
-0.002074709537079028 0.0009918272452603683 0.0 -0.0009170339354376833 0.0 0.0
-0.0032430826777244404 0.0018404139461912772 0.0 -0.0010387791455554463 0.0 0.0
-0.005216586865799094 0.0034913005858675517 0.0 -0.0014874983082601712 0.0 0.0
-0.007989707841882382 0.005980288114031618 0.0 -0.002194820902305189 0.0 0.0
-0.011567592306305718 0.009283881742573774 0.0 -0.0030636188040294443 0.0 0.0
-0.015930420686793845 0.013381358773092877 0.0 -0.004022830281527168 0.0 0.0
-0.021093388446174116 0.018283213836356893 0.0 -0.005001206883041176 0.0 0.0
-0.027151972105243616 0.024082562840231025 0.0 -0.005969298914439813 0.0 0.0
-0.034270867792995124 0.030941787350179162 0.0 -0.007005881613998233 0.0 0.0
-0.04261112215716831 0.039019466640694 0.0 -0.008212876245311529 0.0 0.0
-0.0522094976210169 0.04834991519856646 0.0 -0.00949414660293113 0.0 0.0
-0.06285585591554627 0.05870783449742678 0.0 -0.01054492021217579 0.0 0.0
-0.07379109256005116 0.06927561420521844 0.0 -0.011537241408342835 0.0 0.0
-0.08286490058564672 0.07776745092502324 0.0 -0.014524091777629033 0.0 0.0
-0.08539315273551126 0.07959643927707027 0.0 -0.022291287260922332 0.0 0.0
-0.07449298071172254 0.06803635537066777 0.0 -0.035217850837242326 0.0 0.0
-0.0744929807117184 0.06803635537066066 0.0 0.03521785083726342 0.0 0.0
-0.08539315273549482 0.07959643927705473 0.0 0.022291287260949477 0.0 0.0
-0.08286490058562135 0.07776745092499926 0.0 0.014524091777651571 0.0 0.0
-0.07379109256001767 0.06927561420518602 0.0 0.011537241408348664 0.0 0.0
-0.06285585591551004 0.058707834497391254 0.0 0.010544920212175873 0.0 0.0
-0.05220949762097821 0.04834991519852894 0.0 0.009494146602930631 0.0 0.0
-0.042611122157130095 0.03901946664065825 0.0 0.00821287624530559 0.0 0.0
-0.0342708677929557 0.030941787350143413 0.0 0.007005881613992321 0.0 0.0
-0.02715197210520432 0.024082562840196164 0.0 0.005969298914435928 0.0 0.0
-0.021093388446138176 0.01828321383632403 0.0 0.0050012068830311285 0.0 0.0
-0.015930420686763123 0.013381358773061347 0.0 0.0040228302815160655 0.0 0.0
-0.011567592306280797 0.009283881742548239 0.0 0.003063618804021312 0.0 0.0
-0.007989707841863352 0.00598028811401341 0.0 0.0021948209023002763 0.0 0.0
-0.0052165868657861394 0.003491300585855339 0.0 0.0014874983082567017 0.0 0.0
-0.0032430826777175258 0.001840413946185171 0.0 0.0010387791455523654 0.0 0.0
-0.002074709537076242 0.0009918272452584809 0.0 0.0009170339354367119 0.0 0.0
-0.0014681672974961764 0.0006456199171308019 0.0 0.0010451973037378104 0.0 0.0
-0.0009677832638147095 0.00041703023196087985 0.0 0.0011459178459595765 0.0 0.0
-0.0004640977704187324 0.00015367905064189724 0.0 0.0009811292092537227 0.0 0.0
-9.634585879534502e-05 -1.1170387070342375e-05 0.0 0.00038688769533487544 0.0 0.0
-0.00010771685077684556 3.573871535611506e-05 0.0 -0.00019762177023036065 0.0 0.0
-0.00048503522376427965 0.00019081530452202955 0.0 -0.0006405696362734858 0.0 0.0
-0.001051207667045223 0.00045123083855092005 0.0 -0.0007614441371152636 0.0 0.0
-0.0016304630932923725 0.000707859248553433 0.0 -0.0006792421724561015 0.0 0.0
-0.002385403050730872 0.0011894097316896834 0.0 -0.0005923113990319029 0.0 0.0
-0.0038432201629397533 0.00231543820801694 0.0 -0.0007014691336385548 0.0 0.0
-0.006103613902497973 0.004279947908019555 0.0 -0.0010248031327601548 0.0 0.0
-0.0092129717568889 0.007111380995970862 0.0 -0.0015008317754854616 0.0 0.0
-0.01321919170425409 0.010842566315095947 0.0 -0.002096498139276648 0.0 0.0
-0.018127620359900315 0.015473419413657208 0.0 -0.002765745479647641 0.0 0.0
-0.023974404921634662 0.02103962217526023 0.0 -0.003445237491078612 0.0 0.0
-0.030872991735114097 0.027656212105070965 0.0 -0.00411815310271163 0.0 0.0
-0.0389958632797604 0.03549353140838729 0.0 -0.004873193789822039 0.0 0.0
-0.048470592722330536 0.044675036414024705 0.0 -0.005743317320402563 0.0 0.0
-0.05924762432157671 0.05514571614108377 0.0 -0.006616214122392106 0.0 0.0
-0.07095445515224155 0.06653227914894533 0.0 -0.007178124713709821 0.0 0.0
-0.08275382995652004 0.0779878722453371 0.0 -0.0070662346555787625 0.0 0.0
-0.09297166179728976 0.08773439275749917 0.0 -0.007824336085147487 0.0 0.0
-0.09741125363817198 0.09122682363222312 0.0 -0.016271450737647075 0.0 0.0
-0.08695306615788861 0.07992652751715923 0.0 -0.03730473698385678 0.0 0.0
-0.08695306615788341 0.07992652751715568 0.0 0.037304736983872044 0.0 0.0
-0.09741125363815277 0.09122682363220402 0.0 0.016271450737666615 0.0 0.0
-0.09297166179726046 0.08773439275747164 0.0 0.00782433608516403 0.0 0.0
-0.08275382995648192 0.07798787224530335 0.0 0.007066234655580705 0.0 0.0
-0.07095445515220086 0.06653227914890802 0.0 0.0071781247137114035 0.0 0.0
-0.059247624321533625 0.05514571614104269 0.0 0.006616214122391412 0.0 0.0
-0.04847059272228752 0.04467503641398385 0.0 0.005743317320398511 0.0 0.0
-0.03899586327971594 0.03549353140834688 0.0 0.004873193789818098 0.0 0.0
-0.03087299173506988 0.027656212105029665 0.0 0.004118153102709854 0.0 0.0
-0.02397440492159481 0.02103962217522204 0.0 0.003445237491072173 0.0 0.0
-0.01812762035986648 0.015473419413626566 0.0 0.002765745479640147 0.0 0.0
-0.013219191704226207 0.010842566315069968 0.0 0.002096498139272429 0.0 0.0
-0.009212971756867442 0.00711138099595221 0.0 0.0015008317754831857 0.0 0.0
-0.0061036139024832434 0.00427994790800712 0.0 0.0010248031327573792 0.0 0.0
-0.0038432201629311265 0.0023154382080103897 0.0 0.0007014691336366397 0.0 0.0
-0.0023854030507273194 0.001189409731687241 0.0 0.0005923113990312923 0.0 0.0
-0.0016304630932910315 0.0007078592485521007 0.0 0.0006792421724549358 0.0 0.0
-0.00105120766704417 0.00045123083855130863 0.0 0.0007614441371137093 0.0 0.0
-0.00048503522376392924 0.0001908153045227512 0.0 0.0006405696362730695 0.0 0.0
-0.0001077168507768421 3.573871535614802e-05 0.0 0.00019762177023069372 0.0 0.0
-8.727748081424624e-05 4.6987852910018724e-05 0.0 -2.6256532365043217e-05 0.0 0.0
-0.0004754978692270706 0.0002097028514928545 0.0 -0.00026129183780077003 0.0 0.0
-0.0011325210643977623 0.00048121281790164394 0.0 -0.0003013090983552402 0.0 0.0
-0.0018153320476411994 0.0007932444006834016 0.0 -0.0002773188199103327 0.0 0.0
-0.002751354262260336 0.0014396008543345884 0.0 -0.00024015055923951034 0.0 0.0
-0.004470871776370067 0.0028338041973137162 0.0 -0.0002785158296939316 0.0 0.0
-0.006990114810099007 0.005084864979096437 0.0 -0.0004156242766733542 0.0 0.0
-0.0104205567104253 0.008242437679568448 0.0 -0.0006080743248722542 0.0 0.0
-0.014846348699431855 0.012389540819851996 0.0 -0.000865528702572671 0.0 0.0
-0.020297225476786973 0.017550107077835442 0.0 -0.0011657798915296058 0.0 0.0
-0.02683629281096303 0.023790058488481147 0.0 -0.0014694607483419775 0.0 0.0
-0.034592604942088157 0.031239499834897266 0.0 -0.0017912763657236264 0.0 0.0
-0.043714822193248404 0.040049811061808605 0.0 -0.0021466724250976954 0.0 0.0
-0.054301796453649936 0.050313163029480634 0.0 -0.0025279013519279303 0.0 0.0
-0.06623227066267523 0.06189970274824774 0.0 -0.002882158397009782 0.0 0.0
-0.07895211611147762 0.07425712950706265 0.0 -0.0030077509122312107 0.0 0.0
-0.09138403395616629 0.08632903943370351 0.0 -0.0025580910191581596 0.0 0.0
-0.10199374678362534 0.0965904698079787 0.0 -0.001410339219240997 0.0 0.0
-0.1083549498565988 0.10241342522445818 0.0 -0.004909350395160883 0.0 0.0
-0.1021674046763486 0.09407198555920848 0.0 -0.03447189852286603 0.0 0.0
-0.10216740467634264 0.09407198555919694 0.0 0.03447189852287108 0.0 0.0
-0.10835494985657712 0.10241342522443553 0.0 0.004909350395169598 0.0 0.0
-0.1019937467835912 0.09659046980794539 0.0 0.0014103392192499342 0.0 0.0
-0.0913840339561231 0.08632903943366266 0.0 0.002558091019156744 0.0 0.0
-0.07895211611143191 0.07425712950701846 0.0 0.003007750912232293 0.0 0.0
-0.06623227066262757 0.06189970274820111 0.0 0.0028821583970095183 0.0 0.0
-0.054301796453601656 0.05031316302943334 0.0 0.002527901351927167 0.0 0.0
-0.043714822193199145 0.04004981106175931 0.0 0.002146672425095947 0.0 0.0
-0.03459260494203956 0.031239499834850637 0.0 0.001791276365722544 0.0 0.0
-0.026836292810918837 0.023790058488439403 0.0 0.0014694607483384248 0.0 0.0
-0.020297225476750162 0.017550107077801025 0.0 0.0011657798915272743 0.0 0.0
-0.014846348699401294 0.012389540819822908 0.0 0.0008655287025707004 0.0 0.0
-0.010420556710401712 0.008242437679545689 0.0 0.0006080743248698672 0.0 0.0
-0.006990114810082279 0.00508486497908156 0.0 0.000415624276672133 0.0 0.0
-0.00447087177635983 0.0028338041973040573 0.0 0.0002785158296931822 0.0 0.0
-0.002751354262255705 0.001439600854332146 0.0 0.0002401505592382891 0.0 0.0
-0.0018153320476396078 0.0007932444006824579 0.0 0.0002773188199093335 0.0 0.0
-0.0011325210643964266 0.0004812128179010333 0.0 0.0003013090983550737 0.0 0.0
-0.00047549786922659876 0.0002097028514930488 0.0 0.0002612918378001039 0.0 0.0
-8.727748081423237e-05 4.6987852909938926e-05 0.0 2.6256532364821172e-05 0.0 0.0
SCALARS Statev float 8
LOOKUP_TABLE default
0.0 0.009878685012562602 0.007529730462108376 -0.007914227505737573 0.0003844970436291972 -0.004251337349634971 0.0 0.0
0.0 0.00030280185863972985 0.00017447209008738298 -0.0001361038030713424 -3.836828701604059e-05 0.0001930194383381827 0.0 0.0
0.0 3.342380937738801e-05 -4.754075056001044e-06 3.773145031477424e-06 9.809300245235895e-07 5.62033213615258e-07 0.0 0.0
0.0 0.00010971112238370324 3.856951808764605e-05 -2.9942179112566656e-05 -8.627338975079484e-06 -5.196097911331771e-06 0.0 0.0
0.0 0.000765722004687356 0.0005365089599409634 -0.00043003574533219803 -0.00010647321460876572 -6.099219582334329e-05 0.0 0.0
0.0 0.002097474092032121 0.0019333298087565456 -0.0016167026861792998 -0.0003166271225772452 -0.00015890923457419415 0.0 0.0
0.0 0.004616437290067743 0.0041911146712068255 -0.003677256585344178 -0.0005138580858626474 -0.0002948661459603038 0.0 0.0
0.0 0.008265392464390547 0.00740533491987984 -0.006735700472362264 -0.0006696344475175752 -0.0004777170515221492 0.0 0.0
0.0 0.01310414085634644 0.011618606272368399 -0.010827211719449793 -0.0007913945529186015 -0.0007198943044998765 0.0 0.0
0.0 0.019159120728618827 0.01685627761345329 -0.01595742225250159 -0.0008988553609517009 -0.0010079484215531937 0.0 0.0
0.0 0.026531479794912556 0.02319013894098757 -0.022187604588502392 -0.001002534352485177 -0.0013086953950932844 0.0 0.0
0.0 0.035092625462572344 0.0307582615234364 -0.02965118389076185 -0.00110707763267453 -0.0016334903728551136 0.0 0.0
0.0 0.04531595192879221 0.03970400400551552 -0.03849140150603057 -0.0012126024994849286 -0.0019882669774087995 0.0 0.0
0.0 0.057321446807082385 0.050133251700620475 -0.048812484958960345 -0.0013207667416601284 -0.002373249478212566 0.0 0.0
0.0 0.07097540759446672 0.06198521885642008 -0.06055144739260965 -0.0014337714638104227 -0.002794645608473206 0.0 0.0
0.0 0.08586485738028933 0.07487131838361619 -0.0733199141357414 -0.0015514042478748154 -0.0031848177787197115 0.0 0.0
0.0 0.10104626999657568 0.08800251676356984 -0.08633229849511662 -0.0016702182684532243 -0.003377758301286603 0.0 0.0
0.0 0.11517546997551747 0.10023055448771115 -0.0984467132137766 -0.0017838412739345096 -0.0031420411114501507 0.0 0.0
0.0 0.12666711332376307 0.11018215668520341 -0.10829718544707288 -0.001884971238130504 -0.002469052090456556 0.0 0.0
0.0 0.13343649356659076 0.116183742451835 -0.11418887945091596 -0.001994863000919056 -0.002090664010715562 0.0 0.0
0.0 0.1334364935665852 0.11618374245183001 -0.1141888794509114 -0.0019948630009185937 0.0020906640107191056 0.0 0.0
0.0 0.12666711332374203 0.11018215668518481 -0.10829718544705505 -0.0018849712381297703 0.0024690520904693124 0.0 0.0
0.0 0.11517546997547916 0.10023055448767793 -0.09844671321374374 -0.001783841273934171 0.0031420411114567357 0.0 0.0
0.0 0.10104626999652912 0.08800251676352921 -0.08633229849507669 -0.001670218268452507 0.003377758301291458 0.0 0.0
0.0 0.08586485738023966 0.07487131838357289 -0.07331991413569874 -0.0015514042478741534 0.0031848177787141946 0.0 0.0
0.0 0.0709754075944137 0.06198521885637413 -0.06055144739256391 -0.0014337714638102037 0.0027946456084730615 0.0 0.0
0.0 0.0573214468070303 0.050133251700575136 -0.04881248495891566 -0.0013207667416594666 0.0023732494782121374 0.0 0.0
0.0 0.045315951928740494 0.03970400400547045 -0.03849140150598627 -0.0012126024994841818 0.001988266977408545 0.0 0.0
0.0 0.03509262546252194 0.0307582615233925 -0.029651183890718573 -0.0011070776326739286 0.00163349037285156 0.0 0.0
0.0 0.02653147979486828 0.023190138940948665 -0.022187604588464162 -0.0010025343524844943 0.0013086953950914892 0.0 0.0
0.0 0.019159120728581967 0.01685627761342104 -0.01595742225247021 -0.0008988553609508315 0.0010079484215492556 0.0 0.0
0.0 0.01310414085631841 0.011618606272343238 -0.010827211719425531 -0.0007913945529177096 0.00071989430449862 0.0 0.0
0.0 0.008265392464368814 0.007405334919859924 -0.006735700472343165 -0.0006696344475167593 0.00047771705152068605 0.0 0.0
0.0 0.004616437290053047 0.004191114671193073 -0.003677256585331262 -0.000513858085861809 0.0002948661459594497 0.0 0.0
0.0 0.00209747409202346 0.0019333298087480396 -0.0016167026861717965 -0.00031662712257624276 0.00015890923457343234 0.0 0.0
0.0 0.00076572200468292 0.0005365089599374599 -0.00043003574532932506 -0.00010647321460813479 6.099219582302494e-05 0.0 0.0
0.0 0.0001097111223826795 3.856951808767239e-05 -2.9942179112580262e-05 -8.627338975092123e-06 5.196097911288838e-06 0.0 0.0
0.0 3.342380937687491e-05 -4.754075055922566e-06 3.7731450314146314e-06 9.80930024507978e-07 -5.620332136057866e-07 0.0 0.0
0.0 0.00030280185863804093 0.00017447209008655647 -0.0001361038030707133 -3.836828701584341e-05 -0.00019301943833716263 0.0 0.0
0.0 0.009878685012547229 0.007529730462097969 -0.007914227505726148 0.00038449704362817543 0.004251337349612571 0.0 0.0
0.0 0.007024551825444256 0.005018459170619033 -0.005490979758485727 0.00047252058786669476 -0.0047455703879152565 0.0 0.0
0.0 0.0 0.0 0.0 0.0 0.0 0.0 0.0
0.0 9.430826945183483e-08 -1.020951514236367e-08 7.758883502814768e-09 2.450631639548195e-09 3.6392644398315674e-09 0.0 0.0
0.0 3.478627853808354e-05 2.2388969946439388e-06 -1.7531887158461667e-06 -4.857082787980076e-07 -1.5180266278024683e-06 0.0 0.0
0.0 0.0004570198330926853 0.0002678338453051757 -0.00021299350778602183 -5.484033751915388e-05 -7.383956143277811e-05 0.0 0.0
0.0 0.0015171592981864305 0.0014005366443781756 -0.001154291729784093 -0.000246244914594083 -0.0003121571215106069 0.0 0.0
0.0 0.0037300446693735757 0.0033859689467376324 -0.0029304599571307478 -0.0004555089896068844 -0.0006625478175031164 0.0 0.0
0.0 0.007003666137707129 0.006273108757859175 -0.005646742596405271 -0.0006263661614539035 -0.0011215067183264482 0.0 0.0
0.0 0.011350401057829335 0.010069050995126689 -0.009313226704493225 -0.0007558242906334631 -0.0016926367762129858 0.0 0.0
0.0 0.016766742274652368 0.014769248542185129 -0.013905693145526903 -0.0008635553966582184 -0.0023463726439043224 0.0 0.0
0.0 0.02330025391309597 0.02041729954066165 -0.019454215519922595 -0.0009630840207390456 -0.003028588916290665 0.0 0.0
0.0 0.031131964748949456 0.027133576035782377 -0.026073603745578742 -0.0010599722902036352 -0.0037175976834429767 0.0 0.0
0.0 0.04017083954963854 0.03509562025879834 -0.03393847397108512 -0.0011571462877132135 -0.004487257367068141 0.0 0.0
0.0 0.050855720689117874 0.04442493712554044 -0.04316825361050759 -0.0012566835150328258 -0.005371330364504952 0.0 0.0
0.0 0.06313328047333308 0.05507654355634522 -0.053716394923315466 -0.001360148633029778 -0.006326512374240468 0.0 0.0
0.0 0.07654668190127303 0.06671796055017229 -0.06525049250513498 -0.0014674680450372922 -0.007212911763526788 0.0 0.0
0.0 0.09030610255939377 0.07865471082691344 -0.07707865941651286 -0.0015760514104005514 -0.007673707054938094 0.0 0.0
0.0 0.10322387386705284 0.08985194273024731 -0.0881702039682646 -0.0016817387619826802 -0.007279408025471741 0.0 0.0
0.0 0.11371570563187454 0.09896001402357663 -0.0971742811087887 -0.0017857329147879673 -0.005953287592710382 0.0 0.0
0.0 0.11992992504111308 0.10437234933912055 -0.10251108700969543 -0.0018612623294251677 -0.003641244401406634 0.0 0.0
0.0 0.1199299250411048 0.10437234933911363 -0.10251108700968782 -0.001861262329425799 0.0036412444014188037 0.0 0.0
0.0 0.11371570563185358 0.09896001402355845 -0.09717428110877 -0.0017857329147884528 0.005953287592734522 0.0 0.0
0.0 0.10322387386702228 0.08985194273022024 -0.08817020396823824 -0.0016817387619819982 0.0072794080254873685 0.0 0.0
0.0 0.09030610255935512 0.07865471082687922 -0.0770786594164797 -0.001576051410399477 0.007673707054947302 0.0 0.0
0.0 0.07654668190122885 0.0667179605501338 -0.06525049250509729 -0.0014674680450364958 0.007212911763522196 0.0 0.0
0.0 0.06313328047328606 0.05507654355630431 -0.05371639492327512 -0.0013601486330291962 0.006326512374239245 0.0 0.0
0.0 0.05085572068907099 0.04442493712549962 -0.043168253610467354 -0.0012566835150322282 0.005371330364504033 0.0 0.0
0.0 0.04017083954959155 0.03509562025875727 -0.03393847397104491 -0.001157146287712369 0.004487257367066412 0.0 0.0
0.0 0.03113196474890369 0.027133576035742298 -0.026073603745539447 -0.001059972290202847 0.0037175976834376246 0.0 0.0
0.0 0.02330025391305665 0.02041729954062709 -0.019454215519889056 -0.0009630840207380362 0.0030285889162857222 0.0 0.0
0.0 0.016766742274620175 0.01476924854215666 -0.013905693145499188 -0.0008635553966574702 0.002346372643897592 0.0 0.0
0.0 0.011350401057803345 0.010069050995103296 -0.00931322670447032 -0.0007558242906329704 0.0016926367762098015 0.0 0.0
0.0 0.007003666137686889 0.006273108757840857 -0.005646742596387763 -0.0006263661614530956 0.0011215067183227786 0.0 0.0
0.0 0.0037300446693598007 0.0033859689467246783 -0.0029304599571188606 -0.0004555089896058169 0.0006625478175008499 0.0 0.0
0.0 0.0015171592981793136 0.0014005366443716975 -0.0011542917297784922 -0.00024624491459320516 0.0003121571215090027 0.0 0.0
0.0 0.0004570198330900994 0.00026783384530370706 -0.00021299350778483471 -5.484033751887243e-05 7.383956143237121e-05 0.0 0.0
0.0 3.478627853754085e-05 2.2388969947925854e-06 -1.7531887159594997e-06 -4.857082788329455e-07 1.5180266278551291e-06 0.0 0.0
0.0 9.430826938068039e-08 -1.0209515134588993e-08 7.758883496907494e-09 2.4506316376819497e-09 -3.6392644370560787e-09 0.0 0.0
0.0 0.0 0.0 0.0 0.0 0.0 0.0 0.0
0.0 0.007024551825427269 0.005018459170607773 -0.0054909797584736285 0.0004725205878658563 0.004745570387896211 0.0 0.0
0.0 0.00514753860038886 0.003464724572671972 -0.003935762007018998 0.00047103743434702503 -0.0040489179976269584 0.0 0.0
0.0 0.0 0.0 0.0 0.0 0.0 0.0 0.0
0.0 0.0 0.0 0.0 0.0 0.0 0.0 0.0
0.0 3.428802297877555e-06 2.6612701184876653e-07 -2.0999752267184198e-07 -5.61294891769455e-08 -2.3732865561657486e-07 0.0 0.0
0.0 0.00019385634273026911 0.00010301690825856974 -8.133912060938819e-05 -2.1677787649181452e-05 -5.202964449640332e-05 0.0 0.0
0.0 0.0011442331781784357 0.0008882881058984307 -0.0007223222632619435 -0.00016596584263648643 -0.000346543651219637 0.0 0.0
0.0 0.0028784329035409966 0.002598337705519479 -0.002212254202021082 -0.0003860835034983965 -0.0008717639158884351 0.0 0.0
0.0 0.005760701817261574 0.005143267343081049 -0.0045718559630345094 -0.0005714113800465372 -0.0015678378166714476 0.0 0.0
0.0 0.009629216209272849 0.00850998273843413 -0.007797770878648639 -0.0007122118597854922 -0.002406661478014298 0.0 0.0
0.0 0.014428013651913565 0.012669477768502923 -0.011847091301241525 -0.0008223864672613978 -0.00334965823995136 0.0 0.0
0.0 0.020202171354459394 0.017639144620121113 -0.01672078989483709 -0.0009183547252840231 -0.0043351390538863156 0.0 0.0
0.0 0.02698082911842825 0.023523703576950803 -0.022514996862780447 -0.0010087067141703527 -0.005330530876330841 0.0 0.0
0.0 0.03512740241466067 0.03049211442662815 -0.029394250916722993 -0.0010978635099051527 -0.006401843916736712 0.0 0.0
0.0 0.04448450453331218 0.03869863965097796 -0.037509867487927256 -0.0011887721630506882 -0.007656550847351257 0.0 0.0
0.0 0.055312661747119254 0.04812725271827918 -0.0468448682464008 -0.001282384471878363 -0.009053030190083803 0.0 0.0
0.0 0.06728812485837628 0.058506409469443174 -0.057127383266073035 -0.00137902620337013 -0.010334327369324728 0.0 0.0
0.0 0.07965513020686085 0.06925249143079543 -0.06777520028300726 -0.0014772911477881386 -0.011042854689187722 0.0 0.0
0.0 0.09132849339136648 0.07943803072582875 -0.07786091433356121 -0.0015771163922674873 -0.010630181962001169 0.0 0.0
0.0 0.10086361505302532 0.08778818158112406 -0.08611768218709662 -0.001670499394027391 -0.008685662256258785 0.0 0.0
0.0 0.10664159126082604 0.09288511322917037 -0.09115062932806886 -0.0017344839011014595 -0.004815929067804153 0.0 0.0
0.0 0.10664159126082139 0.0928851132291657 -0.09115062932806482 -0.0017344839011008643 0.004815929067825323 0.0 0.0
0.0 0.10086361505300802 0.087788181581108 -0.08611768218708116 -0.0016704993940268387 0.008685662256291025 0.0 0.0
0.0 0.09132849339133767 0.07943803072580281 -0.0778609143335357 -0.0015771163922670465 0.010630181962023168 0.0 0.0
0.0 0.07965513020682635 0.06925249143076498 -0.06777520028297723 -0.001477291147787752 0.011042854689197594 0.0 0.0
0.0 0.06728812485833917 0.05850640946941081 -0.05712738326604149 -0.0013790262033693164 0.010334327369320231 0.0 0.0
0.0 0.055312661747078384 0.048127252718243536 -0.04684486824636574 -0.0012823844718778056 0.009053030190081572 0.0 0.0
0.0 0.04448450453327207 0.03869863965094286 -0.0375098674878929 -0.0011887721630499534 0.007656550847348939 0.0 0.0
0.0 0.03512740241461969 0.03049211442659234 -0.029394250916687695 -0.0010978635099046443 0.006401843916733159 0.0 0.0
0.0 0.026980829118389567 0.023523703576917215 -0.022514996862747494 -0.0010087067141697204 0.005330530876323217 0.0 0.0
0.0 0.020202171354422652 0.01763914462008878 -0.016720789894805195 -0.0009183547252835807 0.00433513905387896 0.0 0.0
0.0 0.014428013651882735 0.01266947776847572 -0.01184709130121487 -0.0008223864672608454 0.0033496582399418513 0.0 0.0
0.0 0.009629216209248604 0.008509982738412511 -0.007797770878627749 -0.00071221185978476 0.0024066614780088257 0.0 0.0
0.0 0.005760701817242429 0.00514326734306377 -0.00457185596301812 -0.0005714113800456517 0.0015678378166660441 0.0 0.0
0.0 0.0028784329035297625 0.0025983377055090367 -0.0022122542020116816 -0.0003860835034973536 0.0008717639158853214 0.0 0.0
0.0 0.0011442331781720103 0.0008882881058932285 -0.0007223222632575894 -0.00016596584263563855 0.00034654365121755215 0.0 0.0
0.0 0.00019385634272824388 0.00010301690825744743 -8.133912060849543e-05 -2.167778764895189e-05 5.202964449584326e-05 0.0 0.0
0.0 3.4288022975532085e-06 2.6612701208660735e-07 -2.099975228559087e-07 -5.612948923071838e-08 2.3732865577397465e-07 0.0 0.0
0.0 0.0 0.0 0.0 0.0 0.0 0.0 0.0
0.0 0.0 0.0 0.0 0.0 0.0 0.0 0.0
0.0 0.0051475386003742764 0.003464724572661956 -0.003935762007008124 0.0004710374343461689 0.004048917997610973 0.0 0.0
0.0 0.0037165235819274587 0.002383232704034174 -0.002801461091915436 0.00041822838788126095 -0.0030806579943479786 0.0 0.0
0.0 0.0 0.0 0.0 0.0 0.0 0.0 0.0
0.0 0.0 0.0 0.0 0.0 0.0 0.0 0.0
0.0 1.7764958665315978e-06 -1.7819784007305854e-07 1.3787375697884427e-07 4.03240830942293e-08 1.8782013220909485e-07 0.0 0.0
0.0 6.614728059997528e-05 2.6451246554354608e-05 -2.0781628226965115e-05 -5.669618327389379e-06 -2.1536468673774298e-05 0.0 0.0
0.0 0.0006954855242955043 0.0004936647230029934 -0.00039641063700201297 -9.72540860009804e-05 -0.0002947217667073409 0.0 0.0
0.0 0.0021202088116357453 0.0018395411244598188 -0.0015387570008401658 -0.0003007841236196526 -0.0009202268297613059 0.0 0.0
0.0 0.004555512827642823 0.004028698314931674 -0.003525387798423384 -0.0005033105165082905 -0.0018077836278366484 0.0 0.0
0.0 0.00793057812428751 0.006955391165876593 -0.006298328364478016 -0.0006570628013985758 -0.00285474749339449 0.0 0.0
0.0 0.012109753011535357 0.010571713913601557 -0.009798941354086953 -0.0007727725595145987 -0.004018388778098805 0.0 0.0
0.0 0.01710994319158316 0.014869468838169836 -0.01400202895083449 -0.0008674398873353416 -0.005224316395289113 0.0 0.0
0.0 0.023005093695851055 0.01993020535181969 -0.01897755905915239 -0.0009526462926672978 -0.006444067887489879 0.0 0.0
0.0 0.029957966692011964 0.025916450677638318 -0.02488238506696594 -0.0010340656106723762 -0.0077635480847363875 0.0 0.0
0.0 0.03819290623244828 0.03298583314490601 -0.03186914175518282 -0.0011166913897231849 -0.009261200130467332 0.0 0.0
0.0 0.04770015864104894 0.04116383134042479 -0.03996333429537429 -0.001200497045050507 -0.010925129737665717 0.0 0.0
0.0 0.05803238923774393 0.05025903286291904 -0.04897311918155748 -0.0012859136813615408 -0.012516155756362541 0.0 0.0
0.0 0.0690109540954126 0.05979548141191672 -0.0584211845048503 -0.0013742969070664052 -0.013477444302327052 0.0 0.0
0.0 0.07949994966301852 0.06897328452219326 -0.067508632040142 -0.0014646524820512373 -0.013113729554506777 0.0 0.0
0.0 0.08819768162484573 0.07666290271719434 -0.07511415626619174 -0.001548746451002591 -0.01074801059093625 0.0 0.0
0.0 0.09368155666965412 0.0815862406482505 -0.07997921212153236 -0.001607028526718112 -0.005773994570151488 0.0 0.0
0.0 0.09368155666964707 0.08158624064824396 -0.07997921212152584 -0.0016070285267181144 0.005773994570178589 0.0 0.0
0.0 0.08819768162483137 0.07666290271718053 -0.07511415626617808 -0.0015487464510024248 0.01074801059097327 0.0 0.0
0.0 0.07949994966299667 0.06897328452217279 -0.06750863204012209 -0.0014646524820506675 0.0131137295545328 0.0 0.0
0.0 0.06901095409538387 0.059795481411890825 -0.058421184504824995 -0.0013742969070658318 0.013477444302338859 0.0 0.0
0.0 0.05803238923771087 0.050259032862890206 -0.04897311918152938 -0.0012859136813608246 0.012516155756358725 0.0 0.0
0.0 0.047700158641014664 0.041163831340394925 -0.03996333429534509 -0.0012004970450498185 0.010925129737662014 0.0 0.0
0.0 0.038192906232415544 0.03298583314487728 -0.031869141755154776 -0.00111669138972251 0.009261200130464302 0.0 0.0
0.0 0.02995796669197648 0.02591645067760717 -0.024882385066935266 -0.001034065610671893 0.007763548084732509 0.0 0.0
0.0 0.023005093695817023 0.01993020535178982 -0.018977559059123232 -0.0009526462926665819 0.006444067887480681 0.0 0.0
0.0 0.0171099431915537 0.014869468838143673 -0.01400202895080916 -0.000867439887334524 0.005224316395280716 0.0 0.0
0.0 0.012109753011508628 0.010571713913578256 -0.009798941354064374 -0.0007727725595138783 0.004018388778087818 0.0 0.0
0.0 0.007930578124267574 0.006955391165858791 -0.006298328364461025 -0.0006570628013977651 0.0028547474933882993 0.0 0.0
0.0 0.00455551282762826 0.004028698314918557 -0.0035253877984112057 -0.0005033105165073495 0.0018077836278310615 0.0 0.0
0.0 0.002120208811626249 0.0018395411244515126 -0.0015387570008328477 -0.00030078412361866436 0.0009202268297575254 0.0 0.0
0.0 0.0006954855242909102 0.0004936647230000394 -0.00039641063699958007 -9.725408600045935e-05 0.00029472176670547066 0.0 0.0
0.0 6.614728059915607e-05 2.6451246554543097e-05 -2.078162822710449e-05 -5.669618327438696e-06 2.153646867388261e-05 0.0 0.0
0.0 1.7764958662467406e-06 -1.7819784004332652e-07 1.3787375695581053e-07 4.032408308752122e-08 -1.8782013217738892e-07 0.0 0.0
0.0 0.0 0.0 0.0 0.0 0.0 0.0 0.0
0.0 0.0 0.0 0.0 0.0 0.0 0.0 0.0
0.0 0.0037165235819144197 0.0023832327040256827 -0.00280146109190611 0.0004182283878804265 0.0030806579943351013 0.0 0.0
0.0 0.0025732126064586134 0.0015778742334109797 -0.001915439404195103 0.0003375651707841242 -0.0021609706137563833 0.0 0.0
0.0 0.0 0.0 0.0 0.0 0.0 0.0 0.0
0.0 0.0 0.0 0.0 0.0 0.0 0.0 0.0
0.0 6.929946244958124e-08 -5.867089801559984e-09 4.478351496008589e-09 1.388738305550426e-09 8.798859195521545e-09 0.0 0.0
0.0 2.1122750683523456e-05 4.092481380633752e-06 -3.2799522449107276e-06 -8.125291357230467e-07 -5.29282773722877e-06 0.0 0.0
0.0 0.0003483414822764818 0.0002238000438904299 -0.00017821979076851043 -4.558025312191964e-05 -0.0002044506501037939 0.0 0.0
0.0 0.0015149504110340572 0.0011505039076311779 -0.0009445198141137156 -0.00020598409351746183 -0.000808993035306274 0.0 0.0
0.0 0.0034437528915147895 0.002936121240440656 -0.0025192025457208334 -0.00041691869471982237 -0.0018016213886306752 0.0 0.0
0.0 0.006267441527379667 0.00542018449092696 -0.004833698315915376 -0.0005864861750115822 -0.0030260555652577553 0.0 0.0
0.0 0.009835534139586172 0.008489303614102335 -0.007777680310037026 -0.0007116233040653102 -0.004341826634236212 0.0 0.0
0.0 0.014083128493328045 0.012120399852129815 -0.011312292897519565 -0.0008081069546102496 -0.0056979890202623834 0.0 0.0
0.0 0.019043491923290665 0.0163689954768102 -0.015479386943544891 -0.0008896085332653094 -0.007060755843331438 0.0 0.0
0.0 0.02495260826350158 0.021379202606458377 -0.020414114997995274 -0.0009650876084631068 -0.008515244008184333 0.0 0.0
0.0 0.03180059824546714 0.027314430315080372 -0.026275464174282465 -0.0010389661407979086 -0.010180167824600659 0.0 0.0
0.0 0.039875304384657737 0.03422969702944184 -0.03311656576189123 -0.0011131312675505905 -0.012007707355420316 0.0 0.0
0.0 0.04900557625299416 0.04200367032428722 -0.04081506154625045 -0.0011886087780367729 -0.013740022445234246 0.0 0.0
0.0 0.05840524647159076 0.05028849187632393 -0.049023162462606865 -0.0012653294137170504 -0.014899962685124375 0.0 0.0
0.0 0.0676378954433204 0.05844817068171919 -0.05710369777362214 -0.0013444729080970426 -0.014697217812765907 0.0 0.0
0.0 0.07557805616788066 0.06553302553418952 -0.06411307112145631 -0.0014199544127332017 -0.012190445384118686 0.0 0.0
0.0 0.08088355826116964 0.07037629092083995 -0.06890082307484548 -0.0014754678459944486 -0.006563794559065691 0.0 0.0
0.0 0.08088355826116551 0.07037629092083561 -0.06890082307484133 -0.0014754678459942242 0.006563794559093997 0.0 0.0
0.0 0.07557805616786989 0.0655330255341782 -0.06411307112144542 -0.001419954412732749 0.01219044538415612 0.0 0.0
0.0 0.0676378954433012 0.05844817068170075 -0.05710369777360384 -0.001344472908096889 0.014697217812793085 0.0 0.0
0.0 0.05840524647156446 0.050288491876300086 -0.04902316246258309 -0.0012653294137170102 0.014899962685136901 0.0 0.0
0.0 0.04900557625296313 0.04200367032426028 -0.04081506154622377 -0.0011886087780365066 0.013740022445230007 0.0 0.0
0.0 0.03987530438462774 0.03422969702941565 -0.033116565761865495 -0.0011131312675501407 0.012007707355415849 0.0 0.0
0.0 0.03180059824543897 0.02731443031505549 -0.026275464174258405 -0.0010389661407970874 0.010180167824597299 0.0 0.0
0.0 0.024952608263473095 0.0213792026064331 -0.02041411499797051 -0.000965087608462584 0.008515244008180302 0.0 0.0
0.0 0.019043491923261237 0.01636899547678452 -0.015479386943519824 -0.000889608533264689 0.007060755843321488 0.0 0.0
0.0 0.014083128493302078 0.012120399852107265 -0.011312292897497703 -0.0008081069546095658 0.0056979890202514235 0.0 0.0
0.0 0.00983553413956352 0.008489303614083257 -0.00777768031001864 -0.0007116233040646132 0.004341826634223346 0.0 0.0
0.0 0.006267441527362125 0.0054201844909115525 -0.0048336983159007856 -0.0005864861750107644 0.0030260555652501337 0.0 0.0
0.0 0.00344375289150153 0.0029361212404293165 -0.0025192025457105955 -0.00041691869471872044 0.0018016213886240637 0.0 0.0
0.0 0.0015149504110257416 0.001150503907624545 -0.0009445198141081117 -0.0002059840935164335 0.0008089930353022531 0.0 0.0
0.0 0.00034834148227311847 0.00022380004388840058 -0.00017821979076689443 -4.558025312150619e-05 0.0002044506501020692 0.0 0.0
0.0 2.1122750682687546e-05 4.092481380624118e-06 -3.279952244900254e-06 -8.12529135723792e-07 5.292827737212564e-06 0.0 0.0
0.0 6.92994622914334e-08 -5.86708978807203e-09 4.478351485713519e-09 1.3887383023585593e-09 -8.798859175293273e-09 0.0 0.0
0.0 0.0 0.0 0.0 0.0 0.0 0.0 0.0
0.0 0.0 0.0 0.0 0.0 0.0 0.0 0.0
0.0 0.0025732126064484657 0.00157787423340465 -0.0019154394041879116 0.0003375651707832613 0.0021609706137469885 0.0 0.0
0.0 0.0016403268919500983 0.0009708616341038991 -0.0012159077439507738 0.00024504610984687466 -0.0013906580577378656 0.0 0.0
0.0 0.0 0.0 0.0 0.0 0.0 0.0 0.0
0.0 0.0 0.0 0.0 0.0 0.0 0.0 0.0
0.0 0.0 0.0 0.0 0.0 0.0 0.0 0.0
0.0 1.0357222223247195e-05 -9.629514759713054e-07 7.42040758605245e-07 2.2091071736606066e-07 1.7961155124832236e-06 0.0 0.0
0.0 0.00013650578175701539 8.722756324685181e-05 -6.927352239865691e-05 -1.795404084819483e-05 -0.00012432726523465832 0.0 0.0
0.0 0.0008631793303752539 0.0006241269371371994 -0.0005037924709321166 -0.00012033446620508237 -0.000636406049351733 0.0 0.0
0.0 0.002412780791541735 0.0019174104695502449 -0.0016085324388204758 -0.0003088780307297698 -0.0015923764529341311 0.0 0.0
0.0 0.004697800335785304 0.003914994783257157 -0.0034207526919972134 -0.0004942420912599435 -0.002877754461745566 0.0 0.0
0.0 0.007617253527087492 0.006439040930893022 -0.005805897178713596 -0.000633143752179426 -0.004303842809632503 0.0 0.0
0.0 0.01109581131855023 0.00940702621640109 -0.008671751623470229 -0.0007352745929308606 -0.00573501928101414 0.0 0.0
0.0 0.015162581752881052 0.012854641118981418 -0.012037811327810791 -0.0008168297911706258 -0.0071650469936224565 0.0 0.0
0.0 0.019936434997077708 0.016903630510034302 -0.016015633333987315 -0.0008879971760469971 -0.00867907532693609 0.0 0.0
0.0 0.02559887766808829 0.02170541110927341 -0.020750757288067502 -0.0009546538212059042 -0.010371386665008687 0.0 0.0
0.0 0.03228195236223985 0.0273497526631077 -0.02633004673418585 -0.001019705928921854 -0.012240293898696474 0.0 0.0
0.0 0.039644505093310675 0.03378353595819299 -0.03269887187252112 -0.0010846640856718745 -0.014053355374015905 0.0 0.0
0.0 0.04779743630875891 0.040759987333864656 -0.03961018366173363 -0.0011498036721309998 -0.01531020123107441 0.0 0.0
0.0 0.05588721418522666 0.04784776855149217 -0.04663192716650813 -0.001215841384984012 -0.015294283038664211 0.0 0.0
0.0 0.06291661887456873 0.05433366863746104 -0.05305174829937863 -0.0012819203380823822 -0.012968607586900178 0.0 0.0
0.0 0.06811450203717175 0.059161652195244926 -0.057825105920059475 -0.0013365462751854433 -0.0071912446655208045 0.0 0.0
0.0 0.0681145020371674 0.05916165219524042 -0.057825105920054805 -0.001336546275185636 0.0071912446655483155 0.0 0.0
0.0 0.06291661887455874 0.054333668637450025 -0.053051748299367776 -0.0012819203380822499 0.012968607586936872 0.0 0.0
0.0 0.05588721418521118 0.04784776855147639 -0.046631927166492795 -0.0012158413849836125 0.015294283038690482 0.0 0.0
0.0 0.04779743630873988 0.04075998733384667 -0.03961018366171634 -0.0011498036721303063 0.015310201231086076 0.0 0.0
0.0 0.0396445050932857 0.03378353595817139 -0.03269887187250006 -0.0010846640856713129 0.014053355374010808 0.0 0.0
0.0 0.03228195236221458 0.02734975266308571 -0.026330046734164454 -0.001019705928921248 0.01224029389869016 0.0 0.0
0.0 0.025598877668064225 0.02170541110925225 -0.020750757288046744 -0.0009546538212055068 0.010371386665003826 0.0 0.0
0.0 0.01993643499705597 0.01690363051001511 -0.016015633333968743 -0.0008879971760463683 0.008679075326931707 0.0 0.0
0.0 0.015162581752858562 0.012854641118962179 -0.012037811327792055 -0.0008168297911701236 0.0071650469936136284 0.0 0.0
0.0 0.01109581131852856 0.009407026216382616 -0.00867175162345243 -0.0007352745929301813 0.005735019281003662 0.0 0.0
0.0 0.007617253527068019 0.006439040930876764 -0.005805897178698104 -0.0006331437521786576 0.004303842809619261 0.0 0.0
0.0 0.004697800335769857 0.003914994783243871 -0.0034207526919848496 -0.000494242091259021 0.002877754461736883 0.0 0.0
0.0 0.002412780791531158 0.0019174104695416157 -0.0016085324388128695 -0.0003088780307287458 0.0015923764529275307 0.0 0.0
0.0 0.0008631793303700225 0.0006241269371334759 -0.0005037924709290368 -0.000120334466204439 0.0006364060493483674 0.0 0.0
0.0 0.00013650578175554917 8.722756324647089e-05 -6.927352239835408e-05 -1.795404084811684e-05 0.0001243272652340972 0.0 0.0
0.0 1.035722222266242e-05 -9.62951475913127e-07 7.420407585612027e-07 2.2091071735193387e-07 -1.7961155123846205e-06 0.0 0.0
0.0 0.0 0.0 0.0 0.0 0.0 0.0 0.0
0.0 0.0 0.0 0.0 0.0 0.0 0.0 0.0
0.0 0.0 0.0 0.0 0.0 0.0 0.0 0.0
0.0 0.0016403268919419917 0.0009708616340991023 -0.0012159077439451577 0.0002450461098460558 0.001390658057730649 0.0 0.0
0.0 0.0009432393018374528 0.0005219701387042326 -0.0006735157799319432 0.0001515456412277105 -0.0007816734861382002 0.0 0.0
0.0 0.0 0.0 0.0 0.0 0.0 0.0 0.0
0.0 0.0 0.0 0.0 0.0 0.0 0.0 0.0
0.0 0.0 0.0 0.0 0.0 0.0 0.0 0.0
0.0 3.7891737493083272e-06 9.19700737564415e-08 -8.58289081930318e-08 -6.1411655634139885e-09 -3.279135682476726e-07 0.0 0.0
0.0 7.26198376665674e-05 2.3704376766763047e-05 -1.883191725246684e-05 -4.872459514296252e-06 -4.989234094192718e-05 0.0 0.0
0.0 0.00041642388058601765 0.0002630851157702355 -0.00020997622614219434 -5.3108889628041116e-05 -0.0004112198750695131 0.0 0.0
0.0 0.0014553108785843648 0.00105756216645708 -0.0008661041970269613 -0.00019145796943011834 -0.0012395030286561756 0.0 0.0
0.0 0.0031996282279087595 0.002492655519703413 -0.0021214543194906163 -0.00037120120021279544 -0.002432437919429966 0.0 0.0
0.0 0.005470641460010447 0.004440019049550971 -0.00391309153167749 -0.0005269275178734794 -0.0038549008917359118 0.0 0.0
0.0 0.008188133039644947 0.006747150269912369 -0.006107340313536859 -0.000639809956375509 -0.005317097768616832 0.0 0.0
0.0 0.011349733927852518 0.009406250273400791 -0.008679497201805584 -0.0007267530715952069 -0.006742665881511133 0.0 0.0
0.0 0.015067442890004392 0.01250976211875187 -0.011712357311571886 -0.0007974048071799794 -0.008221519076761734 0.0 0.0
0.0 0.019429348953508035 0.016194863757543778 -0.015335355240214725 -0.0008595085173290457 -0.00985276724019169 0.0 0.0
0.0 0.02462588567181027 0.020563241675227405 -0.019647317982359035 -0.000915923692868358 -0.011635044342229516 0.0 0.0
0.0 0.030595705451924603 0.025627080975558523 -0.024654911870703358 -0.000972169104855156 -0.013380448095217788 0.0 0.0
0.0 0.03706639234880121 0.031248265644218183 -0.030222517184477132 -0.0010257484597410512 -0.014686901864470194 0.0 0.0
0.0 0.04379532876182349 0.03718100982859389 -0.036104283213076994 -0.0010767266155169 -0.014906853805664418 0.0 0.0
0.0 0.05029068898068961 0.04299884344293918 -0.041867958510889376 -0.0011308849320497913 -0.013031914225286139 0.0 0.0
0.0 0.05548436431407851 0.04784015505840809 -0.046654018899640076 -0.0011861361587680139 -0.007635678542778329 0.0 0.0
0.0 0.05548436431407381 0.047840155058403167 -0.046654018899635136 -0.0011861361587680234 0.007635678542803087 0.0 0.0
0.0 0.050290688980679926 0.04299884344292828 -0.04186795851087823 -0.0011308849320500471 0.013031914225320827 0.0 0.0
0.0 0.04379532876181194 0.03718100982858127 -0.03610428321306437 -0.0010767266155168873 0.014906853805689416 0.0 0.0
0.0 0.03706639234878587 0.031248265644203327 -0.03022251718446263 -0.0010257484597407027 0.01468690186447964 0.0 0.0
0.0 0.03059570545190524 0.02562708097554183 -0.024654911870687045 -0.0009721691048547768 0.013380448095212383 0.0 0.0
0.0 0.02462588567179049 0.020563241675210613 -0.01964731798234245 -0.0009159236928681604 0.01163504434222219 0.0 0.0
0.0 0.019429348953490428 0.016194863757528367 -0.01533535524019967 -0.0008595085173286979 0.009852767240187446 0.0 0.0
0.0 0.015067442889986977 0.01250976211873662 -0.011712357311557092 -0.0007974048071795255 0.00822151907675705 0.0 0.0
0.0 0.011349733927833172 0.009406250273384466 -0.008679497201789755 -0.0007267530715947078 0.006742665881501287 0.0 0.0
0.0 0.008188133039628637 0.006747150269899039 -0.006107340313524143 -0.0006398099563748933 0.005317097768605939 0.0 0.0
0.0 0.005470641459996828 0.004440019049540152 -0.00391309153166758 -0.0005269275178725714 0.0038549008917248117 0.0 0.0
0.0 0.00319962822789814 0.002492655519695074 -0.0021214543194830906 -0.00037120120021198234 0.002432437919423107 0.0 0.0
0.0 0.001455310878577544 0.0010575621664520394 -0.0008661041970227448 -0.00019145796942929486 0.001239503028651368 0.0 0.0
0.0 0.0004164238805819906 0.0002630851157677255 -0.00020997622614015213 -5.310888962757307e-05 0.000411219875066134 0.0 0.0
0.0 7.261983766526104e-05 2.3704376766549385e-05 -1.8831917252293207e-05 -4.872459514256111e-06 4.989234094145133e-05 0.0 0.0
0.0 3.7891737490495197e-06 9.197007392184009e-08 -8.582890832559457e-08 -6.141165596251656e-09 3.279135687265508e-07 0.0 0.0
0.0 0.0 0.0 0.0 0.0 0.0 0.0 0.0
0.0 0.0 0.0 0.0 0.0 0.0 0.0 0.0
0.0 0.0 0.0 0.0 0.0 0.0 0.0 0.0
0.0 0.0009432393018316477 0.0005219701387011691 -0.0006735157799282266 0.00015154564122705754 0.0007816734861334555 0.0 0.0
0.0 0.00044907772572159646 0.000217610891233494 -0.00029101944710602446 7.340855587253072e-05 -0.0003373024599968316 0.0 0.0
0.0 1.266647607192392e-07 -7.072771973675951e-10 8.507483974345466e-10 -1.4347120006705642e-10 2.5171596720899338e-08 0.0 0.0
0.0 0.0 0.0 0.0 0.0 0.0 0.0 0.0
0.0 8.207582701131014e-07 -2.8629602963193296e-08 2.0611171608269537e-08 8.01843135492593e-09 1.6408845930727455e-07 0.0 0.0
0.0 2.941446764786285e-06 -1.3952363807393717e-07 1.0592787567314353e-07 3.3595762400780106e-08 5.885360677433528e-07 0.0 0.0
0.0 4.159701561093575e-05 1.0338237875652381e-05 -8.106142718740084e-06 -2.232095156912293e-06 -3.236108094427027e-05 0.0 0.0
0.0 0.00019206006770885442 8.696722502239365e-05 -6.907106310736592e-05 -1.7896161915027724e-05 -0.00022578104450903476 0.0 0.0
0.0 0.0007045124679191432 0.0004251481618626941 -0.0003404204620300135 -8.472769983268057e-05 -0.0007896325255660252 0.0 0.0
0.0 0.0018440186184660928 0.001251195676415222 -0.0010316732802809864 -0.00021952239613423516 -0.0017628849476579327 0.0 0.0
0.0 0.0033777110122442124 0.002556435937569001 -0.0021807759671751436 -0.00037565997039385693 -0.0030209688458352956 0.0 0.0
0.0 0.00542178977282848 0.004174888206540641 -0.003672224138811432 -0.0005026640677292073 -0.00438038595976784 0.0 0.0
0.0 0.007655326200500163 0.006053308475515457 -0.005452590564109958 -0.0006007179114054981 -0.005738963583965078 0.0 0.0
0.0 0.010283146634039926 0.008232939625156411 -0.007554427511874122 -0.0006785121132822847 -0.007123169778710069 0.0 0.0
0.0 0.013423662616037835 0.010819048489949174 -0.010077407075524708 -0.0007416414144244619 -0.008594070720913215 0.0 0.0
0.0 0.017219377266146585 0.013917405650308483 -0.013122429688757594 -0.0007949759615508885 -0.01017553021628591 0.0 0.0
0.0 0.0216021532896047 0.017589239160914198 -0.01674694880926854 -0.0008422903516456595 -0.011752027423037794 0.0 0.0
0.0 0.026584323077095167 0.021802494997978126 -0.020914640973583837 -0.0008878540243942903 -0.012974496731256672 0.0 0.0
0.0 0.031821446903083875 0.026470961220237805 -0.025545602237839467 -0.0009253589823983228 -0.013388269385356134 0.0 0.0
0.0 0.037251473015064665 0.03147943092608138 -0.03051950267374346 -0.0009599282523379061 -0.012252399889054669 0.0 0.0
0.0 0.04231028435585297 0.036308793294704156 -0.0352946575549348 -0.0010141357397693478 -0.007856519730085 0.0 0.0
0.0 0.04231028435585345 0.036308793294703406 -0.035294657554934106 -0.0010141357397692886 0.007856519730106017 0.0 0.0
0.0 0.037251473015061126 0.031479430926075413 -0.030519502673737414 -0.000959928252338003 0.012252399889084966 0.0 0.0
0.0 0.03182144690307584 0.026470961220227993 -0.02554560223783002 -0.0009253589823979796 0.013388269385377502 0.0 0.0
0.0 0.02658432307708545 0.021802494997968234 -0.020914640973574587 -0.0008878540243936488 0.012974496731263887 0.0 0.0
0.0 0.02160215328959083 0.017589239160902534 -0.016746948809257395 -0.0008422903516451313 0.011752027423032333 0.0 0.0
0.0 0.017219377266132416 0.013917405650296751 -0.013122429688746377 -0.0007949759615503706 0.010175530216279139 0.0 0.0
0.0 0.013423662616025584 0.01081904848993869 -0.010077407075514523 -0.0007416414144241692 0.008594070720909525 0.0 0.0
0.0 0.010283146634028998 0.008232939625146745 -0.007554427511864899 -0.0006785121132818429 0.007123169778707167 0.0 0.0
0.0 0.007655326200487473 0.006053308475505135 -0.005452590564100221 -0.0006007179114049145 0.005738963583956935 0.0 0.0
0.0 0.005421789772815709 0.004174888206530569 -0.0036722241388021403 -0.000502664067728428 0.004380385959758178 0.0 0.0
0.0 0.0033777110122318633 0.0025564359375600003 -0.00218077596716697 -0.00037565997039302914 0.0030209688458242906 0.0 0.0
0.0 0.0018440186184585311 0.0012511956764096836 -0.0010316732802762556 -0.00021952239613342816 0.0017628849476518228 0.0 0.0
0.0 0.0007045124679150735 0.0004251481618601071 -0.00034042046202789996 -8.472769983220703e-05 0.000789632525562083 0.0 0.0
0.0 0.000192060067707644 8.696722502218838e-05 -6.907106310720012e-05 -1.7896161914988303e-05 0.00022578104450843783 0.0 0.0
0.0 4.159701560998805e-05 1.033823787556949e-05 -8.106142718674864e-06 -2.2320951568946065e-06 3.2361080944001356e-05 0.0 0.0
0.0 2.9414467642801842e-06 -1.3952363805020315e-07 1.0592787565476392e-07 3.359576239544616e-08 -5.885360676368125e-07 0.0 0.0
0.0 8.207582698625885e-07 -2.862960295409627e-08 2.0611171601706672e-08 8.01843135238675e-09 -1.6408845925501981e-07 0.0 0.0
0.0 0.0 0.0 0.0 0.0 0.0 0.0 0.0
0.0 1.2666476022059354e-07 -7.072771946710994e-10 8.50748394078545e-10 -1.4347119940746084e-10 -2.5171596621278046e-08 0.0 0.0
0.0 0.0004490777257176242 0.0002176108912317918 -0.00029101944710385486 7.340855587206324e-05 0.00033730245999417317 0.0 0.0
0.0 0.00013333816029318274 6.220736958364648e-05 -8.735701015160754e-05 2.514964056796109e-05 -0.00010094325549695054 0.0 0.0
0.0 1.8030073051673429e-06 -4.177191184509683e-09 1.0378638774830307e-08 -6.201447590320216e-09 3.8291760625588695e-07 0.0 0.0
0.0 8.129603515550081e-07 -9.729788138728575e-10 -5.062304710215263e-10 1.479209284894036e-09 1.6676851108718092e-07 0.0 0.0
0.0 1.3942118126280809e-06 -1.7202479833820512e-08 1.1633862331670308e-08 5.568617502153395e-09 2.882879494068393e-07 0.0 0.0
0.0 3.3549843812339556e-06 3.1211038475141034e-09 1.1329341325302555e-09 -4.254037980048553e-09 1.688590039297521e-07 0.0 0.0
0.0 3.3630852572509866e-05 4.125100310577817e-06 -3.2758148469817814e-06 -8.492854635960398e-07 -2.383065017177393e-05 0.0 0.0
0.0 0.00012958169133429106 3.3801317046405965e-05 -2.6853530610896985e-05 -6.947786435508952e-06 -0.00015868443589618227 0.0 0.0
0.0 0.0003085944753382723 0.00012102758938103754 -9.609316130881319e-05 -2.4934428072224293e-05 -0.00045223873716705303 0.0 0.0
0.0 0.0007754785095351325 0.0003711653609797155 -0.00029647021073026105 -7.469515024945439e-05 -0.000996580595225892 0.0 0.0
0.0 0.0016025934943615964 0.000944480709496607 -0.0007703967392648603 -0.0001740839702317467 -0.0018864975828572425 0.0 0.0
0.0 0.0027357934669156765 0.0018177439567535546 -0.0015251656404085055 -0.0002925783163450483 -0.0029699244692903354 0.0 0.0
0.0 0.00417205024416217 0.0028817128425295733 -0.0024850765744072285 -0.00039663626812234433 -0.004122976520565687 0.0 0.0
0.0 0.00581021178698109 0.004143709785747289 -0.003656790090547782 -0.00048691969519950483 -0.005354005979302608 0.0 0.0
0.0 0.007760882363441746 0.005656376260100895 -0.0050942895564734785 -0.0005620867036274156 -0.006626136880907385 0.0 0.0
0.0 0.01010431640601922 0.0074983938912089 -0.006875850887515907 -0.0006225430036929949 -0.007949084446434747 0.0 0.0
0.0 0.012919596307125584 0.009760236475141881 -0.009089715071396717 -0.0006705214037451683 -0.009281329397607898 0.0 0.0
0.0 0.01628643429883385 0.012519435970611548 -0.011808333939879411 -0.0007111020307321414 -0.010413538712252422 0.0 0.0
0.0 0.020104911770724324 0.01582930424344078 -0.015080497344916854 -0.0007488068985239346 -0.010900629629490226 0.0 0.0
0.0 0.024470023358875458 0.019782406893128567 -0.019020540284547853 -0.0007618666085807145 -0.01044423518805206 0.0 0.0
0.0 0.02924240003525954 0.02443266680273263 -0.023630374422035774 -0.0008022923806968633 -0.007692014621122347 0.0 0.0
0.0 0.029242400035258673 0.024432666802730624 -0.023630374422033702 -0.0008022923806969352 0.007692014621139083 0.0 0.0
0.0 0.024470023358874042 0.019782406893124375 -0.019020540284543648 -0.0007618666085807212 0.010444235188077335 0.0 0.0
0.0 0.02010491177071821 0.015829304243432773 -0.015080497344908923 -0.0007488068985238477 0.010900629629507186 0.0 0.0
0.0 0.016286434298825373 0.012519435970603721 -0.011808333939871633 -0.0007111020307320865 0.010413538712254216 0.0 0.0
0.0 0.012919596307115071 0.00976023647513406 -0.009089715071389108 -0.0006705214037449508 0.009281329397601025 0.0 0.0
0.0 0.01010431640600968 0.0074983938912017425 -0.00687585088750907 -0.0006225430036926709 0.00794908444642812 0.0 0.0
0.0 0.007760882363434727 0.005656376260095209 -0.0050942895564680775 -0.0005620867036271317 0.006626136880903773 0.0 0.0
0.0 0.005810211786976607 0.004143709785743338 -0.003656790090544165 -0.0004869196951991748 0.005354005979300974 0.0 0.0
0.0 0.004172050244155103 0.002881712842524456 -0.002485076574402818 -0.0003966362681216386 0.004122976520559908 0.0 0.0
0.0 0.002735793466907807 0.0018177439567482962 -0.0015251656404039068 -0.00029257831634438823 0.0029699244692826332 0.0 0.0
0.0 0.0016025934943550307 0.0009444807094929229 -0.0007703967392617185 -0.00017408397023120411 0.0018864975828498192 0.0 0.0
0.0 0.0007754785095323473 0.0003711653609781475 -0.00029647021072899573 -7.469515024915172e-05 0.0009965805952227677 0.0 0.0
0.0 0.00030859447533639186 0.00012102758938040462 -9.609316130830816e-05 -2.4934428072096405e-05 0.0004522387371649923 0.0 0.0
0.0 0.00012958169133322404 3.380131704629367e-05 -2.6853530610809714e-05 -6.947786435483934e-06 0.00015868443589560433 0.0 0.0
0.0 3.363085257194018e-05 4.125100310571925e-06 -3.2758148469758488e-06 -8.492854635960651e-07 2.3830650171762553e-05 0.0 0.0
0.0 3.3549843809482277e-06 3.1211039167773904e-09 1.1329340818540146e-09 -4.254037998633231e-09 -1.688590034347597e-07 0.0 0.0
0.0 1.3942118121365584e-06 -1.7202479827439693e-08 1.1633862327329383e-08 5.568617500112952e-09 -2.8828794930130727e-07 0.0 0.0
0.0 8.12960351106587e-07 -9.729788137991681e-10 -5.062304704954294e-10 1.479209284295063e-09 -1.667685109932312e-07 0.0 0.0
0.0 1.8030073045943297e-06 -4.1771911826671024e-09 1.0378638770354691e-08 -6.201447587687759e-09 -3.8291760613307903e-07 0.0 0.0
0.0 0.00013333816029133377 6.220736958318163e-05 -8.735701015095661e-05 2.514964056777493e-05 0.00010094325549632692 0.0 0.0
0.0 1.9275386503139722e-05 5.8275043518606786e-06 -8.45670577239728e-06 2.629201420536608e-06 -1.0277058828947624e-05 0.0 0.0
0.0 2.3409661729961703e-06 6.496376963596438e-10 1.3091562580591183e-08 -1.3741200276949575e-08 4.872012716183131e-07 0.0 0.0
0.0 8.28283976103979e-07 8.757322001854407e-09 -7.994197467743662e-09 -7.631245341108108e-10 1.6872916499049268e-07 0.0 0.0
0.0 1.0341171999299922e-06 3.4830124123105497e-09 -4.631541757330647e-09 1.1485293450206947e-09 2.129476539670559e-07 0.0 0.0
0.0 5.455561020512527e-06 -1.877319191668789e-08 9.400339741409076e-09 9.372852175272426e-09 1.2338249442580408e-06 0.0 0.0
0.0 2.970903594848482e-05 1.3253329314907927e-06 -1.027817162044086e-06 -2.975157694466961e-07 -2.6273120014098862e-05 0.0 0.0
0.0 0.00010562690351238198 1.035873037753221e-05 -8.198732950106378e-06 -2.159997427425833e-06 -0.00015343621145228142 0.0 0.0
0.0 0.0002547330258090995 2.978783024576708e-05 -2.3638301766889837e-05 -6.149528478877209e-06 -0.0003489478809838096 0.0 0.0
0.0 0.00042602355287324034 7.032100736557995e-05 -5.601906840507457e-05 -1.4301938960505421e-05 -0.0006608576650600014 0.0 0.0
0.0 0.0007338233603754421 0.00013929880057272025 -0.0001116689058705358 -2.762989470218447e-05 -0.0010835154721234286 0.0 0.0
0.0 0.0010477082172992193 0.0002642533786143296 -0.00021240909539786332 -5.1844283216466406e-05 -0.001719693505426106 0.0 0.0
0.0 0.0015831130852028514 0.00047287714610686415 -0.0003794743130502894 -9.340283305657461e-05 -0.002498637313630975 0.0 0.0
0.0 0.0022683854139700045 0.0007684949537892847 -0.0006189670873523196 -0.00014952786643696514 -0.0034340460601395856 0.0 0.0
0.0 0.0031351079744236913 0.001146570482568817 -0.0009331771929048789 -0.00021339328966393784 -0.004535741664382026 0.0 0.0
0.0 0.0042166450069917065 0.0016873313785530715 -0.001409521096366377 -0.00027781028218669466 -0.005826239142486749 0.0 0.0
0.0 0.0056242152320979556 0.0024901327159212697 -0.0021527703999829726 -0.00033736231593829523 -0.0072078379192128715 0.0 0.0
0.0 0.007385058872359141 0.0037271932898260505 -0.003337117280211836 -0.00039007600961421247 -0.00843540137057272 0.0 0.0
0.0 0.009593229955287 0.005618696568836591 -0.005170585463108542 -0.0004481111057280471 -0.009031237490427436 0.0 0.0
0.0 0.01240034770151029 0.008299342635262346 -0.007797195848529907 -0.0005021467867324396 -0.008614252494160795 0.0 0.0
0.0 0.016361899722810932 0.012232419656069651 -0.0117463409463848 -0.0004860787096848498 -0.00730359190522352 0.0 0.0
0.0 0.016361899722812066 0.012232419656069566 -0.011746340946384716 -0.00048607870968484684 0.007303591905234797 0.0 0.0
0.0 0.012400347701512441 0.008299342635261255 -0.007797195848529054 -0.0005021467867321955 0.008614252494179329 0.0 0.0
0.0 0.009593229955284503 0.005618696568832554 -0.005170585463104575 -0.00044811110572797646 0.009031237490437534 0.0 0.0
0.0 0.007385058872354244 0.003727193289822588 -0.0033371172802085665 -0.0003900760096140193 0.008435401370571576 0.0 0.0
0.0 0.005624215232094454 0.002490132715920041 -0.002152770399981792 -0.00033736231593824785 0.007207837919207296 0.0 0.0
0.0 0.0042166450069868995 0.0016873313785505484 -0.0014095210963641063 -0.0002778102821864415 0.0058262391424817785 0.0 0.0
0.0 0.0031351079744202414 0.001146570482567434 -0.0009331771929036556 -0.00021339328966377846 0.0045357416643777085 0.0 0.0
0.0 0.002268385413967685 0.0007684949537886972 -0.0006189670873518971 -0.00014952786643679963 0.0034340460601361956 0.0 0.0
0.0 0.0015831130851994585 0.00047287714610601733 -0.0003794743130495769 -9.34028330564403e-05 0.002498637313625608 0.0 0.0
0.0 0.001047708217296162 0.0002642533786135985 -0.00021240909539724915 -5.1844283216349394e-05 0.001719693505420759 0.0 0.0
0.0 0.0007338233603722963 0.00013929880057230668 -0.0001116689058701671 -2.7629894702139554e-05 0.0010835154721190446 0.0 0.0
0.0 0.00042602355287219983 7.03210073654411e-05 -5.601906840498866e-05 -1.4301938960452372e-05 0.0006608576650583663 0.0 0.0
0.0 0.00025473302580797104 2.9787830245618638e-05 -2.3638301766768447e-05 -6.149528478850181e-06 0.0003489478809821676 0.0 0.0
0.0 0.00010562690351147359 1.0358730377472478e-05 -8.198732950054574e-06 -2.1599974274178923e-06 0.00015343621145131478 0.0 0.0
0.0 2.970903594792184e-05 1.325332931488702e-06 -1.0278171620417404e-06 -2.9751576944696567e-07 2.6273120014032882e-05 0.0 0.0
0.0 5.4555610200182124e-06 -1.87731919147807e-08 9.400339740515117e-09 9.372852174262189e-09 -1.2338249441362645e-06 0.0 0.0
0.0 1.0341171994111593e-06 3.4830124097744975e-09 -4.63154175459075e-09 1.1485293448161685e-09 -2.1294765385734702e-07 0.0 0.0
0.0 8.282839756553083e-07 8.757321996808003e-09 -7.99419746324245e-09 -7.631245335657651e-10 -1.687291648967851e-07 0.0 0.0
0.0 2.340966172321822e-06 6.496376968874008e-10 1.3091562575233056e-08 -1.3741200272117913e-08 -4.87201271473837e-07 0.0 0.0
0.0 1.927538650251953e-05 5.827504351891292e-06 -8.456705772443148e-06 2.629201420551807e-06 1.0277058829032728e-05 0.0 0.0
0.0 1.746363269014452e-06 -1.080716133846742e-07 1.601080298073669e-07 -5.203641642269867e-08 2.3480853834527648e-07 0.0 0.0
0.0 1.9028631458580495e-06 6.795419448546787e-09 4.3792250009357676e-09 -1.1174644449477697e-08 4.0529838982822875e-07 0.0 0.0
0.0 1.006612653282911e-06 1.8800037151531995e-08 -1.6160969127413305e-08 -2.6390680241173787e-09 2.0557945423080885e-07 0.0 0.0
0.0 1.3830639415008088e-06 2.5459537940910303e-08 -2.257136934973081e-08 -2.8881685911793595e-09 2.8364822182210734e-07 0.0 0.0
0.0 6.3627943803688784e-06 1.1816366147408856e-07 -9.66745050447981e-08 -2.148915642928106e-08 1.3935454269650955e-06 0.0 0.0
0.0 3.354805666763472e-05 -1.6257876720500613e-06 1.3378795841198467e-06 2.879080879302086e-07 -2.487442709052719e-05 0.0 0.0
0.0 0.00010762743373290345 -1.0946437828074294e-05 8.764152363451243e-06 2.1822854646230334e-06 -0.0001543798815998676 0.0 0.0
0.0 0.0002550991346741248 -2.978417902081871e-05 2.3631865938764926e-05 6.152313082053725e-06 -0.00034940685117903494 0.0 0.0
0.0 0.00042565573235836415 -7.001741892549864e-05 5.575462122703885e-05 1.4262797698459782e-05 -0.000660870411369633 0.0 0.0
0.0 0.0007320289429795645 -0.0001386814806963405 0.00011109184776834122 2.7589632927999324e-05 -0.0010813286662046256 0.0 0.0
0.0 0.0010506250921677332 -0.0002589615420479118 0.00020887965300593332 5.008188904197844e-05 -0.001714301055805777 0.0 0.0
0.0 0.0015856951426472586 -0.00047613395693723665 0.0003826783432610318 9.345561367620479e-05 -0.0024996210427848803 0.0 0.0
0.0 0.0022779018188695634 -0.0007810761104400279 0.0006302914563128727 0.00015078465412715492 -0.0034366087400393547 0.0 0.0
0.0 0.003150983703948597 -0.0011689771521675044 0.0009517061700871031 0.00021727098208040106 -0.004541473904755161 0.0 0.0
0.0 0.004199615973989192 -0.0016628112259709578 0.0013767117808292663 0.0002860994451416904 -0.00583273269740255 0.0 0.0
0.0 0.005377716163206502 -0.0021304465767090905 0.0017794559891251673 0.00035099058758392116 -0.007261198099886939 0.0 0.0
0.0 0.0064391682671823824 -0.0023250466461502617 0.0019241394838106036 0.0004009071623396565 -0.008818691481454196 0.0 0.0
0.0 0.007217161312912561 -0.0019647531640166675 0.0015280851741626864 0.00043666798985398053 -0.010493291355272393 0.0 0.0
0.0 0.007551476157006039 -0.001008291413878394 0.0006733129958234442 0.00033497841805494883 -0.011842388116742864 0.0 0.0
0.0 0.0070886289980967 0.0016454936818060184 -0.0017357370190602688 9.024333725425019e-05 -0.010380314628589241 0.0 0.0
0.0 0.0070886289981000735 0.0016454936818059065 -0.0017357370190602514 9.024333725434451e-05 0.010380314628597707 0.0 0.0
0.0 0.00755147615700971 -0.0010082914138787708 0.0006733129958237968 0.000334978418054973 0.01184238811675127 0.0 0.0
0.0 0.007217161312912866 -0.001964753164017421 0.0015280851741637865 0.0004366679898536337 0.010493291355272771 0.0 0.0
0.0 0.006439168267178117 -0.0023250466461480837 0.001924139483808953 0.0004009071623391307 0.008818691481450773 0.0 0.0
0.0 0.005377716163199044 -0.0021304465767047025 0.001779455989121046 0.00035099058758365667 0.00726119809987958 0.0 0.0
0.0 0.004199615973983336 -0.0016628112259678392 0.0013767117808265099 0.0002860994451413286 0.005832732697396713 0.0 0.0
0.0 0.0031509837039433676 -0.0011689771521648917 0.0009517061700849748 0.00021727098207991697 0.004541473904749899 0.0 0.0
0.0 0.0022779018188659973 -0.0007810761104378301 0.0006302914563111304 0.00015078465412669955 0.003436608740035589 0.0 0.0
0.0 0.0015856951426424896 -0.0004761339569348959 0.0003826783432591569 9.345561367573897e-05 0.0024996210427790004 0.0 0.0
0.0 0.0010506250921637284 -0.0002589615420464133 0.00020887965300473392 5.008188904167932e-05 0.001714301055800031 0.0 0.0
0.0 0.0007320289429754418 -0.0001386814806954662 0.00011109184776758278 2.7589632927883365e-05 0.0010813286661995407 0.0 0.0
0.0 0.0004256557323570022 -7.001741892513468e-05 5.5754621226731e-05 1.4262797698403676e-05 0.0006608704113678928 0.0 0.0
0.0 0.00025509913467303136 -2.9784179020637132e-05 2.363186593861217e-05 6.15231308202495e-06 0.0003494068511777096 0.0 0.0
0.0 0.00010762743373188013 -1.0946437827993377e-05 8.76415236340202e-06 2.1822854645913468e-06 0.00015437988159870892 0.0 0.0
0.0 3.354805666684449e-05 -1.6257876720326342e-06 1.3378795841083607e-06 2.879080879242847e-07 2.4874427090275187e-05 0.0 0.0
0.0 6.362794379949415e-06 1.1816366144561371e-07 -9.66745050177951e-08 -2.1489156427822476e-08 -1.3935454264724196e-06 0.0 0.0
0.0 1.38306394101384e-06 2.5459537931086613e-08 -2.257136934122153e-08 -2.8881685898646692e-09 -2.8364822171881803e-07 0.0 0.0
0.0 1.0066126526757192e-06 1.8800037139368483e-08 -1.616096911716342e-08 -2.639068022204588e-09 -2.0557945410441137e-07 0.0 0.0
0.0 1.9028631450714174e-06 6.795419446720134e-09 4.37922499599115e-09 -1.1174644442706392e-08 -4.052983896639658e-07 0.0 0.0
0.0 1.7463632684856744e-06 -1.0807161335057875e-07 1.601080297566021e-07 -5.2036416406020456e-08 -2.3480853827189452e-07 0.0 0.0
0.0 0.0 0.0 0.0 0.0 0.0 0.0 0.0
0.0 3.3206270015814023e-07 3.228124362425176e-09 -1.4545472289870203e-09 -1.773577133437446e-09 6.641880132428198e-08 0.0 0.0
0.0 1.1503952322470682e-06 2.577833775557556e-08 -2.1660604956724763e-08 -4.117732798851813e-09 2.0671464496177387e-07 0.0 0.0
0.0 4.433390297608247e-06 1.6015753021184142e-07 -1.3149237797340506e-07 -2.8665152238422848e-08 9.6169292488308e-07 0.0 0.0
0.0 7.433403502171991e-06 -2.191440583380151e-07 2.116926018717314e-07 7.451456466291543e-09 -1.823903988267061e-06 0.0 0.0
0.0 4.052496989038786e-05 -7.270847750361567e-06 5.767847552799426e-06 1.503000197562103e-06 -3.765015850684198e-05 0.0 0.0
0.0 0.0001372563362144327 -3.481829577116764e-05 2.7766137023571026e-05 7.05215874759662e-06 -0.0001616463456353767 0.0 0.0
0.0 0.0003101311631067477 -0.0001212814254293813 9.62995696599406e-05 2.4981855769440686e-05 -0.00045344939691659776 0.0 0.0
0.0 0.0007729864576968608 -0.00037033765050818187 0.00029573813248796004 7.45995180202218e-05 -0.0009954275705639165 0.0 0.0
0.0 0.0015996647525636908 -0.0009429467942113133 0.0007690826704087008 0.00017386412380261234 -0.0018847509911806442 0.0 0.0
0.0 0.002735379201031886 -0.0018177175650630317 0.0015253801057629223 0.00029233745930010906 -0.0029698667851298277 0.0 0.0
0.0 0.004177986378437778 -0.002888284251308211 0.002491878705288675 0.0003964055460195361 -0.004122679198652292 0.0 0.0
0.0 0.005829821995082874 -0.0041655533631213435 0.003678760837984225 0.0004867925251371164 -0.005345628141465042 0.0 0.0
0.0 0.0077959862124194436 -0.005692976049695061 0.0051284538243902035 0.0005645222253048581 -0.006613481248802596 0.0 0.0
0.0 0.010093614833271012 -0.00747161927932575 0.006838477806416338 0.0006331414729094098 -0.007995131860439894 0.0 0.0
0.0 0.012597272974408144 -0.009367477451638174 0.008673402121923916 0.0006940753297142569 -0.00958401566865603 0.0 0.0
0.0 0.015004813757720895 -0.011049632824383962 0.01030062838541002 0.0007490044389739444 -0.011421765644558901 0.0 0.0
0.0 0.016723175639223067 -0.012003506474689968 0.0112094717575937 0.0007940347170962714 -0.013400389132234408 0.0 0.0
0.0 0.016384943434210514 -0.01129048868672794 0.01040862436623425 0.0008818643204936863 -0.014179841084791929 0.0 0.0
0.0 0.012224395069004112 -0.007301579140973273 0.006394776972424388 0.0009068021685488835 -0.011679984765563287 0.0 0.0
0.0 0.012224395069008392 -0.007301579140973629 0.006394776972424613 0.0009068021685490163 0.011679984765577075 0.0 0.0
0.0 0.016384943434214642 -0.011290488686727256 0.010408624366233578 0.0008818643204936743 0.014179841084811903 0.0 0.0
0.0 0.016723175639221353 -0.012003506474685914 0.011209471757589858 0.0007940347170960539 0.013400389132246768 0.0 0.0
0.0 0.015004813757712062 -0.011049632824376217 0.010300628385402617 0.0007490044389736007 0.01142176564455746 0.0 0.0
0.0 0.012597272974397326 -0.009367477451629575 0.008673402121915759 0.0006940753297138154 0.00958401566864865 0.0 0.0
0.0 0.010093614833261624 -0.007471619279318298 0.006838477806409197 0.0006331414729091002 0.007995131860433881 0.0 0.0
0.0 0.007795986212409762 -0.005692976049687384 0.00512845382438299 0.0005645222253043944 0.006613481248796828 0.0 0.0
0.0 0.005829821995070972 -0.004165553363111249 0.0036787608379746026 0.0004867925251366435 0.0053456281414593215 0.0 0.0
0.0 0.004177986378424714 -0.002888284251298576 0.002491878705279686 0.00039640554601888946 0.004122679198642513 0.0 0.0
0.0 0.0027353792010206294 -0.0018177175650552252 0.0015253801057560127 0.00029233745929921264 0.0029698667851201233 0.0 0.0
0.0 0.0015996647525546382 -0.0009429467942054981 0.0007690826704038042 0.00017386412380169353 0.0018847509911717897 0.0 0.0
0.0 0.000772986457692572 -0.0003703376505055547 0.00029573813248579824 7.45995180197563e-05 0.000995427570559262 0.0 0.0
0.0 0.0003101311631051779 -0.00012128142542873558 9.629956965942599e-05 2.4981855769309606e-05 0.0004534493969149374 0.0 0.0
0.0 0.00013725633621279978 -3.481829577091861e-05 2.7766137023376144e-05 7.052158747542407e-06 0.00016164634563430155 0.0 0.0
0.0 4.052496988971462e-05 -7.270847750339635e-06 5.7678475527826455e-06 1.5030001975569913e-06 3.7650158506743e-05 0.0 0.0
0.0 7.4334035017993015e-06 -2.1914405839767815e-07 2.1169260192273564e-07 7.451456474925674e-09 1.823903988661559e-06 0.0 0.0
0.0 4.433390297146278e-06 1.6015753019507324e-07 -1.3149237795953612e-07 -2.8665152235533242e-08 -9.61692924777465e-07 0.0 0.0
0.0 1.1503952319840043e-06 2.577833768830982e-08 -2.166060490233811e-08 -4.117732785971813e-09 -2.0671464447590495e-07 0.0 0.0
0.0 3.3206269971330245e-07 3.2281243589135146e-09 -1.4545472286881782e-09 -1.7735771302251563e-09 -6.64188012348373e-08 0.0 0.0
0.0 0.0 0.0 0.0 0.0 0.0 0.0 0.0
0.0 0.0 0.0 0.0 0.0 0.0 0.0 0.0
0.0 3.514827227909665e-07 4.949457227588909e-09 -3.035179226646225e-09 -1.914278000941817e-09 7.106311338534543e-08 0.0 0.0
0.0 2.3595770756542535e-06 8.103527067074457e-08 -6.628456757845172e-08 -1.4750703092293867e-08 4.821090557083344e-07 0.0 0.0
0.0 6.5906872819304125e-06 3.108815427979235e-07 -2.5702362177301864e-07 -5.385792102489637e-08 1.4093816020137892e-06 0.0 0.0
0.0 1.2052705841180469e-05 -1.5441256819221341e-06 1.2150324096785004e-06 3.2909327224364294e-07 -5.113789898067593e-06 0.0 0.0
0.0 5.5741187518407886e-05 -1.4983500209157208e-05 1.202629766382745e-05 2.9572025453297424e-06 -4.7352563583730374e-05 0.0 0.0
0.0 0.00020442805285388898 -9.064856114672778e-05 7.207897920185992e-05 1.8569581944867872e-05 -0.00023325754118360184 0.0 0.0
0.0 0.0007062525268110133 -0.000425551696514072 0.00034078162174322447 8.47700747708476e-05 -0.000790923008118582 0.0 0.0
0.0 0.0018391584589220102 -0.001248700537429719 0.0010294107042067126 0.00021928983322300603 -0.0017593703883583569 0.0 0.0
0.0 0.0033749382458090147 -0.002555184193487166 0.002179585319371997 0.0003755988741151676 -0.0030189138509029187 0.0 0.0
0.0 0.00542254588164575 -0.004175822592623746 0.00367326160767138 0.0005025609849523679 -0.004380561583134958 0.0 0.0
0.0 0.007659501290663204 -0.006057980277858708 0.005457756851160046 0.0006002234266986614 -0.005734425570615101 0.0 0.0
0.0 0.010292289570156866 -0.008248635903644067 0.007571033846362602 0.0006776020572814628 -0.007092138722503162 0.0 0.0
0.0 0.013439558475487997 -0.010849000242613463 0.010106221007726634 0.00074277923488683 -0.008525828202826808 0.0 0.0
0.0 0.01720506174021921 -0.0139037228845902 0.013100016022469291 0.0008037068621209084 -0.010180823609206925 0.0 0.0
0.0 0.02137302989437817 -0.017281064149879267 0.016416649715799456 0.0008644144340798079 -0.012262778648674576 0.0 0.0
0.0 0.025622991882092567 -0.020568220571777828 0.01964229918242695 0.00092592138935087 -0.014939859735653132 0.0 0.0
0.0 0.028725942215118552 -0.022938763187508055 0.02193325078577 0.0010055124017380557 -0.017786207322421112 0.0 0.0
0.0 0.029093829131666447 -0.02287171697242172 0.02176668658346542 0.0011050303889563009 -0.01921787046577426 0.0 0.0
0.0 0.02303495728818898 -0.017860225580332307 0.016596380057761557 0.0012638455225707445 -0.015861584270467577 0.0 0.0
0.0 0.023034957288194734 -0.017860225580333643 0.016596380057762466 0.0012638455225711764 0.015861584270487835 0.0 0.0
0.0 0.029093829131669684 -0.022871716972419687 0.021766686583463354 0.0011050303889563193 0.019217870465800396 0.0 0.0
0.0 0.0287259422151131 -0.02293876318750016 0.021933250785762436 0.0010055124017377126 0.017786207322437363 0.0 0.0
0.0 0.025622991882077832 -0.020568220571764374 0.019642299182413732 0.0009259213893506413 0.014939859735654192 0.0 0.0
0.0 0.021373029894360403 -0.01728106414986435 0.016416649715784756 0.0008644144340795923 0.012262778648667337 0.0 0.0
0.0 0.01720506174020213 -0.013903722884575993 0.013100016022455249 0.0008037068621207361 0.010180823609199328 0.0 0.0
0.0 0.013439558475472067 -0.010849000242600224 0.010106221007713884 0.0007427792348863382 0.008525828202818603 0.0 0.0
0.0 0.010292289570140091 -0.008248635903629689 0.0075710338463487814 0.0006776020572809044 0.007092138722496048 0.0 0.0
0.0 0.007659501290646067 -0.006057980277844577 0.005457756851146666 0.0006002234266979081 0.005734425570605309 0.0 0.0
0.0 0.005422545881629005 -0.00417582259261051 0.0036732616076589585 0.0005025609849515502 0.004380561583122621 0.0 0.0
0.0 0.0033749382457950554 -0.0025551841934767492 0.002179585319362426 0.00037559887411432323 0.0030189138508915376 0.0 0.0
0.0 0.0018391584589139052 -0.0012487005374235143 0.0010294107042013423 0.00021928983322217242 0.0017593703883521583 0.0 0.0
0.0 0.0007062525268074377 -0.0004255516965118259 0.0003407816217414413 8.477007477038468e-05 0.0007909230081155996 0.0 0.0
0.0 0.00020442805285167918 -9.064856114610575e-05 7.207897920136356e-05 1.856958194474216e-05 0.00023325754118211969 0.0 0.0
0.0 5.574118751713159e-05 -1.4983500209135323e-05 1.2026297663810545e-05 2.957202545324735e-06 4.7352563583656445e-05 0.0 0.0
0.0 1.2052705840798787e-05 -1.5441256819888875e-06 1.2150324097316693e-06 3.2909327225717514e-07 5.113789898314212e-06 0.0 0.0
0.0 6.590687281374371e-06 3.1088154276881837e-07 -2.570236217490074e-07 -5.385792101982278e-08 -1.4093816018841068e-06 0.0 0.0
0.0 2.3595770750547986e-06 8.103527064889636e-08 -6.628456756069521e-08 -1.4750703088195763e-08 -4.821090555798598e-07 0.0 0.0
0.0 3.5148272258278746e-07 4.949457224581214e-09 -3.0351792247973143e-09 -1.914277999783761e-09 -7.106311334223886e-08 0.0 0.0
0.0 0.0 0.0 0.0 0.0 0.0 0.0 0.0
0.0 0.0 0.0 0.0 0.0 0.0 0.0 0.0
0.0 0.0 0.0 0.0 0.0 0.0 0.0 0.0
0.0 1.762862297087584e-06 7.425115861487428e-08 -6.029149643128876e-08 -1.3959662183589334e-08 3.448992119798501e-07 0.0 0.0
0.0 4.674674164198031e-06 2.3469147562187666e-07 -1.863780951144723e-07 -4.8313380507408456e-08 7.530122124232003e-07 0.0 0.0
0.0 1.764729333525689e-05 -1.8613051191026946e-06 1.54446064690111e-06 3.168444722016163e-07 -4.981843324616369e-06 0.0 0.0
0.0 8.555407367806448e-05 -3.5732262177454e-05 2.8442612110174636e-05 7.289650067279362e-06 -7.55138693440218e-05 0.0 0.0
0.0 0.0004372236269002177 -0.00026854654545919646 0.00021480735179895495 5.3739193660241674e-05 -0.0004209125600341774 0.0 0.0
0.0 0.0014545507154685123 -0.0010558526681450082 0.0008647097703785026 0.0001911428977665056 -0.0012381381537143671 0.0 0.0
0.0 0.003194514968758916 -0.0024897894526767616 0.002118698148046848 0.0003710913046299147 -0.0024275283546486177 0.0 0.0
0.0 0.005467365770948878 -0.004440108763160455 0.003913097254392092 0.0005270115087683615 -0.003853298320247535 0.0 0.0
0.0 0.00819024882171083 -0.006748878353405558 0.006109143711998008 0.0006397346414075478 -0.0053179939762324135 0.0 0.0
0.0 0.011349877449972514 -0.009407436084951867 0.008681062986003409 0.0007263730989484564 -0.006735958820665983 0.0 0.0
0.0 0.015060025433130913 -0.012511405036983442 0.011714959668297697 0.0007964453686857447 -0.008172784716114465 0.0 0.0
0.0 0.01941450984477912 -0.016203036731576356 0.015343736688159287 0.0008593000434170661 -0.009724411766602346 0.0 0.0
0.0 0.0246102703780431 -0.020562339684848954 0.01964166283234716 0.0009206768525017804 -0.011557380285808345 0.0 0.0
0.0 0.030522458835740493 -0.025472088641615986 0.024484076296009606 0.0009880123456063776 -0.013983169327267692 0.0 0.0
0.0 0.03649874634691053 -0.03039015002801051 0.029322068870951304 0.0010680811570591962 -0.01723014209790313 0.0 0.0
0.0 0.041193736237067416 -0.03409332060946002 0.03292363670283215 0.0011696839066278621 -0.020820067497531375 0.0 0.0
0.0 0.04193256308015661 -0.03444719602343546 0.03314365378317745 0.0013035422402579986 -0.022882908181231506 0.0 0.0
0.0 0.03432707599577012 -0.028027401410408565 0.026536150682988015 0.0014912507274205465 -0.019885381330736557 0.0 0.0
0.0 0.034327075995773365 -0.028027401410407465 0.026536150682987095 0.0014912507274203617 0.019885381330759663 0.0 0.0
0.0 0.04193256308015429 -0.03444719602342883 0.033143653783170926 0.00130354224025791 0.022882908181260927 0.0 0.0
0.0 0.04119373623705514 -0.03409332060944619 0.03292363670281816 0.0011696839066280204 0.02082006749755174 0.0 0.0
0.0 0.036498746346889724 -0.030390150027991468 0.02932206887093247 0.0010680811570589867 0.01723014209790644 0.0 0.0
0.0 0.030522458835719767 -0.025472088641597973 0.024484076295992224 0.0009880123456057438 0.013983169327261864 0.0 0.0
0.0 0.024610270378022065 -0.020562339684830875 0.019641662832329536 0.00092067685250133 0.011557380285801576 0.0 0.0
0.0 0.01941450984475905 -0.01620303673155938 0.015343736688142692 0.0008593000434166851 0.009724411766593936 0.0 0.0
0.0 0.015060025433108543 -0.012511405036964397 0.011714959668278836 0.00079644536868556 0.008172784716106761 0.0 0.0
0.0 0.011349877449950089 -0.009407436084932837 0.00868106298598491 0.0007263730989479238 0.006735958820655103 0.0 0.0
0.0 0.008190248821690449 -0.006748878353388752 0.006109143711981864 0.0006397346414068884 0.005317993976219855 0.0 0.0
0.0 0.00546736577092948 -0.004440108763144748 0.0039130972543773915 0.0005270115087673555 0.003853298320233873 0.0 0.0
0.0 0.003194514968745454 -0.0024897894526661017 0.0021186981480372925 0.00037109130462880855 0.0024275283546400556 0.0 0.0
0.0 0.0014545507154600217 -0.0010558526681384542 0.0008647097703730292 0.00019114289776542474 0.0012381381537083615 0.0 0.0
0.0 0.0004372236268959243 -0.0002685465454566766 0.0002148073517969238 5.373919365975286e-05 0.0004209125600306905 0.0 0.0
0.0 8.555407367652528e-05 -3.573226217729403e-05 2.8442612110039457e-05 7.28965006725461e-06 7.551386934359353e-05 0.0 0.0
0.0 1.764729333449354e-05 -1.8613051192518806e-06 1.5444606470208193e-06 3.168444722310161e-07 4.981843324992892e-06 0.0 0.0
0.0 4.674674163919829e-06 2.3469147550738411e-07 -1.8637809501982775e-07 -4.831338048756621e-08 -7.530122120283227e-07 0.0 0.0
0.0 1.7628622966370727e-06 7.425115859493936e-08 -6.029149641515662e-08 -1.3959662179784548e-08 -3.4489921188806817e-07 0.0 0.0
0.0 0.0 0.0 0.0 0.0 0.0 0.0 0.0
0.0 0.0 0.0 0.0 0.0 0.0 0.0 0.0
0.0 0.0 0.0 0.0 0.0 0.0 0.0 0.0
0.0 0.0 0.0 0.0 0.0 0.0 0.0 0.0
0.0 6.301117771691601e-07 3.177133557320747e-08 -2.5610055499987776e-08 -6.161280073216576e-09 1.139376708674144e-07 0.0 0.0
0.0 6.9346823109825144e-06 5.042347017098303e-07 -4.065067840334973e-07 -9.772791767633461e-08 1.3113344896096305e-06 0.0 0.0
0.0 2.6926953175109245e-05 1.3381746017395225e-06 -1.0409126920725074e-06 -2.97261909667012e-07 2.8392712173461224e-06 0.0 0.0
0.0 0.00017309148301115578 -0.0001004698676962279 8.016644307380188e-05 2.030342462242606e-05 -0.00014305303536008522 0.0 0.0
0.0 0.0008807808333773057 -0.0006292981943988367 0.0005088362341421155 0.00012046196025672113 -0.0006466142930539541 0.0 0.0
0.0 0.0024099665661334343 -0.0019140488739786067 0.0016056088985042117 0.0003084399754743947 -0.001589481752621656 0.0 0.0
0.0 0.00469407497782061 -0.003913121325331922 0.0034187465429647403 0.0004943747823671823 -0.0028716100022815666 0.0 0.0
0.0 0.00761828195771631 -0.006440432538225241 0.0058071678718612674 0.0006332646663639711 -0.004301933316487317 0.0 0.0
0.0 0.011098156426723346 -0.009409164737770884 0.008673915318308231 0.0007352494194626534 -0.0057353260057960535 0.0 0.0
0.0 0.015157733291374835 -0.012851479375378137 0.01203474059153 0.0008167387838481388 -0.0071568501299774405 0.0 0.0
0.0 0.01990836940270215 -0.016886271100036217 0.01599893282757458 0.0008873382724616284 -0.00862213875659805 0.0 0.0
0.0 0.025545484669778948 -0.021678672427406398 0.020725766151671716 0.0009529062757346787 -0.010206712907087766 0.0 0.0
0.0 0.03226245242765393 -0.027351576239741306 0.026332635516465173 0.0010189407232761324 -0.01208008388841596 0.0 0.0
0.0 0.03972225947840798 -0.03379550869922706 0.03270041691742489 0.0010950917818021624 -0.01456072478549775 0.0 0.0
0.0 0.04761566772771203 -0.04031904653066683 0.03912556326484007 0.001193483265826764 -0.017936269409385933 0.0 0.0
0.0 0.05375301569890103 -0.0452923719921248 0.04397123803046168 0.0013211339616631202 -0.0219429252556584 0.0 0.0
0.0 0.054738686623245825 -0.04588954241912021 0.04440818493729137 0.001481357481828822 -0.024836425504622936 0.0 0.0
0.0 0.045650479501092064 -0.037961711744198476 0.03629419104730708 0.0016675206968913962 -0.023611356474043537 0.0 0.0
0.0 0.04565047950109513 -0.037961711744197275 0.03629419104730598 0.0016675206968912904 0.02361135647406889 0.0 0.0
0.0 0.05473868662324447 -0.04588954241911458 0.044408184937286224 0.00148135748182836 0.02483642550465512 0.0 0.0
0.0 0.05375301569888967 -0.04529237199211161 0.043971238030449354 0.0013211339616622637 0.0219429252556823 0.0 0.0
0.0 0.047615667727689895 -0.04031904653064623 0.03912556326482033 0.0011934832658258767 0.017936269409391737 0.0 0.0
0.0 0.039722259478380914 -0.03379550869920338 0.032700416917401776 0.0010950917818015906 0.014560724785493301 0.0 0.0
0.0 0.03226245242762639 -0.02735157623971726 0.02633263551644175 0.0010189407232755166 0.012080083888409737 0.0 0.0
0.0 0.02554548466975139 -0.021678672427382636 0.020725766151648364 0.0009529062757342725 0.01020671290707878 0.0 0.0
0.0 0.019908369402675166 -0.01688627110001259 0.01599893282755168 0.0008873382724609154 0.008622138756590757 0.0 0.0
0.0 0.015157733291347925 -0.012851479375354776 0.012034740591507354 0.0008167387838474186 0.007156850129967491 0.0 0.0
0.0 0.011098156426696147 -0.009409164737747892 0.008673915318285791 0.0007352494194620969 0.005735326005782316 0.0 0.0
0.0 0.007618281957693056 -0.00644043253820554 0.005807167871842284 0.0006332646663632546 0.0043019333164730136 0.0 0.0
0.0 0.004694074977803791 -0.003913121325317604 0.00341874654295139 0.0004943747823662136 0.0028716100022728426 0.0 0.0
0.0 0.0024099665661212956 -0.0019140488739685876 0.0016056088984953568 0.0003084399754732307 0.0015894817526147724 0.0 0.0
0.0 0.000880780833370914 -0.0006292981943942966 0.0005088362341384072 0.00012046196025588937 0.0006466142930498244 0.0 0.0
0.0 0.0001730914830090794 -0.00010046986769554443 8.016644307325179e-05 2.030342462229271e-05 0.00014305303535916351 0.0 0.0
0.0 2.692695317418621e-05 1.338174601599393e-06 -1.0409126919608014e-06 -2.9726190963869243e-07 -2.8392712170812315e-06 0.0 0.0
0.0 6.934682310505462e-06 5.042347016716486e-07 -4.0650678400268413e-07 -9.772791766897146e-08 -1.3113344895102354e-06 0.0 0.0
0.0 6.301117768796378e-07 3.177133555832444e-08 -2.5610055487985994e-08 -6.161280070339225e-09 -1.1393767081387647e-07 0.0 0.0
0.0 0.0 0.0 0.0 0.0 0.0 0.0 0.0
0.0 0.0 0.0 0.0 0.0 0.0 0.0 0.0
0.0 0.0 0.0 0.0 0.0 0.0 0.0 0.0
0.0 0.0 0.0 0.0 0.0 0.0 0.0 0.0
0.0 0.0 0.0 0.0 0.0 0.0 0.0 0.0
0.0 3.241628952765024e-06 2.6053331691204254e-07 -2.0807629639336721e-07 -5.2457020518637325e-08 5.164519678466237e-07 0.0 0.0
0.0 3.964589331981099e-05 -1.0472912198066233e-05 8.320032535704428e-06 2.1528796623618197e-06 -1.3908787267091117e-05 0.0 0.0
0.0 0.00037649002642909784 -0.00024600086617062575 0.0001966096644694335 4.939120170119249e-05 -0.00023255697479785805 0.0 0.0
0.0 0.001524848572332121 -0.0011523564757267269 0.0009470471330884839 0.0002053093426382424 -0.0008191303184505741 0.0 0.0
0.0 0.003440324480809549 -0.002933081748389121 0.0025163213822484336 0.00041676036614068837 -0.0017957297845722971 0.0 0.0
0.0 0.006266554766895083 -0.005420313168013977 0.00483353943174286 0.0005867737362711147 -0.003020021296052915 0.0 0.0
0.0 0.009838066660178316 -0.008491782182216173 0.007780080746919017 0.0007117014352971583 -0.004340379604296178 0.0 0.0
0.0 0.014085060309357737 -0.0121222664802752 0.011314127617431988 0.0008081388628432087 -0.005697380475459145 0.0 0.0
0.0 0.019032651758121757 -0.01636079890799662 0.015471002448989246 0.0008897964590073653 -0.007050173783350795 0.0 0.0
0.0 0.02490452444692954 -0.02134262550320082 0.020377833988572 0.000964791514628812 -0.00846053629409611 0.0 0.0
0.0 0.03170930258525557 -0.027248862819230293 0.026212844738643187 0.001036018080587103 -0.010022776222139687 0.0 0.0
0.0 0.03983332164074183 -0.03421120879719636 0.03310358811779325 0.0011076206794031157 -0.011790990925108867 0.0 0.0
0.0 0.04916538454208959 -0.04212683428885435 0.04093407418782191 0.0011927601010324413 -0.013981326426311086 0.0 0.0
0.0 0.058504022945674125 -0.050205467262553066 0.04889806598314993 0.0013074012794031297 -0.017067081669801816 0.0 0.0
0.0 0.0658778442516791 -0.05641497186462742 0.05495485665257092 0.0014601152120565016 -0.02119521364846652 0.0 0.0
0.0 0.06726890817936686 -0.05726293713378346 0.05562398906048909 0.0016389480732943546 -0.025316947277466972 0.0 0.0
0.0 0.05722573614629748 -0.04795335190637989 0.04612826881576768 0.0018250830906121787 -0.02724141212357421 0.0 0.0
0.0 0.05722573614629598 -0.047953351906375334 0.046128268815762485 0.0018250830906128216 0.027241412123599977 0.0 0.0
0.0 0.06726890817935671 -0.05726293713377129 0.055623989060476525 0.001638948073294753 0.02531694727749876 0.0 0.0
0.0 0.06587784425166124 -0.056414971864609476 0.05495485665255326 0.0014601152120561941 0.021195213648490398 0.0 0.0
0.0 0.05850402294564734 -0.050205467262528766 0.04889806598312617 0.0013074012794026132 0.017067081669808852 0.0 0.0
0.0 0.04916538454205825 -0.042126834288826916 0.04093407418779502 0.0011927601010318803 0.013981326426308439 0.0 0.0
0.0 0.03983332164071043 -0.03421120879716879 0.03310358811776633 0.0011076206794024598 0.011790990925105263 0.0 0.0
0.0 0.03170930258522277 -0.027248862819201608 0.02621284473861519 0.0010360180805864291 0.010022776222132752 0.0 0.0
0.0 0.024904524446896795 -0.02134262550317202 0.020377833988543727 0.0009647915146282771 0.008460536294088711 0.0 0.0
0.0 0.019032651758089644 -0.016360798907968533 0.01547100244896164 0.000889796459006888 0.007050173783341757 0.0 0.0
0.0 0.014085060309328292 -0.012122266480249772 0.011314127617407329 0.0008081388628424393 0.005697380475446522 0.0 0.0
0.0 0.009838066660153237 -0.008491782182194539 0.007780080746898235 0.0007117014352962995 0.004340379604284023 0.0 0.0
0.0 0.0062665547668762644 -0.0054203131679973655 0.004833539431727239 0.0005867737362701254 0.003020021296044656 0.0 0.0
0.0 0.0034403244807957576 -0.0029330817483770146 0.0025163213822375096 0.0004167603661395044 0.0017957297845658977 0.0 0.0
0.0 0.0015248485723237284 -0.001152356475720094 0.0009470471330828975 0.00020530934263719635 0.0008191303184462114 0.0 0.0
0.0 0.0003764900264254947 -0.0002460008661684958 0.00019660966446772727 4.939120170076832e-05 0.00023255697479599124 0.0 0.0
0.0 3.9645893318908054e-05 -1.047291219825106e-05 8.320032535844243e-06 2.152879662406835e-06 1.3908787267284312e-05 0.0 0.0
0.0 3.2416289522024286e-06 2.6053331686397295e-07 -2.080762963552667e-07 -5.245702050872393e-08 -5.164519677547741e-07 0.0 0.0
0.0 0.0 0.0 0.0 0.0 0.0 0.0 0.0
0.0 0.0 0.0 0.0 0.0 0.0 0.0 0.0
0.0 0.0 0.0 0.0 0.0 0.0 0.0 0.0
0.0 0.0 0.0 0.0 0.0 0.0 0.0 0.0
0.0 0.0 0.0 0.0 0.0 0.0 0.0 0.0
0.0 0.0 0.0 0.0 0.0 0.0 0.0 0.0
0.0 2.794332901188112e-06 1.583379861180575e-07 -1.2785650889180623e-07 -3.048147722623308e-08 2.514007075849936e-07 0.0 0.0
0.0 7.959537885685759e-05 -3.395835050076505e-05 2.7266620776393664e-05 6.691729724371537e-06 -3.374151510850437e-05 0.0 0.0
0.0 0.000715236654655802 -0.0004985943854110709 0.00040187883040415846 9.671555500691289e-05 -0.0003166957298170966 0.0 0.0
0.0 0.0021214399049935264 -0.001838217099540496 0.0015382531358346084 0.0002999639637058877 -0.0009266195655517296 0.0 0.0
0.0 0.004556201812008414 -0.004028961804196879 0.0035253270307420864 0.0005036347734547922 -0.0018004780009830033 0.0 0.0
0.0 0.00793309950924671 -0.006957738556675015 0.006300412234875962 0.0006573263217990526 -0.002849609019358766 0.0 0.0
0.0 0.012113275523739551 -0.010574803287796511 0.009801966570865336 0.0007728367169311744 -0.004017384115085385 0.0 0.0
0.0 0.017110203579860685 -0.01486994145696803 0.014002407287439842 0.0008675341695281837 -0.005222139666521355 0.0 0.0
0.0 0.02298755712012198 -0.019916215527580647 0.0189632500865638 0.0009529654410168344 -0.006430843354583424 0.0 0.0
0.0 0.029895083396338024 -0.02586498600208983 0.024831094225590065 0.0010338917764997513 -0.007719200806400955 0.0 0.0
0.0 0.038073990795779236 -0.03288916742646773 0.03177560467750037 0.0011135627489673628 -0.00914838615586445 0.0 0.0
0.0 0.04760825559836835 -0.04109692065474923 0.03990397438659435 0.001192946268154887 -0.01071244674297019 0.0 0.0
0.0 0.058150612138902005 -0.05037101859018412 0.049088176341725714 0.0012828422484583773 -0.012410022500814877 0.0 0.0
0.0 0.069180320508078 -0.059886797716273976 0.05847749279814948 0.0014093049181245177 -0.01467334397310251 0.0 0.0
0.0 0.07796994751768581 -0.06735952506254429 0.065776057044925 0.0015834680176192995 -0.018511929393481813 0.0 0.0
0.0 0.07996120294543847 -0.06869262014974226 0.06690860699557685 0.001784013154165404 -0.0243129084726812 0.0 0.0
0.0 0.0690768058519159 -0.05828235690556254 0.056303920694287336 0.0019784362112751763 -0.030786939417530107 0.0 0.0
0.0 0.06907680585191578 -0.058282356905559 0.05630392069428378 0.0019784362112752274 0.030786939417555784 0.0 0.0
0.0 0.07996120294542583 -0.06869262014972863 0.06690860699556322 0.0017840131541654244 0.024312908472710733 0.0 0.0
0.0 0.07796994751766317 -0.06735952506252302 0.06577605704490393 0.0015834680176190228 0.018511929393504458 0.0 0.0
0.0 0.06918032050804665 -0.059886797716246026 0.05847749279812218 0.0014093049181238518 0.014673343973108852 0.0 0.0
0.0 0.05815061213886542 -0.050371018590152056 0.04908817634169424 0.001282842248457782 0.012410022500813979 0.0 0.0
0.0 0.047608255598330956 -0.04109692065471654 0.039903974386562235 0.0011929462681542979 0.010712446742967546 0.0 0.0
0.0 0.0380739907957438 -0.03288916742643682 0.03177560467747028 0.001113562748966513 0.009148386155858793 0.0 0.0
0.0 0.029895083396300422 -0.025864986002056948 0.02483109422555798 0.0010338917764989703 0.007719200806394351 0.0 0.0
0.0 0.02298755712008381 -0.01991621552754703 0.01896325008653093 0.0009529654410161126 0.006430843354575409 0.0 0.0
0.0 0.017110203579825886 -0.014869941456937506 0.014002407287409998 0.0008675341695274975 0.005222139666509803 0.0 0.0
0.0 0.012113275523709457 -0.010574803287770152 0.009801966570839567 0.0007728367169305832 0.004017384115074114 0.0 0.0
0.0 0.007933099509223716 -0.006957738556654469 0.006300412234856245 0.0006573263217982246 0.0028496090193510927 0.0 0.0
0.0 0.00455620181199162 -0.004028961804181629 0.003525327030727946 0.0005036347734536826 0.001800478000977098 0.0 0.0
0.0 0.002121439904981999 -0.0018382170995303545 0.0015382531358257398 0.0002999639637046142 0.0009266195655470788 0.0 0.0
0.0 0.0007152366546494312 -0.0004985943854066029 0.0004018788304004777 9.671555500612535e-05 0.00031669572981438945 0.0 0.0
0.0 7.959537885521898e-05 -3.395835050040781e-05 2.7266620776097037e-05 6.6917297243106685e-06 3.374151510816763e-05 0.0 0.0
0.0 2.7943329008228544e-06 1.58337985908143e-07 -1.2785650872679958e-07 -3.048147718133084e-08 -2.5140070729627234e-07 0.0 0.0
0.0 0.0 0.0 0.0 0.0 0.0 0.0 0.0
0.0 0.0 0.0 0.0 0.0 0.0 0.0 0.0
0.0 0.0 0.0 0.0 0.0 0.0 0.0 0.0
0.0 0.0 0.0 0.0 0.0 0.0 0.0 0.0
0.0 0.0 0.0 0.0 0.0 0.0 0.0 0.0
0.0 0.0 0.0 0.0 0.0 0.0 0.0 0.0
0.0 3.1285138629805582e-06 3.198481553894005e-07 -2.499609673796126e-07 -6.988718800979791e-08 3.1819347234759094e-07 0.0 0.0
0.0 0.00017787463050077202 -9.260557532000354e-05 7.373003834224565e-05 1.887553697775779e-05 -5.64738442161512e-05 0.0 0.0
0.0 0.0011345246809408198 -0.0008771708641251291 0.0007146009139140758 0.0001625699502110534 -0.00036657436249720705 0.0 0.0
0.0 0.0028788554136128363 -0.0025989059067133115 0.002212633616922221 0.00038627228979109076 -0.0008737472464561563 0.0 0.0
0.0 0.005767575402386452 -0.005148400021002041 0.004576438940371346 0.0005719610806306937 -0.0015609895168123336 0.0 0.0
0.0 0.009634445437404354 -0.008514331532229694 0.00780194887779187 0.0007123826544378211 -0.0024030526154154514 0.0 0.0
0.0 0.014431877834593399 -0.012672629720951931 0.01185015848332169 0.000822471237630238 -0.003348733567489333 0.0 0.0
0.0 0.020199528412465587 -0.017637070693130807 0.016718561363817983 0.0009185093293128258 -0.004331514077023249 0.0 0.0
0.0 0.026956372834532054 -0.023503430343009148 0.022494483008607295 0.001008947334401842 -0.005316499667591946 0.0 0.0
0.0 0.03505652177741242 -0.030431851950110105 0.029334313256455732 0.0010975386936543608 -0.006371931040464736 0.0 0.0
0.0 0.044352421739615046 -0.03858531787073288 0.0373990496717332 0.0011862681989996762 -0.007598508564754042 0.0 0.0
0.0 0.055155653108127686 -0.04799665630159268 0.04672037456691727 0.0012762817346754218 -0.008903368309270727 0.0 0.0
0.0 0.06720220584835625 -0.05845287586248081 0.05708020800762763 0.001372667854853187 -0.00998589119280828 0.0 0.0
0.0 0.07954520823509742 -0.06918215290363895 0.06768826188482555 0.0014938910188133782 -0.010990199598186515 0.0 0.0
0.0 0.0897713447287375 -0.07800397344979981 0.07631816875280417 0.0016858046969956083 -0.01390587075697599 0.0 0.0
0.0 0.09285305188320214 -0.08029390462780195 0.07837454722673702 0.0019193574010649469 -0.021481717837746495 0.0 0.0
0.0 0.08179842533578076 -0.06927558579485857 0.06713450984226259 0.002141075952595951 -0.03400414946896498 0.0 0.0
0.0 0.08179842533577725 -0.06927558579485289 0.0671345098422572 0.0021410759525957055 0.03400414946898511 0.0 0.0
0.0 0.09285305188318588 -0.0802939046277859 0.07837454722672146 0.0019193574010644182 0.021481717837772273 0.0 0.0
0.0 0.08977134472871037 -0.07800397344977508 0.07631816875278008 0.0016858046969949587 0.01390587075699647 0.0 0.0
0.0 0.07954520823505992 -0.06918215290360592 0.06768826188479318 0.001493891018812738 0.010990199598191997 0.0 0.0
0.0 0.0672022058483152 -0.05845287586244503 0.057080208007592274 0.0013726678548527692 0.00998589119280813 0.0 0.0
0.0 0.05515565310808415 -0.04799665630155481 0.04672037456687975 0.0012762817346750701 0.008903368309269633 0.0 0.0
0.0 0.044352421739572656 -0.03858531787069586 0.03739904967169699 0.0011862681989988522 0.007598508564749091 0.0 0.0
0.0 0.035056521777369586 -0.03043185195007263 0.029334313256419057 0.001097538693653584 0.006371931040458713 0.0 0.0
0.0 0.0269563728344899 -0.023503430342972285 0.02249448300857121 0.0010089473344010737 0.005316499667587297 0.0 0.0
0.0 0.020199528412427007 -0.017637070693096762 0.016718561363784523 0.0009185093293122307 0.004331514077013787 0.0 0.0
0.0 0.014431877834558649 -0.012672629720921307 0.011850158483291543 0.0008224712376297622 0.003348733567479641 0.0 0.0
0.0 0.009634445437376554 -0.008514331532204936 0.007801948877767714 0.0007123826544372201 0.0024030526154088226 0.0 0.0
0.0 0.005767575402366521 -0.0051484000209838805 0.004576438940354139 0.0005719610806297426 0.0015609895168072123 0.0 0.0
0.0 0.0028788554135997734 -0.0025989059067012587 0.002212633616911354 0.0003862722897899051 0.000873747246452227 0.0 0.0
0.0 0.0011345246809336708 -0.0008771708641193228 0.0007146009139092173 0.00016256995021010463 0.00036657436249479334 0.0 0.0
0.0 0.0001778746304985174 -9.260557531899329e-05 7.373003834142303e-05 1.8875536977570365e-05 5.6473844215527034e-05 0.0 0.0
0.0 3.12851386246432e-06 3.1984815533367717e-07 -2.4996096733628395e-07 -6.988718799738491e-08 -3.181934722935766e-07 0.0 0.0
0.0 0.0 0.0 0.0 0.0 0.0 0.0 0.0
0.0 0.0 0.0 0.0 0.0 0.0 0.0 0.0
0.0 0.0 0.0 0.0 0.0 0.0 0.0 0.0
0.0 0.0 0.0 0.0 0.0 0.0 0.0 0.0
0.0 0.0 0.0 0.0 0.0 0.0 0.0 0.0
0.0 0.0 0.0 0.0 0.0 0.0 0.0 0.0
0.0 7.480929744594875e-06 8.970346975284954e-07 -6.929961877200582e-07 -2.0403850980840786e-07 5.50205352796341e-07 0.0 0.0
0.0 0.00038046649609027843 -0.00022597778621152203 0.00018065775552417277 4.532003068734952e-05 -7.88485569583248e-05 0.0 0.0
0.0 0.001495508387174679 -0.0013777886504650824 0.001135677315177083 0.00024211133528799885 -0.00032556881511333017 0.0 0.0
0.0 0.0037360665261450994 -0.0033925596697351647 0.0029357071700105396 0.0004568524997246242 -0.0006608311620912707 0.0 0.0
0.0 0.00700784146603463 -0.006283510934928885 0.0056566448503780654 0.00062686608455082 -0.0011174413554964164 0.0 0.0
0.0 0.011358096095971116 -0.010074991149951711 0.00931907538940462 0.0007559157605470889 -0.0016899000886251084 0.0 0.0
0.0 0.016770313091780387 -0.014772019691327534 0.013908335332812988 0.0008636843585145401 -0.0023454061975698806 0.0 0.0
0.0 0.02329382312331827 -0.020411838719786933 0.019448572806196843 0.000963265913590096 -0.00302460806551656 0.0 0.0
0.0 0.031100999440181864 -0.027107136654039254 0.026047154228282222 0.0010599824257570163 -0.0037062161577876705 0.0 0.0
0.0 0.04009682118322666 -0.035031521364256094 0.03387497239995729 0.0011565489642987939 -0.004472504406412062 0.0 0.0
0.0 0.05072034288821313 -0.04430683552299698 0.04305175370338127 0.0012550818196157012 -0.005353980897606793 0.0 0.0
0.0 0.06290689537472617 -0.05488281893957356 0.05352515133010123 0.001357667609472347 -0.006242945311380798 0.0 0.0
0.0 0.0761466635913755 -0.06638987244663964 0.06492516949536986 0.0014647029512697602 -0.006835619116426196 0.0 0.0
0.0 0.08947387361613729 -0.0779919945770038 0.07641312103838484 0.0015788735386190068 -0.006763310110595173 0.0 0.0
0.0 0.10098453653493979 -0.08799002413895911 0.08625683295140447 0.0017331911875546483 -0.007486933088482181 0.0 0.0
0.0 0.1060584144447799 -0.09209773999124074 0.09005006521420873 0.0020476747770319637 -0.015698480776061723 0.0 0.0
0.0 0.0958052446564217 -0.08145045599677878 0.0791179669319195 0.002332489064859265 -0.036221749235898056 0.0 0.0
0.0 0.09580524465641858 -0.08145045599677445 0.07911796693191511 0.0023324890648592886 0.03622174923591299 0.0 0.0
0.0 0.10605841444475886 -0.09209773999122162 0.09005006521418975 0.00204767477703184 0.01569848077608146 0.0 0.0
0.0 0.10098453653490752 -0.08799002413893056 0.08625683295137658 0.0017331911875539908 0.007486933088497464 0.0 0.0
0.0 0.0894738736160961 -0.07799199457696769 0.07641312103834953 0.0015788735386181086 0.006763310110597386 0.0 0.0
0.0 0.07614666359133072 -0.06638987244660048 0.06492516949533163 0.0014647029512688627 0.006835619116426867 0.0 0.0
0.0 0.06290689537467797 -0.05488281893953157 0.05352515133005981 0.0013576676094717661 0.0062429453113805496 0.0 0.0
0.0 0.05072034288816495 -0.04430683552295519 0.043051753703339926 0.001255081819615252 0.005353980897603956 0.0 0.0
0.0 0.040096821183178165 -0.03503152136421382 0.03387497239991573 0.0011565489642980835 0.0044725044064080535 0.0 0.0
0.0 0.03110099944013353 -0.02710713665399681 0.0260471542282404 0.0010599824257563973 0.0037062161577853057 0.0 0.0
0.0 0.02329382312327412 -0.02041183871974826 0.019448572806158915 0.0009632659135893317 0.00302460806550979 0.0 0.0
0.0 0.016770313091744215 -0.01477201969129553 0.013908335332781895 0.0008636843585136387 0.0023454061975633723 0.0 0.0
0.0 0.011358096095941753 -0.010074991149925175 0.009319075389378864 0.0007559157605463111 0.0016899000886212464 0.0 0.0
0.0 0.007007841466013139 -0.006283510934909242 0.005656644850359424 0.0006268660845498172 0.0011174413554929353 0.0 0.0
0.0 0.0037360665261310716 -0.0033925596697219097 0.0029357071699984832 0.0004568524997234254 0.0006608311620885617 0.0 0.0
0.0 0.0014955083871670753 -0.0013777886504579223 0.0011356773151709621 0.00024211133528695972 0.00032556881511161214 0.0 0.0
0.0 0.0003804664960870136 -0.00022597778620954295 0.000180657755522572 4.532003068697077e-05 7.884855695772361e-05 0.0 0.0
0.0 7.48092974373735e-06 8.970346974239649e-07 -6.929961876401887e-07 -2.040385097838224e-07 -5.502053527401145e-07 0.0 0.0
0.0 0.0 0.0 0.0 0.0 0.0 0.0 0.0
0.0 0.0 0.0 0.0 0.0 0.0 0.0 0.0
0.0 0.0 0.0 0.0 0.0 0.0 0.0 0.0
0.0 0.0 0.0 0.0 0.0 0.0 0.0 0.0
0.0 0.0 0.0 0.0 0.0 0.0 0.0 0.0
0.0 0.0 0.0 0.0 0.0 0.0 0.0 0.0
0.0 1.8243252506798383e-05 -2.889218001556161e-06 2.3320273364702476e-06 5.571906650860588e-07 -1.0703906817216498e-06 0.0 0.0
0.0 0.000704743918175419 -0.00044633609375777274 0.00035850681808756034 8.782927567021226e-05 -6.199530576660644e-05 0.0 0.0
0.0 0.00207184973655293 -0.0019098322955055167 0.0015948859820900164 0.00031494631341550034 -0.0001589923428137594 0.0 0.0
0.0 0.004624084339742596 -0.004205860696585525 0.0036905231628191542 0.0005153375337663695 -0.0002946657554773139 0.0 0.0
0.0 0.008282709724487363 -0.007418887804672529 0.00674869363708293 0.0006701941675895963 -0.0004754609802515721 0.0 0.0
0.0 0.013113900273898313 -0.011626022368944652 0.010834574130672637 0.0007914482382720151 -0.0007177068996633596 0.0 0.0
0.0 0.019161965862226155 -0.016858307307896905 0.01595930758036201 0.0008989997275348945 -0.0010070555857537506 0.0 0.0
0.0 0.02652105137810289 -0.023181083512439755 0.022178373265935452 0.0010027102465042944 -0.0013060817933393746 0.0 0.0
0.0 0.035055719303917966 -0.030726371120523323 0.029619546660699388 0.0011068244598239352 -0.001628830251828702 0.0 0.0
0.0 0.045240445759815694 -0.03963817913600025 0.038426420426905195 0.0012117587090950377 -0.0019865713363093275 0.0 0.0
0.0 0.057183403146299036 -0.05001314467865688 0.04869299156044908 0.0013201531182077699 -0.0023713536146197575 0.0 0.0
0.0 0.07067465550734495 -0.06172923234865878 0.060294156463781154 0.0014350758848776346 -0.002733270442499177 0.0 0.0
0.0 0.08510302764822314 -0.07423603721711024 0.07268004396395233 0.0015559932531579094 -0.002875742698491072 0.0 0.0
0.0 0.09920803843013531 -0.08646801386842178 0.08479207047071285 0.0016759433977088685 -0.0024603533983726896 0.0 0.0
0.0 0.11119438815053616 -0.09689980948274995 0.09510886658872687 0.001790942894023056 -0.0013388207884722585 0.0 0.0
0.0 0.11837140959293475 -0.10305012086858015 0.10108383944231752 0.0019662814262625568 -0.004660254732445227 0.0 0.0
0.0 0.11229447106321984 -0.09620751650033879 0.09351877443088888 0.002688742069449917 -0.03360040355927016 0.0 0.0
0.0 0.11229447106321043 -0.09620751650033042 0.09351877443087986 0.0026887420694505057 0.03360040355927505 0.0 0.0
0.0 0.11837140959290937 -0.10305012086855814 0.10108383944229546 0.0019662814262626435 0.004660254732453916 0.0 0.0
0.0 0.11119438815049736 -0.09689980948271618 0.0951088665886936 0.0017909428940225181 0.0013388207884801168 0.0 0.0
0.0 0.09920803843008703 -0.08646801386837966 0.0847920704706714 0.0016759433977081952 0.002460353398371696 0.0 0.0
0.0 0.08510302764817157 -0.07423603721706537 0.07268004396390791 0.0015559932531574348 0.002875742698491333 0.0 0.0
0.0 0.07067465550729088 -0.06172923234861171 0.06029415646373472 0.001435075884876993 0.0027332704424992407 0.0 0.0
0.0 0.05718340314624424 -0.05001314467860911 0.04869299156040216 0.0013201531182069606 0.0023713536146193273 0.0 0.0
0.0 0.04524044575975929 -0.039638179135951204 0.03842642042685672 0.0012117587090944505 0.0019865713363076323 0.0 0.0
0.0 0.03505571930386368 -0.03072637112047595 0.0296195466606528 0.00110682445982314 0.0016288302518278884 0.0 0.0
0.0 0.026521051378054182 -0.023181083512397154 0.022178373265893486 0.0010027102465036694 0.0013060817933352002 0.0 0.0
0.0 0.019161965862185767 -0.016858307307861763 0.015959307580327445 0.0008989997275343212 0.0010070555857509616 0.0 0.0
0.0 0.013113900273865331 -0.011626022368915318 0.01083457413064393 0.0007914482382713871 0.000717706899661899 0.0 0.0
0.0 0.00828270972446251 -0.0074188878046498475 0.006748693637061017 0.0006701941675888333 0.0004754609802500618 0.0 0.0
0.0 0.004624084339726035 -0.0042058606965701215 0.003690523162804762 0.0005153375337653618 0.00029466575547637265 0.0 0.0
0.0 0.002071849736543236 -0.00190983229549607 0.0015948859820816388 0.0003149463134144309 0.00015899234281282 0.0 0.0
0.0 0.0007047439181710564 -0.0004463360937548138 0.0003585068180851265 8.782927566968775e-05 6.19953057662048e-05 0.0 0.0
0.0 1.8243252506393556e-05 -2.8892180018943797e-06 2.332027336727204e-06 5.571906651671649e-07 1.0703906817733302e-06 0.0 0.0
0.0 0.0 0.0 0.0 0.0 0.0 0.0 0.0
0.0 0.0 0.0 0.0 0.0 0.0 0.0 0.0
0.0 0.0 0.0 0.0 0.0 0.0 0.0 0.0