# vtk DataFile Version 3.0
Some data
ASCII
DATASET UNSTRUCTURED_GRID
POINTS 861 float
0.0 0.0 0.0
0.4 0.0 0.0
0.8 0.0 0.0
1.2000000000000002 0.0 0.0
1.6 0.0 0.0
2.0 0.0 0.0
2.4000000000000004 0.0 0.0
2.8000000000000003 0.0 0.0
3.2 0.0 0.0
3.6 0.0 0.0
4.0 0.0 0.0
4.4 0.0 0.0
4.800000000000001 0.0 0.0
5.2 0.0 0.0
5.6000000000000005 0.0 0.0
6.0 0.0 0.0
6.4 0.0 0.0
6.800000000000001 0.0 0.0
7.2 0.0 0.0
7.6000000000000005 0.0 0.0
8.0 0.0 0.0
8.4 0.0 0.0
8.8 0.0 0.0
9.200000000000001 0.0 0.0
9.600000000000001 0.0 0.0
10.0 0.0 0.0
10.4 0.0 0.0
10.8 0.0 0.0
11.200000000000001 0.0 0.0
11.600000000000001 0.0 0.0
12.0 0.0 0.0
12.4 0.0 0.0
12.8 0.0 0.0
13.200000000000001 0.0 0.0
13.600000000000001 0.0 0.0
14.0 0.0 0.0
14.4 0.0 0.0
14.8 0.0 0.0
15.200000000000001 0.0 0.0
15.600000000000001 0.0 0.0
16.0 0.0 0.0
0.0 0.1 0.0
0.4 0.1 0.0
0.8 0.1 0.0
1.2000000000000002 0.1 0.0
1.6 0.1 0.0
2.0 0.1 0.0
2.4000000000000004 0.1 0.0
2.8000000000000003 0.1 0.0
3.2 0.1 0.0
3.6 0.1 0.0
4.0 0.1 0.0
4.4 0.1 0.0
4.800000000000001 0.1 0.0
5.2 0.1 0.0
5.6000000000000005 0.1 0.0
6.0 0.1 0.0
6.4 0.1 0.0
6.800000000000001 0.1 0.0
7.2 0.1 0.0
7.6000000000000005 0.1 0.0
8.0 0.1 0.0
8.4 0.1 0.0
8.8 0.1 0.0
9.200000000000001 0.1 0.0
9.600000000000001 0.1 0.0
10.0 0.1 0.0
10.4 0.1 0.0
10.8 0.1 0.0
11.200000000000001 0.1 0.0
11.600000000000001 0.1 0.0
12.0 0.1 0.0
12.4 0.1 0.0
12.8 0.1 0.0
13.200000000000001 0.1 0.0
13.600000000000001 0.1 0.0
14.0 0.1 0.0
14.4 0.1 0.0
14.8 0.1 0.0
15.200000000000001 0.1 0.0
15.600000000000001 0.1 0.0
16.0 0.1 0.0
0.0 0.2 0.0
0.4 0.2 0.0
0.8 0.2 0.0
1.2000000000000002 0.2 0.0
1.6 0.2 0.0
2.0 0.2 0.0
2.4000000000000004 0.2 0.0
2.8000000000000003 0.2 0.0
3.2 0.2 0.0
3.6 0.2 0.0
4.0 0.2 0.0
4.4 0.2 0.0
4.800000000000001 0.2 0.0
5.2 0.2 0.0
5.6000000000000005 0.2 0.0
6.0 0.2 0.0
6.4 0.2 0.0
6.800000000000001 0.2 0.0
7.2 0.2 0.0
7.6000000000000005 0.2 0.0
8.0 0.2 0.0
8.4 0.2 0.0
8.8 0.2 0.0
9.200000000000001 0.2 0.0
9.600000000000001 0.2 0.0
10.0 0.2 0.0
10.4 0.2 0.0
10.8 0.2 0.0
11.200000000000001 0.2 0.0
11.600000000000001 0.2 0.0
12.0 0.2 0.0
12.4 0.2 0.0
12.8 0.2 0.0
13.200000000000001 0.2 0.0
13.600000000000001 0.2 0.0
14.0 0.2 0.0
14.4 0.2 0.0
14.8 0.2 0.0
15.200000000000001 0.2 0.0
15.600000000000001 0.2 0.0
16.0 0.2 0.0
0.0 0.30000000000000004 0.0
0.4 0.30000000000000004 0.0
0.8 0.30000000000000004 0.0
1.2000000000000002 0.30000000000000004 0.0
1.6 0.30000000000000004 0.0
2.0 0.30000000000000004 0.0
2.4000000000000004 0.30000000000000004 0.0
2.8000000000000003 0.30000000000000004 0.0
3.2 0.30000000000000004 0.0
3.6 0.30000000000000004 0.0
4.0 0.30000000000000004 0.0
4.4 0.30000000000000004 0.0
4.800000000000001 0.30000000000000004 0.0
5.2 0.30000000000000004 0.0
5.6000000000000005 0.30000000000000004 0.0
6.0 0.30000000000000004 0.0
6.4 0.30000000000000004 0.0
6.800000000000001 0.30000000000000004 0.0
7.2 0.30000000000000004 0.0
7.6000000000000005 0.30000000000000004 0.0
8.0 0.30000000000000004 0.0
8.4 0.30000000000000004 0.0
8.8 0.30000000000000004 0.0
9.200000000000001 0.30000000000000004 0.0
9.600000000000001 0.30000000000000004 0.0
10.0 0.30000000000000004 0.0
10.4 0.30000000000000004 0.0
10.8 0.30000000000000004 0.0
11.200000000000001 0.30000000000000004 0.0
11.600000000000001 0.30000000000000004 0.0
12.0 0.30000000000000004 0.0
12.4 0.30000000000000004 0.0
12.8 0.30000000000000004 0.0
13.200000000000001 0.30000000000000004 0.0
13.600000000000001 0.30000000000000004 0.0
14.0 0.30000000000000004 0.0
14.4 0.30000000000000004 0.0
14.8 0.30000000000000004 0.0
15.200000000000001 0.30000000000000004 0.0
15.600000000000001 0.30000000000000004 0.0
16.0 0.30000000000000004 0.0
0.0 0.4 0.0
0.4 0.4 0.0
0.8 0.4 0.0
1.2000000000000002 0.4 0.0
1.6 0.4 0.0
2.0 0.4 0.0
2.4000000000000004 0.4 0.0
2.8000000000000003 0.4 0.0
3.2 0.4 0.0
3.6 0.4 0.0
4.0 0.4 0.0
4.4 0.4 0.0
4.800000000000001 0.4 0.0
5.2 0.4 0.0
5.6000000000000005 0.4 0.0
6.0 0.4 0.0
6.4 0.4 0.0
6.800000000000001 0.4 0.0
7.2 0.4 0.0
7.6000000000000005 0.4 0.0
8.0 0.4 0.0
8.4 0.4 0.0
8.8 0.4 0.0
9.200000000000001 0.4 0.0
9.600000000000001 0.4 0.0
10.0 0.4 0.0
10.4 0.4 0.0
10.8 0.4 0.0
11.200000000000001 0.4 0.0
11.600000000000001 0.4 0.0
12.0 0.4 0.0
12.4 0.4 0.0
12.8 0.4 0.0
13.200000000000001 0.4 0.0
13.600000000000001 0.4 0.0
14.0 0.4 0.0
14.4 0.4 0.0
14.8 0.4 0.0
15.200000000000001 0.4 0.0
15.600000000000001 0.4 0.0
16.0 0.4 0.0
0.0 0.5 0.0
0.4 0.5 0.0
0.8 0.5 0.0
1.2000000000000002 0.5 0.0
1.6 0.5 0.0
2.0 0.5 0.0
2.4000000000000004 0.5 0.0
2.8000000000000003 0.5 0.0
3.2 0.5 0.0
3.6 0.5 0.0
4.0 0.5 0.0
4.4 0.5 0.0
4.800000000000001 0.5 0.0
5.2 0.5 0.0
5.6000000000000005 0.5 0.0
6.0 0.5 0.0
6.4 0.5 0.0
6.800000000000001 0.5 0.0
7.2 0.5 0.0
7.6000000000000005 0.5 0.0
8.0 0.5 0.0
8.4 0.5 0.0
8.8 0.5 0.0
9.200000000000001 0.5 0.0
9.600000000000001 0.5 0.0
10.0 0.5 0.0
10.4 0.5 0.0
10.8 0.5 0.0
11.200000000000001 0.5 0.0
11.600000000000001 0.5 0.0
12.0 0.5 0.0
12.4 0.5 0.0
12.8 0.5 0.0
13.200000000000001 0.5 0.0
13.600000000000001 0.5 0.0
14.0 0.5 0.0
14.4 0.5 0.0
14.8 0.5 0.0
15.200000000000001 0.5 0.0
15.600000000000001 0.5 0.0
16.0 0.5 0.0
0.0 0.6000000000000001 0.0
0.4 0.6000000000000001 0.0
0.8 0.6000000000000001 0.0
1.2000000000000002 0.6000000000000001 0.0
1.6 0.6000000000000001 0.0
2.0 0.6000000000000001 0.0
2.4000000000000004 0.6000000000000001 0.0
2.8000000000000003 0.6000000000000001 0.0
3.2 0.6000000000000001 0.0
3.6 0.6000000000000001 0.0
4.0 0.6000000000000001 0.0
4.4 0.6000000000000001 0.0
4.800000000000001 0.6000000000000001 0.0
5.2 0.6000000000000001 0.0
5.6000000000000005 0.6000000000000001 0.0
6.0 0.6000000000000001 0.0
6.4 0.6000000000000001 0.0
6.800000000000001 0.6000000000000001 0.0
7.2 0.6000000000000001 0.0
7.6000000000000005 0.6000000000000001 0.0
8.0 0.6000000000000001 0.0
8.4 0.6000000000000001 0.0
8.8 0.6000000000000001 0.0
9.200000000000001 0.6000000000000001 0.0
9.600000000000001 0.6000000000000001 0.0
10.0 0.6000000000000001 0.0
10.4 0.6000000000000001 0.0
10.8 0.6000000000000001 0.0
11.200000000000001 0.6000000000000001 0.0
11.600000000000001 0.6000000000000001 0.0
12.0 0.6000000000000001 0.0
12.4 0.6000000000000001 0.0
12.8 0.6000000000000001 0.0
13.200000000000001 0.6000000000000001 0.0
13.600000000000001 0.6000000000000001 0.0
14.0 0.6000000000000001 0.0
14.4 0.6000000000000001 0.0
14.8 0.6000000000000001 0.0
15.200000000000001 0.6000000000000001 0.0
15.600000000000001 0.6000000000000001 0.0
16.0 0.6000000000000001 0.0
0.0 0.7000000000000001 0.0
0.4 0.7000000000000001 0.0
0.8 0.7000000000000001 0.0
1.2000000000000002 0.7000000000000001 0.0
1.6 0.7000000000000001 0.0
2.0 0.7000000000000001 0.0
2.4000000000000004 0.7000000000000001 0.0
2.8000000000000003 0.7000000000000001 0.0
3.2 0.7000000000000001 0.0
3.6 0.7000000000000001 0.0
4.0 0.7000000000000001 0.0
4.4 0.7000000000000001 0.0
4.800000000000001 0.7000000000000001 0.0
5.2 0.7000000000000001 0.0
5.6000000000000005 0.7000000000000001 0.0
6.0 0.7000000000000001 0.0
6.4 0.7000000000000001 0.0
6.800000000000001 0.7000000000000001 0.0
7.2 0.7000000000000001 0.0
7.6000000000000005 0.7000000000000001 0.0
8.0 0.7000000000000001 0.0
8.4 0.7000000000000001 0.0
8.8 0.7000000000000001 0.0
9.200000000000001 0.7000000000000001 0.0
9.600000000000001 0.7000000000000001 0.0
10.0 0.7000000000000001 0.0
10.4 0.7000000000000001 0.0
10.8 0.7000000000000001 0.0
11.200000000000001 0.7000000000000001 0.0
11.600000000000001 0.7000000000000001 0.0
12.0 0.7000000000000001 0.0
12.4 0.7000000000000001 0.0
12.8 0.7000000000000001 0.0
13.200000000000001 0.7000000000000001 0.0
13.600000000000001 0.7000000000000001 0.0
14.0 0.7000000000000001 0.0
14.4 0.7000000000000001 0.0
14.8 0.7000000000000001 0.0
15.200000000000001 0.7000000000000001 0.0
15.600000000000001 0.7000000000000001 0.0
16.0 0.7000000000000001 0.0
0.0 0.8 0.0
0.4 0.8 0.0
0.8 0.8 0.0
1.2000000000000002 0.8 0.0
1.6 0.8 0.0
2.0 0.8 0.0
2.4000000000000004 0.8 0.0
2.8000000000000003 0.8 0.0
3.2 0.8 0.0
3.6 0.8 0.0
4.0 0.8 0.0
4.4 0.8 0.0
4.800000000000001 0.8 0.0
5.2 0.8 0.0
5.6000000000000005 0.8 0.0
6.0 0.8 0.0
6.4 0.8 0.0
6.800000000000001 0.8 0.0
7.2 0.8 0.0
7.6000000000000005 0.8 0.0
8.0 0.8 0.0
8.4 0.8 0.0
8.8 0.8 0.0
9.200000000000001 0.8 0.0
9.600000000000001 0.8 0.0
10.0 0.8 0.0
10.4 0.8 0.0
10.8 0.8 0.0
11.200000000000001 0.8 0.0
11.600000000000001 0.8 0.0
12.0 0.8 0.0
12.4 0.8 0.0
12.8 0.8 0.0
13.200000000000001 0.8 0.0
13.600000000000001 0.8 0.0
14.0 0.8 0.0
14.4 0.8 0.0
14.8 0.8 0.0
15.200000000000001 0.8 0.0
15.600000000000001 0.8 0.0
16.0 0.8 0.0
0.0 0.9 0.0
0.4 0.9 0.0
0.8 0.9 0.0
1.2000000000000002 0.9 0.0
1.6 0.9 0.0
2.0 0.9 0.0
2.4000000000000004 0.9 0.0
2.8000000000000003 0.9 0.0
3.2 0.9 0.0
3.6 0.9 0.0
4.0 0.9 0.0
4.4 0.9 0.0
4.800000000000001 0.9 0.0
5.2 0.9 0.0
5.6000000000000005 0.9 0.0
6.0 0.9 0.0
6.4 0.9 0.0
6.800000000000001 0.9 0.0
7.2 0.9 0.0
7.6000000000000005 0.9 0.0
8.0 0.9 0.0
8.4 0.9 0.0
8.8 0.9 0.0
9.200000000000001 0.9 0.0
9.600000000000001 0.9 0.0
10.0 0.9 0.0
10.4 0.9 0.0
10.8 0.9 0.0
11.200000000000001 0.9 0.0
11.600000000000001 0.9 0.0
12.0 0.9 0.0
12.4 0.9 0.0
12.8 0.9 0.0
13.200000000000001 0.9 0.0
13.600000000000001 0.9 0.0
14.0 0.9 0.0
14.4 0.9 0.0
14.8 0.9 0.0
15.200000000000001 0.9 0.0
15.600000000000001 0.9 0.0
16.0 0.9 0.0
0.0 1.0 0.0
0.4 1.0 0.0
0.8 1.0 0.0
1.2000000000000002 1.0 0.0
1.6 1.0 0.0
2.0 1.0 0.0
2.4000000000000004 1.0 0.0
2.8000000000000003 1.0 0.0
3.2 1.0 0.0
3.6 1.0 0.0
4.0 1.0 0.0
4.4 1.0 0.0
4.800000000000001 1.0 0.0
5.2 1.0 0.0
5.6000000000000005 1.0 0.0
6.0 1.0 0.0
6.4 1.0 0.0
6.800000000000001 1.0 0.0
7.2 1.0 0.0
7.6000000000000005 1.0 0.0
8.0 1.0 0.0
8.4 1.0 0.0
8.8 1.0 0.0
9.200000000000001 1.0 0.0
9.600000000000001 1.0 0.0
10.0 1.0 0.0
10.4 1.0 0.0
10.8 1.0 0.0
11.200000000000001 1.0 0.0
11.600000000000001 1.0 0.0
12.0 1.0 0.0
12.4 1.0 0.0
12.8 1.0 0.0
13.200000000000001 1.0 0.0
13.600000000000001 1.0 0.0
14.0 1.0 0.0
14.4 1.0 0.0
14.8 1.0 0.0
15.200000000000001 1.0 0.0
15.600000000000001 1.0 0.0
16.0 1.0 0.0
0.0 1.1 0.0
0.4 1.1 0.0
0.8 1.1 0.0
1.2000000000000002 1.1 0.0
1.6 1.1 0.0
2.0 1.1 0.0
2.4000000000000004 1.1 0.0
2.8000000000000003 1.1 0.0
3.2 1.1 0.0
3.6 1.1 0.0
4.0 1.1 0.0
4.4 1.1 0.0
4.800000000000001 1.1 0.0
5.2 1.1 0.0
5.6000000000000005 1.1 0.0
6.0 1.1 0.0
6.4 1.1 0.0
6.800000000000001 1.1 0.0
7.2 1.1 0.0
7.6000000000000005 1.1 0.0
8.0 1.1 0.0
8.4 1.1 0.0
8.8 1.1 0.0
9.200000000000001 1.1 0.0
9.600000000000001 1.1 0.0
10.0 1.1 0.0
10.4 1.1 0.0
10.8 1.1 0.0
11.200000000000001 1.1 0.0
11.600000000000001 1.1 0.0
12.0 1.1 0.0
12.4 1.1 0.0
12.8 1.1 0.0
13.200000000000001 1.1 0.0
13.600000000000001 1.1 0.0
14.0 1.1 0.0
14.4 1.1 0.0
14.8 1.1 0.0
15.200000000000001 1.1 0.0
15.600000000000001 1.1 0.0
16.0 1.1 0.0
0.0 1.2000000000000002 0.0
0.4 1.2000000000000002 0.0
0.8 1.2000000000000002 0.0
1.2000000000000002 1.2000000000000002 0.0
1.6 1.2000000000000002 0.0
2.0 1.2000000000000002 0.0
2.4000000000000004 1.2000000000000002 0.0
2.8000000000000003 1.2000000000000002 0.0
3.2 1.2000000000000002 0.0
3.6 1.2000000000000002 0.0
4.0 1.2000000000000002 0.0
4.4 1.2000000000000002 0.0
4.800000000000001 1.2000000000000002 0.0
5.2 1.2000000000000002 0.0
5.6000000000000005 1.2000000000000002 0.0
6.0 1.2000000000000002 0.0
6.4 1.2000000000000002 0.0
6.800000000000001 1.2000000000000002 0.0
7.2 1.2000000000000002 0.0
7.6000000000000005 1.2000000000000002 0.0
8.0 1.2000000000000002 0.0
8.4 1.2000000000000002 0.0
8.8 1.2000000000000002 0.0
9.200000000000001 1.2000000000000002 0.0
9.600000000000001 1.2000000000000002 0.0
10.0 1.2000000000000002 0.0
10.4 1.2000000000000002 0.0
10.8 1.2000000000000002 0.0
11.200000000000001 1.2000000000000002 0.0
11.600000000000001 1.2000000000000002 0.0
12.0 1.2000000000000002 0.0
12.4 1.2000000000000002 0.0
12.8 1.2000000000000002 0.0
13.200000000000001 1.2000000000000002 0.0
13.600000000000001 1.2000000000000002 0.0
14.0 1.2000000000000002 0.0
14.4 1.2000000000000002 0.0
14.8 1.2000000000000002 0.0
15.200000000000001 1.2000000000000002 0.0
15.600000000000001 1.2000000000000002 0.0
16.0 1.2000000000000002 0.0
0.0 1.3 0.0
0.4 1.3 0.0
0.8 1.3 0.0
1.2000000000000002 1.3 0.0
1.6 1.3 0.0
2.0 1.3 0.0
2.4000000000000004 1.3 0.0
2.8000000000000003 1.3 0.0
3.2 1.3 0.0
3.6 1.3 0.0
4.0 1.3 0.0
4.4 1.3 0.0
4.800000000000001 1.3 0.0
5.2 1.3 0.0
5.6000000000000005 1.3 0.0
6.0 1.3 0.0
6.4 1.3 0.0
6.800000000000001 1.3 0.0
7.2 1.3 0.0
7.6000000000000005 1.3 0.0
8.0 1.3 0.0
8.4 1.3 0.0
8.8 1.3 0.0
9.200000000000001 1.3 0.0
9.600000000000001 1.3 0.0
10.0 1.3 0.0
10.4 1.3 0.0
10.8 1.3 0.0
11.200000000000001 1.3 0.0
11.600000000000001 1.3 0.0
12.0 1.3 0.0
12.4 1.3 0.0
12.8 1.3 0.0
13.200000000000001 1.3 0.0
13.600000000000001 1.3 0.0
14.0 1.3 0.0
14.4 1.3 0.0
14.8 1.3 0.0
15.200000000000001 1.3 0.0
15.600000000000001 1.3 0.0
16.0 1.3 0.0
0.0 1.4000000000000001 0.0
0.4 1.4000000000000001 0.0
0.8 1.4000000000000001 0.0
1.2000000000000002 1.4000000000000001 0.0
1.6 1.4000000000000001 0.0
2.0 1.4000000000000001 0.0
2.4000000000000004 1.4000000000000001 0.0
2.8000000000000003 1.4000000000000001 0.0
3.2 1.4000000000000001 0.0
3.6 1.4000000000000001 0.0
4.0 1.4000000000000001 0.0
4.4 1.4000000000000001 0.0
4.800000000000001 1.4000000000000001 0.0
5.2 1.4000000000000001 0.0
5.6000000000000005 1.4000000000000001 0.0
6.0 1.4000000000000001 0.0
6.4 1.4000000000000001 0.0
6.800000000000001 1.4000000000000001 0.0
7.2 1.4000000000000001 0.0
7.6000000000000005 1.4000000000000001 0.0
8.0 1.4000000000000001 0.0
8.4 1.4000000000000001 0.0
8.8 1.4000000000000001 0.0
9.200000000000001 1.4000000000000001 0.0
9.600000000000001 1.4000000000000001 0.0
10.0 1.4000000000000001 0.0
10.4 1.4000000000000001 0.0
10.8 1.4000000000000001 0.0
11.200000000000001 1.4000000000000001 0.0
11.600000000000001 1.4000000000000001 0.0
12.0 1.4000000000000001 0.0
12.4 1.4000000000000001 0.0
12.8 1.4000000000000001 0.0
13.200000000000001 1.4000000000000001 0.0
13.600000000000001 1.4000000000000001 0.0
14.0 1.4000000000000001 0.0
14.4 1.4000000000000001 0.0
14.8 1.4000000000000001 0.0
15.200000000000001 1.4000000000000001 0.0
15.600000000000001 1.4000000000000001 0.0
16.0 1.4000000000000001 0.0
0.0 1.5 0.0
0.4 1.5 0.0
0.8 1.5 0.0
1.2000000000000002 1.5 0.0
1.6 1.5 0.0
2.0 1.5 0.0
2.4000000000000004 1.5 0.0
2.8000000000000003 1.5 0.0
3.2 1.5 0.0
3.6 1.5 0.0
4.0 1.5 0.0
4.4 1.5 0.0
4.800000000000001 1.5 0.0
5.2 1.5 0.0
5.6000000000000005 1.5 0.0
6.0 1.5 0.0
6.4 1.5 0.0
6.800000000000001 1.5 0.0
7.2 1.5 0.0
7.6000000000000005 1.5 0.0
8.0 1.5 0.0
8.4 1.5 0.0
8.8 1.5 0.0
9.200000000000001 1.5 0.0
9.600000000000001 1.5 0.0
10.0 1.5 0.0
10.4 1.5 0.0
10.8 1.5 0.0
11.200000000000001 1.5 0.0
11.600000000000001 1.5 0.0
12.0 1.5 0.0
12.4 1.5 0.0
12.8 1.5 0.0
13.200000000000001 1.5 0.0
13.600000000000001 1.5 0.0
14.0 1.5 0.0
14.4 1.5 0.0
14.8 1.5 0.0
15.200000000000001 1.5 0.0
15.600000000000001 1.5 0.0
16.0 1.5 0.0
0.0 1.6 0.0
0.4 1.6 0.0
0.8 1.6 0.0
1.2000000000000002 1.6 0.0
1.6 1.6 0.0
2.0 1.6 0.0
2.4000000000000004 1.6 0.0
2.8000000000000003 1.6 0.0
3.2 1.6 0.0
3.6 1.6 0.0
4.0 1.6 0.0
4.4 1.6 0.0
4.800000000000001 1.6 0.0
5.2 1.6 0.0
5.6000000000000005 1.6 0.0
6.0 1.6 0.0
6.4 1.6 0.0
6.800000000000001 1.6 0.0
7.2 1.6 0.0
7.6000000000000005 1.6 0.0
8.0 1.6 0.0
8.4 1.6 0.0
8.8 1.6 0.0
9.200000000000001 1.6 0.0
9.600000000000001 1.6 0.0
10.0 1.6 0.0
10.4 1.6 0.0
10.8 1.6 0.0
11.200000000000001 1.6 0.0
11.600000000000001 1.6 0.0
12.0 1.6 0.0
12.4 1.6 0.0
12.8 1.6 0.0
13.200000000000001 1.6 0.0
13.600000000000001 1.6 0.0
14.0 1.6 0.0
14.4 1.6 0.0
14.8 1.6 0.0
15.200000000000001 1.6 0.0
15.600000000000001 1.6 0.0
16.0 1.6 0.0
0.0 1.7000000000000002 0.0
0.4 1.7000000000000002 0.0
0.8 1.7000000000000002 0.0
1.2000000000000002 1.7000000000000002 0.0
1.6 1.7000000000000002 0.0
2.0 1.7000000000000002 0.0
2.4000000000000004 1.7000000000000002 0.0
2.8000000000000003 1.7000000000000002 0.0
3.2 1.7000000000000002 0.0
3.6 1.7000000000000002 0.0
4.0 1.7000000000000002 0.0
4.4 1.7000000000000002 0.0
4.800000000000001 1.7000000000000002 0.0
5.2 1.7000000000000002 0.0
5.6000000000000005 1.7000000000000002 0.0
6.0 1.7000000000000002 0.0
6.4 1.7000000000000002 0.0
6.800000000000001 1.7000000000000002 0.0
7.2 1.7000000000000002 0.0
7.6000000000000005 1.7000000000000002 0.0
8.0 1.7000000000000002 0.0
8.4 1.7000000000000002 0.0
8.8 1.7000000000000002 0.0
9.200000000000001 1.7000000000000002 0.0
9.600000000000001 1.7000000000000002 0.0
10.0 1.7000000000000002 0.0
10.4 1.7000000000000002 0.0
10.8 1.7000000000000002 0.0
11.200000000000001 1.7000000000000002 0.0
11.600000000000001 1.7000000000000002 0.0
12.0 1.7000000000000002 0.0
12.4 1.7000000000000002 0.0
12.8 1.7000000000000002 0.0
13.200000000000001 1.7000000000000002 0.0
13.600000000000001 1.7000000000000002 0.0
14.0 1.7000000000000002 0.0
14.4 1.7000000000000002 0.0
14.8 1.7000000000000002 0.0
15.200000000000001 1.7000000000000002 0.0
15.600000000000001 1.7000000000000002 0.0
16.0 1.7000000000000002 0.0
0.0 1.8 0.0
0.4 1.8 0.0
0.8 1.8 0.0
1.2000000000000002 1.8 0.0
1.6 1.8 0.0
2.0 1.8 0.0
2.4000000000000004 1.8 0.0
2.8000000000000003 1.8 0.0
3.2 1.8 0.0
3.6 1.8 0.0
4.0 1.8 0.0
4.4 1.8 0.0
4.800000000000001 1.8 0.0
5.2 1.8 0.0
5.6000000000000005 1.8 0.0
6.0 1.8 0.0
6.4 1.8 0.0
6.800000000000001 1.8 0.0
7.2 1.8 0.0
7.6000000000000005 1.8 0.0
8.0 1.8 0.0
8.4 1.8 0.0
8.8 1.8 0.0
9.200000000000001 1.8 0.0
9.600000000000001 1.8 0.0
10.0 1.8 0.0
10.4 1.8 0.0
10.8 1.8 0.0
11.200000000000001 1.8 0.0
11.600000000000001 1.8 0.0
12.0 1.8 0.0
12.4 1.8 0.0
12.8 1.8 0.0
13.200000000000001 1.8 0.0
13.600000000000001 1.8 0.0
14.0 1.8 0.0
14.4 1.8 0.0
14.8 1.8 0.0
15.200000000000001 1.8 0.0
15.600000000000001 1.8 0.0
16.0 1.8 0.0
0.0 1.9000000000000001 0.0
0.4 1.9000000000000001 0.0
0.8 1.9000000000000001 0.0
1.2000000000000002 1.9000000000000001 0.0
1.6 1.9000000000000001 0.0
2.0 1.9000000000000001 0.0
2.4000000000000004 1.9000000000000001 0.0
2.8000000000000003 1.9000000000000001 0.0
3.2 1.9000000000000001 0.0
3.6 1.9000000000000001 0.0
4.0 1.9000000000000001 0.0
4.4 1.9000000000000001 0.0
4.800000000000001 1.9000000000000001 0.0
5.2 1.9000000000000001 0.0
5.6000000000000005 1.9000000000000001 0.0
6.0 1.9000000000000001 0.0
6.4 1.9000000000000001 0.0
6.800000000000001 1.9000000000000001 0.0
7.2 1.9000000000000001 0.0
7.6000000000000005 1.9000000000000001 0.0
8.0 1.9000000000000001 0.0
8.4 1.9000000000000001 0.0
8.8 1.9000000000000001 0.0
9.200000000000001 1.9000000000000001 0.0
9.600000000000001 1.9000000000000001 0.0
10.0 1.9000000000000001 0.0
10.4 1.9000000000000001 0.0
10.8 1.9000000000000001 0.0
11.200000000000001 1.9000000000000001 0.0
11.600000000000001 1.9000000000000001 0.0
12.0 1.9000000000000001 0.0
12.4 1.9000000000000001 0.0
12.8 1.9000000000000001 0.0
13.200000000000001 1.9000000000000001 0.0
13.600000000000001 1.9000000000000001 0.0
14.0 1.9000000000000001 0.0
14.4 1.9000000000000001 0.0
14.8 1.9000000000000001 0.0
15.200000000000001 1.9000000000000001 0.0
15.600000000000001 1.9000000000000001 0.0
16.0 1.9000000000000001 0.0
0.0 2.0 0.0
0.4 2.0 0.0
0.8 2.0 0.0
1.2000000000000002 2.0 0.0
1.6 2.0 0.0
2.0 2.0 0.0
2.4000000000000004 2.0 0.0
2.8000000000000003 2.0 0.0
3.2 2.0 0.0
3.6 2.0 0.0
4.0 2.0 0.0
4.4 2.0 0.0
4.800000000000001 2.0 0.0
5.2 2.0 0.0
5.6000000000000005 2.0 0.0
6.0 2.0 0.0
6.4 2.0 0.0
6.800000000000001 2.0 0.0
7.2 2.0 0.0
7.6000000000000005 2.0 0.0
8.0 2.0 0.0
8.4 2.0 0.0
8.8 2.0 0.0
9.200000000000001 2.0 0.0
9.600000000000001 2.0 0.0
10.0 2.0 0.0
10.4 2.0 0.0
10.8 2.0 0.0
11.200000000000001 2.0 0.0
11.600000000000001 2.0 0.0
12.0 2.0 0.0
12.4 2.0 0.0
12.8 2.0 0.0
13.200000000000001 2.0 0.0
13.600000000000001 2.0 0.0
14.0 2.0 0.0
14.4 2.0 0.0
14.8 2.0 0.0
15.200000000000001 2.0 0.0
15.600000000000001 2.0 0.0
16.0 2.0 0.0
CELLS 800 4000
4 0 1 42 41
4 1 2 43 42
4 2 3 44 43
4 3 4 45 44
4 4 5 46 45
4 5 6 47 46
4 6 7 48 47
4 7 8 49 48
4 8 9 50 49
4 9 10 51 50
4 10 11 52 51
4 11 12 53 52
4 12 13 54 53
4 13 14 55 54
4 14 15 56 55
4 15 16 57 56
4 16 17 58 57
4 17 18 59 58
4 18 19 60 59
4 19 20 61 60
4 20 21 62 61
4 21 22 63 62
4 22 23 64 63
4 23 24 65 64
4 24 25 66 65
4 25 26 67 66
4 26 27 68 67
4 27 28 69 68
4 28 29 70 69
4 29 30 71 70
4 30 31 72 71
4 31 32 73 72
4 32 33 74 73
4 33 34 75 74
4 34 35 76 75
4 35 36 77 76
4 36 37 78 77
4 37 38 79 78
4 38 39 80 79
4 39 40 81 80
4 41 42 83 82
4 42 43 84 83
4 43 44 85 84
4 44 45 86 85
4 45 46 87 86
4 46 47 88 87
4 47 48 89 88
4 48 49 90 89
4 49 50 91 90
4 50 51 92 91
4 51 52 93 92
4 52 53 94 93
4 53 54 95 94
4 54 55 96 95
4 55 56 97 96
4 56 57 98 97
4 57 58 99 98
4 58 59 100 99
4 59 60 101 100
4 60 61 102 101
4 61 62 103 102
4 62 63 104 103
4 63 64 105 104
4 64 65 106 105
4 65 66 107 106
4 66 67 108 107
4 67 68 109 108
4 68 69 110 109
4 69 70 111 110
4 70 71 112 111
4 71 72 113 112
4 72 73 114 113
4 73 74 115 114
4 74 75 116 115
4 75 76 117 116
4 76 77 118 117
4 77 78 119 118
4 78 79 120 119
4 79 80 121 120
4 80 81 122 121
4 82 83 124 123
4 83 84 125 124
4 84 85 126 125
4 85 86 127 126
4 86 87 128 127
4 87 88 129 128
4 88 89 130 129
4 89 90 131 130
4 90 91 132 131
4 91 92 133 132
4 92 93 134 133
4 93 94 135 134
4 94 95 136 135
4 95 96 137 136
4 96 97 138 137
4 97 98 139 138
4 98 99 140 139
4 99 100 141 140
4 100 101 142 141
4 101 102 143 142
4 102 103 144 143
4 103 104 145 144
4 104 105 146 145
4 105 106 147 146
4 106 107 148 147
4 107 108 149 148
4 108 109 150 149
4 109 110 151 150
4 110 111 152 151
4 111 112 153 152
4 112 113 154 153
4 113 114 155 154
4 114 115 156 155
4 115 116 157 156
4 116 117 158 157
4 117 118 159 158
4 118 119 160 159
4 119 120 161 160
4 120 121 162 161
4 121 122 163 162
4 123 124 165 164
4 124 125 166 165
4 125 126 167 166
4 126 127 168 167
4 127 128 169 168
4 128 129 170 169
4 129 130 171 170
4 130 131 172 171
4 131 132 173 172
4 132 133 174 173
4 133 134 175 174
4 134 135 176 175
4 135 136 177 176
4 136 137 178 177
4 137 138 179 178
4 138 139 180 179
4 139 140 181 180
4 140 141 182 181
4 141 142 183 182
4 142 143 184 183
4 143 144 185 184
4 144 145 186 185
4 145 146 187 186
4 146 147 188 187
4 147 148 189 188
4 148 149 190 189
4 149 150 191 190
4 150 151 192 191
4 151 152 193 192
4 152 153 194 193
4 153 154 195 194
4 154 155 196 195
4 155 156 197 196
4 156 157 198 197
4 157 158 199 198
4 158 159 200 199
4 159 160 201 200
4 160 161 202 201
4 161 162 203 202
4 162 163 204 203
4 164 165 206 205
4 165 166 207 206
4 166 167 208 207
4 167 168 209 208
4 168 169 210 209
4 169 170 211 210
4 170 171 212 211
4 171 172 213 212
4 172 173 214 213
4 173 174 215 214
4 174 175 216 215
4 175 176 217 216
4 176 177 218 217
4 177 178 219 218
4 178 179 220 219
4 179 180 221 220
4 180 181 222 221
4 181 182 223 222
4 182 183 224 223
4 183 184 225 224
4 184 185 226 225
4 185 186 227 226
4 186 187 228 227
4 187 188 229 228
4 188 189 230 229
4 189 190 231 230
4 190 191 232 231
4 191 192 233 232
4 192 193 234 233
4 193 194 235 234
4 194 195 236 235
4 195 196 237 236
4 196 197 238 237
4 197 198 239 238
4 198 199 240 239
4 199 200 241 240
4 200 201 242 241
4 201 202 243 242
4 202 203 244 243
4 203 204 245 244
4 205 206 247 246
4 206 207 248 247
4 207 208 249 248
4 208 209 250 249
4 209 210 251 250
4 210 211 252 251
4 211 212 253 252
4 212 213 254 253
4 213 214 255 254
4 214 215 256 255
4 215 216 257 256
4 216 217 258 257
4 217 218 259 258
4 218 219 260 259
4 219 220 261 260
4 220 221 262 261
4 221 222 263 262
4 222 223 264 263
4 223 224 265 264
4 224 225 266 265
4 225 226 267 266
4 226 227 268 267
4 227 228 269 268
4 228 229 270 269
4 229 230 271 270
4 230 231 272 271
4 231 232 273 272
4 232 233 274 273
4 233 234 275 274
4 234 235 276 275
4 235 236 277 276
4 236 237 278 277
4 237 238 279 278
4 238 239 280 279
4 239 240 281 280
4 240 241 282 281
4 241 242 283 282
4 242 243 284 283
4 243 244 285 284
4 244 245 286 285
4 246 247 288 287
4 247 248 289 288
4 248 249 290 289
4 249 250 291 290
4 250 251 292 291
4 251 252 293 292
4 252 253 294 293
4 253 254 295 294
4 254 255 296 295
4 255 256 297 296
4 256 257 298 297
4 257 258 299 298
4 258 259 300 299
4 259 260 301 300
4 260 261 302 301
4 261 262 303 302
4 262 263 304 303
4 263 264 305 304
4 264 265 306 305
4 265 266 307 306
4 266 267 308 307
4 267 268 309 308
4 268 269 310 309
4 269 270 311 310
4 270 271 312 311
4 271 272 313 312
4 272 273 314 313
4 273 274 315 314
4 274 275 316 315
4 275 276 317 316
4 276 277 318 317
4 277 278 319 318
4 278 279 320 319
4 279 280 321 320
4 280 281 322 321
4 281 282 323 322
4 282 283 324 323
4 283 284 325 324
4 284 285 326 325
4 285 286 327 326
4 287 288 329 328
4 288 289 330 329
4 289 290 331 330
4 290 291 332 331
4 291 292 333 332
4 292 293 334 333
4 293 294 335 334
4 294 295 336 335
4 295 296 337 336
4 296 297 338 337
4 297 298 339 338
4 298 299 340 339
4 299 300 341 340
4 300 301 342 341
4 301 302 343 342
4 302 303 344 343
4 303 304 345 344
4 304 305 346 345
4 305 306 347 346
4 306 307 348 347
4 307 308 349 348
4 308 309 350 349
4 309 310 351 350
4 310 311 352 351
4 311 312 353 352
4 312 313 354 353
4 313 314 355 354
4 314 315 356 355
4 315 316 357 356
4 316 317 358 357
4 317 318 359 358
4 318 319 360 359
4 319 320 361 360
4 320 321 362 361
4 321 322 363 362
4 322 323 364 363
4 323 324 365 364
4 324 325 366 365
4 325 326 367 366
4 326 327 368 367
4 328 329 370 369
4 329 330 371 370
4 330 331 372 371
4 331 332 373 372
4 332 333 374 373
4 333 334 375 374
4 334 335 376 375
4 335 336 377 376
4 336 337 378 377
4 337 338 379 378
4 338 339 380 379
4 339 340 381 380
4 340 341 382 381
4 341 342 383 382
4 342 343 384 383
4 343 344 385 384
4 344 345 386 385
4 345 346 387 386
4 346 347 388 387
4 347 348 389 388
4 348 349 390 389
4 349 350 391 390
4 350 351 392 391
4 351 352 393 392
4 352 353 394 393
4 353 354 395 394
4 354 355 396 395
4 355 356 397 396
4 356 357 398 397
4 357 358 399 398
4 358 359 400 399
4 359 360 401 400
4 360 361 402 401
4 361 362 403 402
4 362 363 404 403
4 363 364 405 404
4 364 365 406 405
4 365 366 407 406
4 366 367 408 407
4 367 368 409 408
4 369 370 411 410
4 370 371 412 411
4 371 372 413 412
4 372 373 414 413
4 373 374 415 414
4 374 375 416 415
4 375 376 417 416
4 376 377 418 417
4 377 378 419 418
4 378 379 420 419
4 379 380 421 420
4 380 381 422 421
4 381 382 423 422
4 382 383 424 423
4 383 384 425 424
4 384 385 426 425
4 385 386 427 426
4 386 387 428 427
4 387 388 429 428
4 388 389 430 429
4 389 390 431 430
4 390 391 432 431
4 391 392 433 432
4 392 393 434 433
4 393 394 435 434
4 394 395 436 435
4 395 396 437 436
4 396 397 438 437
4 397 398 439 438
4 398 399 440 439
4 399 400 441 440
4 400 401 442 441
4 401 402 443 442
4 402 403 444 443
4 403 404 445 444
4 404 405 446 445
4 405 406 447 446
4 406 407 448 447
4 407 408 449 448
4 408 409 450 449
4 410 411 452 451
4 411 412 453 452
4 412 413 454 453
4 413 414 455 454
4 414 415 456 455
4 415 416 457 456
4 416 417 458 457
4 417 418 459 458
4 418 419 460 459
4 419 420 461 460
4 420 421 462 461
4 421 422 463 462
4 422 423 464 463
4 423 424 465 464
4 424 425 466 465
4 425 426 467 466
4 426 427 468 467
4 427 428 469 468
4 428 429 470 469
4 429 430 471 470
4 430 431 472 471
4 431 432 473 472
4 432 433 474 473
4 433 434 475 474
4 434 435 476 475
4 435 436 477 476
4 436 437 478 477
4 437 438 479 478
4 438 439 480 479
4 439 440 481 480
4 440 441 482 481
4 441 442 483 482
4 442 443 484 483
4 443 444 485 484
4 444 445 486 485
4 445 446 487 486
4 446 447 488 487
4 447 448 489 488
4 448 449 490 489
4 449 450 491 490
4 451 452 493 492
4 452 453 494 493
4 453 454 495 494
4 454 455 496 495
4 455 456 497 496
4 456 457 498 497
4 457 458 499 498
4 458 459 500 499
4 459 460 501 500
4 460 461 502 501
4 461 462 503 502
4 462 463 504 503
4 463 464 505 504
4 464 465 506 505
4 465 466 507 506
4 466 467 508 507
4 467 468 509 508
4 468 469 510 509
4 469 470 511 510
4 470 471 512 511
4 471 472 513 512
4 472 473 514 513
4 473 474 515 514
4 474 475 516 515
4 475 476 517 516
4 476 477 518 517
4 477 478 519 518
4 478 479 520 519
4 479 480 521 520
4 480 481 522 521
4 481 482 523 522
4 482 483 524 523
4 483 484 525 524
4 484 485 526 525
4 485 486 527 526
4 486 487 528 527
4 487 488 529 528
4 488 489 530 529
4 489 490 531 530
4 490 491 532 531
4 492 493 534 533
4 493 494 535 534
4 494 495 536 535
4 495 496 537 536
4 496 497 538 537
4 497 498 539 538
4 498 499 540 539
4 499 500 541 540
4 500 501 542 541
4 501 502 543 542
4 502 503 544 543
4 503 504 545 544
4 504 505 546 545
4 505 506 547 546
4 506 507 548 547
4 507 508 549 548
4 508 509 550 549
4 509 510 551 550
4 510 511 552 551
4 511 512 553 552
4 512 513 554 553
4 513 514 555 554
4 514 515 556 555
4 515 516 557 556
4 516 517 558 557
4 517 518 559 558
4 518 519 560 559
4 519 520 561 560
4 520 521 562 561
4 521 522 563 562
4 522 523 564 563
4 523 524 565 564
4 524 525 566 565
4 525 526 567 566
4 526 527 568 567
4 527 528 569 568
4 528 529 570 569
4 529 530 571 570
4 530 531 572 571
4 531 532 573 572
4 533 534 575 574
4 534 535 576 575
4 535 536 577 576
4 536 537 578 577
4 537 538 579 578
4 538 539 580 579
4 539 540 581 580
4 540 541 582 581
4 541 542 583 582
4 542 543 584 583
4 543 544 585 584
4 544 545 586 585
4 545 546 587 586
4 546 547 588 587
4 547 548 589 588
4 548 549 590 589
4 549 550 591 590
4 550 551 592 591
4 551 552 593 592
4 552 553 594 593
4 553 554 595 594
4 554 555 596 595
4 555 556 597 596
4 556 557 598 597
4 557 558 599 598
4 558 559 600 599
4 559 560 601 600
4 560 561 602 601
4 561 562 603 602
4 562 563 604 603
4 563 564 605 604
4 564 565 606 605
4 565 566 607 606
4 566 567 608 607
4 567 568 609 608
4 568 569 610 609
4 569 570 611 610
4 570 571 612 611
4 571 572 613 612
4 572 573 614 613
4 574 575 616 615
4 575 576 617 616
4 576 577 618 617
4 577 578 619 618
4 578 579 620 619
4 579 580 621 620
4 580 581 622 621
4 581 582 623 622
4 582 583 624 623
4 583 584 625 624
4 584 585 626 625
4 585 586 627 626
4 586 587 628 627
4 587 588 629 628
4 588 589 630 629
4 589 590 631 630
4 590 591 632 631
4 591 592 633 632
4 592 593 634 633
4 593 594 635 634
4 594 595 636 635
4 595 596 637 636
4 596 597 638 637
4 597 598 639 638
4 598 599 640 639
4 599 600 641 640
4 600 601 642 641
4 601 602 643 642
4 602 603 644 643
4 603 604 645 644
4 604 605 646 645
4 605 606 647 646
4 606 607 648 647
4 607 608 649 648
4 608 609 650 649
4 609 610 651 650
4 610 611 652 651
4 611 612 653 652
4 612 613 654 653
4 613 614 655 654
4 615 616 657 656
4 616 617 658 657
4 617 618 659 658
4 618 619 660 659
4 619 620 661 660
4 620 621 662 661
4 621 622 663 662
4 622 623 664 663
4 623 624 665 664
4 624 625 666 665
4 625 626 667 666
4 626 627 668 667
4 627 628 669 668
4 628 629 670 669
4 629 630 671 670
4 630 631 672 671
4 631 632 673 672
4 632 633 674 673
4 633 634 675 674
4 634 635 676 675
4 635 636 677 676
4 636 637 678 677
4 637 638 679 678
4 638 639 680 679
4 639 640 681 680
4 640 641 682 681
4 641 642 683 682
4 642 643 684 683
4 643 644 685 684
4 644 645 686 685
4 645 646 687 686
4 646 647 688 687
4 647 648 689 688
4 648 649 690 689
4 649 650 691 690
4 650 651 692 691
4 651 652 693 692
4 652 653 694 693
4 653 654 695 694
4 654 655 696 695
4 656 657 698 697
4 657 658 699 698
4 658 659 700 699
4 659 660 701 700
4 660 661 702 701
4 661 662 703 702
4 662 663 704 703
4 663 664 705 704
4 664 665 706 705
4 665 666 707 706
4 666 667 708 707
4 667 668 709 708
4 668 669 710 709
4 669 670 711 710
4 670 671 712 711
4 671 672 713 712
4 672 673 714 713
4 673 674 715 714
4 674 675 716 715
4 675 676 717 716
4 676 677 718 717
4 677 678 719 718
4 678 679 720 719
4 679 680 721 720
4 680 681 722 721
4 681 682 723 722
4 682 683 724 723
4 683 684 725 724
4 684 685 726 725
4 685 686 727 726
4 686 687 728 727
4 687 688 729 728
4 688 689 730 729
4 689 690 731 730
4 690 691 732 731
4 691 692 733 732
4 692 693 734 733
4 693 694 735 734
4 694 695 736 735
4 695 696 737 736
4 697 698 739 738
4 698 699 740 739
4 699 700 741 740
4 700 701 742 741
4 701 702 743 742
4 702 703 744 743
4 703 704 745 744
4 704 705 746 745
4 705 706 747 746
4 706 707 748 747
4 707 708 749 748
4 708 709 750 749
4 709 710 751 750
4 710 711 752 751
4 711 712 753 752
4 712 713 754 753
4 713 714 755 754
4 714 715 756 755
4 715 716 757 756
4 716 717 758 757
4 717 718 759 758
4 718 719 760 759
4 719 720 761 760
4 720 721 762 761
4 721 722 763 762
4 722 723 764 763
4 723 724 765 764
4 724 725 766 765
4 725 726 767 766
4 726 727 768 767
4 727 728 769 768
4 728 729 770 769
4 729 730 771 770
4 730 731 772 771
4 731 732 773 772
4 732 733 774 773
4 733 734 775 774
4 734 735 776 775
4 735 736 777 776
4 736 737 778 777
4 738 739 780 779
4 739 740 781 780
4 740 741 782 781
4 741 742 783 782
4 742 743 784 783
4 743 744 785 784
4 744 745 786 785
4 745 746 787 786
4 746 747 788 787
4 747 748 789 788
4 748 749 790 789
4 749 750 791 790
4 750 751 792 791
4 751 752 793 792
4 752 753 794 793
4 753 754 795 794
4 754 755 796 795
4 755 756 797 796
4 756 757 798 797
4 757 758 799 798
4 758 759 800 799
4 759 760 801 800
4 760 761 802 801
4 761 762 803 802
4 762 763 804 803
4 763 764 805 804
4 764 765 806 805
4 765 766 807 806
4 766 767 808 807
4 767 768 809 808
4 768 769 810 809
4 769 770 811 810
4 770 771 812 811
4 771 772 813 812
4 772 773 814 813
4 773 774 815 814
4 774 775 816 815
4 775 776 817 816
4 776 777 818 817
4 777 778 819 818
4 779 780 821 820
4 780 781 822 821
4 781 782 823 822
4 782 783 824 823
4 783 784 825 824
4 784 785 826 825
4 785 786 827 826
4 786 787 828 827
4 787 788 829 828
4 788 789 830 829
4 789 790 831 830
4 790 791 832 831
4 791 792 833 832
4 792 793 834 833
4 793 794 835 834
4 794 795 836 835
4 795 796 837 836
4 796 797 838 837
4 797 798 839 838
4 798 799 840 839
4 799 800 841 840
4 800 801 842 841
4 801 802 843 842
4 802 803 844 843
4 803 804 845 844
4 804 805 846 845
4 805 806 847 846
4 806 807 848 847
4 807 808 849 848
4 808 809 850 849
4 809 810 851 850
4 810 811 852 851
4 811 812 853 852
4 812 813 854 853
4 813 814 855 854
4 814 815 856 855
4 815 816 857 856
4 816 817 858 857
4 817 818 859 858
4 818 819 860 859
CELL_TYPES 800
9
9
9
9
9
9
9
9
9
9
9
9
9
9
9
9
9
9
9
9
9
9
9
9
9
9
9
9
9
9
9
9
9
9
9
9
9
9
9
9
9
9
9
9
9
9
9
9
9
9
9
9
9
9
9
9
9
9
9
9
9
9
9
9
9
9
9
9
9
9
9
9
9
9
9
9
9
9
9
9
9
9
9
9
9
9
9
9
9
9
9
9
9
9
9
9
9
9
9
9
9
9
9
9
9
9
9
9
9
9
9
9
9
9
9
9
9
9
9
9
9
9
9
9
9
9
9
9
9
9
9
9
9
9
9
9
9
9
9
9
9
9
9
9
9
9
9
9
9
9
9
9
9
9
9
9
9
9
9
9
9
9
9
9
9
9
9
9
9
9
9
9
9
9
9
9
9
9
9
9
9
9
9
9
9
9
9
9
9
9
9
9
9
9
9
9
9
9
9
9
9
9
9
9
9
9
9
9
9
9
9
9
9
9
9
9
9
9
9
9
9
9
9
9
9
9
9
9
9
9
9
9
9
9
9
9
9
9
9
9
9
9
9
9
9
9
9
9
9
9
9
9
9
9
9
9
9
9
9
9
9
9
9
9
9
9
9
9
9
9
9
9
9
9
9
9
9
9
9
9
9
9
9
9
9
9
9
9
9
9
9
9
9
9
9
9
9
9
9
9
9
9
9
9
9
9
9
9
9
9
9
9
9
9
9
9
9
9
9
9
9
9
9
9
9
9
9
9
9
9
9
9
9
9
9
9
9
9
9
9
9
9
9
9
9
9
9
9
9
9
9
9
9
9
9
9
9
9
9
9
9
9
9
9
9
9
9
9
9
9
9
9
9
9
9
9
9
9
9
9
9
9
9
9
9
9
9
9
9
9
9
9
9
9
9
9
9
9
9
9
9
9
9
9
9
9
9
9
9
9
9
9
9
9
9
9
9
9
9
9
9
9
9
9
9
9
9
9
9
9
9
9
9
9
9
9
9
9
9
9
9
9
9
9
9
9
9
9
9
9
9
9
9
9
9
9
9
9
9
9
9
9
9
9
9
9
9
9
9
9
9
9
9
9
9
9
9
9
9
9
9
9
9
9
9
9
9
9
9
9
9
9
9
9
9
9
9
9
9
9
9
9
9
9
9
9
9
9
9
9
9
9
9
9
9
9
9
9
9
9
9
9
9
9
9
9
9
9
9
9
9
9
9
9
9
9
9
9
9
9
9
9
9
9
9
9
9
9
9
9
9
9
9
9
9
9
9
9
9
9
9
9
9
9
9
9
9
9
9
9
9
9
9
9
9
9
9
9
9
9
9
9
9
9
9
9
9
9
9
9
9
9
9
9
9
9
9
9
9
9
9
9
9
9
9
9
9
9
9
9
9
9
9
9
9
9
9
9
9
9
9
9
9
9
9
9
9
9
9
9
9
9
9
9
9
9
9
9
9
9
9
9
9
9
9
9
9
9
9
9
9
9
9
9
9
9
9
9
9
9
9
9
9
9
9
9
9
9
9
9
9
9
9
9
9
9
9
9
9
9
9
9
9
9
9
9
9
9
9
9
9
9
9
9
9
9
9
9
9
9
9
9
9
9
9
9
9
9
9
9
9
9
9
9
9
9
9
9
9
9
9
9
9
9
9
9
9
9
9
9
9
9
9
9
9
9
9
9
9
9
9
9
9
9
9
9
9
9
9
9
9
9
9
9
9
9
9
9
9
9
9
9
9
9
9
9
9
9
9
9
9
9
9
9
9
9
9
9
9
9
9
9
9
9
9
9
9
9
9
9
9
9
9
9
9
9
9
9
9
9
POINT_DATA 861
SCALARS Disp float 2
LOOKUP_TABLE default
0.0 0.0
0.005341173931245666 -0.2067146019708553
0.0065567550092544245 -0.4048740489989728
0.007319006861301478 -0.6021063585001833
0.008275135334154504 -0.7990055160272486
0.009746002241145284 -0.9952282732456756
0.012236281449273327 -1.1903256497575696
0.01634182291669215 -1.3837386004001109
0.022757443248944034 -1.5747727570983343
0.03223823248117969 -1.7625328638858764
0.045545262604571424 -1.945816753297605
0.06341840199412863 -2.1230408108987935
0.08656546738662224 -2.2922460627721244
0.11565431223141515 -2.451183652463162
0.15131328927285373 -2.597384732502141
0.1940655356698506 -2.728212580697791
0.24420471639474975 -2.840923715250583
0.3016395422309638 -2.9327695751732508
0.36575430403209624 -3.0011808505421893
0.43534207773244266 -3.0440075158308852
0.5084603753520359 -3.059770268569534
0.581578672971626 -3.0440075158307915
0.6511664466719583 -3.0011808505419983
0.7152812084730663 -2.932769575172975
0.7727160343092493 -2.8409237152502373
0.8228552150341155 -2.7282125806973965
0.8656074614310788 -2.5973847325017076
0.9012664384724842 -2.4511836524627033
0.9303552833172423 -2.292246062771654
0.9535023487097032 -2.123040810898327
0.9713754880992318 -1.9458167532971549
0.9846825182226003 -1.7625328638854523
0.994163307454817 -1.574772757097942
1.000578927787055 -1.3837386003997567
1.0046844692544645 -1.1903256497572567
1.0071747484625868 -0.9952282732454102
1.0086456153695749 -0.7990055160270305
1.009601743842427 -0.6021063585000157
1.0103639956944737 -0.4048740489988545
1.0115795767724813 -0.20671460197078909
1.0169207507037237 0.0
0.05156605109598402 -0.002251935028897482
0.05526075708007177 -0.20693528951259232
0.05590503065040693 -0.40493518311073784
0.056584049165978936 -0.6021922932159299
0.05742884405183331 -0.7991338273027168
0.058687386861007336 -0.9954979301455513
0.06083532412852787 -1.1908718134147458
0.06443634133657637 -1.3847208517316285
0.07014367345184863 -1.5763687814531266
0.07864700673091699 -1.7649230480007436
0.09062507119284581 -1.949176180143839
0.10672298047392362 -2.127537539864574
0.12756124530817628 -2.2980422700908765
0.15374874122566357 -2.4584353628998747
0.1858612164391973 -2.60623512816551
0.22438753297580355 -2.738768730561411
0.2696146012677091 -2.8532214619624128
0.3214881435245931 -2.946736803892701
0.37948487384801466 -3.0166080919057867
0.44247979873847576 -3.060526563991194
0.5084603753520245 -3.0767357058226104
0.5744409519655698 -3.0605265639910986
0.6374358768560179 -3.0166080919055913
0.6954326071794179 -2.9467368038924184
0.7473061494362752 -2.8532214619620597
0.7925332177281512 -2.7387687305610084
0.8310595342647272 -2.606235128165069
0.8631720094782307 -2.4584353628994084
0.8893595053956871 -2.2980422700903986
0.9101977702299104 -2.1275375398641008
0.9262956795109624 -1.949176180143383
0.93827374397287 -1.7649230480003144
0.9467770772519212 -1.5763687814527307
0.9524844093671807 -1.3847208517312717
0.9560854265752209 -1.1908718134144312
0.9582333638427365 -0.9954979301452851
0.9594919066519083 -0.7991338273024986
0.9603367015377622 -0.6021922932157622
0.9610157200533339 -0.4049351831106196
0.961659993623669 -0.20693528951252577
0.9653546996077514 -0.002251935028895023
0.10221064029005682 -0.004029514381785519
0.10490177849734583 -0.20704318482660772
0.10527349920828868 -0.4049699043223667
0.10582837716042454 -0.6022683574002841
0.10657024348708623 -0.7992379675178212
0.10763825994463681 -0.9957115252118731
0.10945031861107803 -1.191323096862589
0.1125488397722426 -1.3855609165231184
0.11753616803485595 -1.577763104785761
0.12503949296313077 -1.7670348026606173
0.13565876057795098 -1.9521593533361294
0.14995325903553547 -2.1315376448869094
0.16845890041735795 -2.303202197092654
0.19171166112560983 -2.464897371404811
0.22023891293628342 -2.614131069535766
0.25449323173494726 -2.7482000641316966
0.29476230335271214 -2.8642286779404236
0.3410456479067556 -2.959265241891489
0.3929120872207756 -3.0304745427226263
0.44931038971325166 -3.07536552285405
0.5084603753520135 -3.0919817724457497
0.5676103609907717 -3.0753655228539523
0.624008663483236 -3.0304745427224273
0.6758751027972368 -2.959265241891201
0.7221584473512572 -2.864228677940064
0.7624275189689959 -2.7482000641312876
0.7966818377676328 -2.614131069535319
0.8252090895782792 -2.4648973714043376
0.8484618502865041 -2.3032021970921694
0.8669674916683008 -2.1315376448864294
0.8812619901258619 -1.9521593533356676
0.8918812577406633 -1.7670348026601839
0.8993845826689225 -1.5777631047853617
0.9043719109315245 -1.3855609165227591
0.9074704320926817 -1.1913230968622728
0.9092824907591187 -0.9957115252116062
0.9103505072166678 -0.7992379675176029
0.9110923735433291 -0.6022683574001164
0.911647251495465 -0.40496990432224844
0.9120189722064078 -0.20704318482654083
0.9147101104136917 -0.00402951438178042
0.15237175859867533 -0.005453992646709443
0.15439304450661098 -0.20711633617306713
0.15462053869707543 -0.4049893586329575
0.15505500975699063 -0.6023307057631067
0.15569396409596792 -0.7993249145453655
0.15659501074205873 -0.9958761365306421
0.15809033939863418 -1.191682598670268
0.16069109990378164 -1.3862600605481215
0.16495439465682832 -1.5789534863304697
0.1714441733889155 -1.7688637774159162
0.18068583751903394 -1.9547610139036347
0.193156669395861 -2.135036909827945
0.20931240075992183 -2.3077219999847647
0.2296146096017002 -2.4705635135718924
0.25452829560340995 -2.621064485898514
0.2844766789811857 -2.756497400071812
0.31975164642779175 -2.873936888919479
0.36040672852425154 -2.970349355721675
0.4061086719425124 -3.0427753341507837
0.4559656677564212 -3.0885584361530785
0.5084603753520026 -3.105584933942575
0.560955082947581 -3.088558436152979
0.6108120787614789 -3.042775334150581
0.656514022179723 -2.970349355721382
0.6971691042761627 -2.873936888919114
0.7324440717227458 -2.756497400071397
0.7623924551004979 -2.6210644858980605
0.7873061411021838 -2.470563513571413
0.8076083499439384 -2.3077219999842744
0.8237640813079768 -2.1350369098274595
0.8362349131847836 -1.9547610139031677
0.8454765773148855 -1.768863777415479
0.8519663560469588 -1.5789534863300676
0.8562296507999955 -1.3862600605477602
0.8588304113051366 -1.1916825986699509
0.8603257399617088 -0.9958761365303748
0.8612267866077985 -0.7993249145451471
0.8618657409467756 -0.6023307057629391
0.8623002120066907 -0.40498935863283936
0.8625277061971552 -0.2071163361729999
0.8645489921050863 -0.005453992646701957
0.20225559176953203 -0.006601750372220903
0.20378006522972145 -0.20717421900782132
0.2039287306163017 -0.405000546403169
0.20426101927644139 -0.6023792095621483
0.20479695803172376 -0.7993975084631663
0.20554933252020316 -0.9960025577313286
0.20676141683766758 -1.1919573464517452
0.20887445205002997 -1.3868208082762725
0.2124180354055246 -1.5799404273558688
0.2178899205787735 -1.7704081980390745
0.22574465927457624 -1.9569788684974692
0.2363824538721139 -2.1380329482427163
0.2501785015016902 -2.311599814266045
0.2675203039359314 -2.475431810122661
0.2888137270192875 -2.627031150527603
0.31443783570217443 -2.763654537206373
0.34468712059630213 -2.882338207999198
0.3796711253278285 -2.979979475261848
0.4191768178546553 -3.053510190501494
0.4625193437586323 -3.100130376277794
0.5084603753519922 -3.117588125596493
0.554401406945349 -3.100130376277692
0.5977439328493159 -3.053510190501288
0.6372496253761282 -2.9799794752615503
0.6722336301076374 -2.8823382079988287
0.7024829150017452 -2.7636545372059524
0.7281070236846118 -2.6270311505271438
0.749400446767947 -2.475431810122176
0.7667422492021683 -2.311599814265549
0.7805382968317255 -2.1380329482422264
0.7911760914292459 -1.9569788684969978
0.7990308301250342 -1.770408198038634
0.8045027152982713 -1.579940427355464
0.8080462986537573 -1.3868208082759095
0.8101593338661145 -1.1919573464514273
0.8113714181835764 -0.9960025577310611
0.8121237926720551 -0.7993975084629478
0.8126597314273372 -0.6023792095619805
0.8129920200874768 -0.40500054640305094
0.8131406854740572 -0.20717421900775382
0.8146651589342426 -0.006601750372211305
0.2519557971299332 -0.007520999396095546
0.2530938496152875 -0.20722334838894735
0.2531963151315838 -0.405008256672986
0.25344374829128724 -0.6024150105321882
0.2538767720915971 -0.7994575793386269
0.25449517263817834 -0.9960995908773977
0.25545548951519176 -1.1921595695992058
0.2571169327171902 -1.3872480707565906
0.25994707144384616 -1.580726609393842
0.26440600257540936 -1.7716691964303284
0.27087425195306863 -1.958812996724058
0.2796780303704888 -2.140526178351346
0.2911159709411608 -2.3148362827428213
0.3055004173842835 -2.4795027916055905
0.3231716279064335 -2.632031600536485
0.3444720005960681 -2.769669508376094
0.3696814545161868 -2.889425716746568
0.39895281194870635 -2.988145627352976
0.4322171722966545 -3.0626753447047674
0.4690329075114658 -3.110093164587996
0.5084603753519816 -3.128016547952226
0.5478878431924944 -3.110093164587893
0.5847035784072969 -3.0626753447045587
0.6179679387552326 -2.988145627352675
0.6472392961877378 -2.8894257167461945
0.6724487501078397 -2.769669508375669
0.6937491227974569 -2.6320316005360214
0.7114203333195898 -2.4795027916051007
0.7258047797626959 -2.3148362827423212
0.737242720333352 -2.1405261783508522
0.7460464987507579 -1.9588129967235834
0.7525147481284049 -1.7716691964298847
0.7569736792599583 -1.5807266093934347
0.7598038179866075 -1.3872480707562262
0.7614652611886018 -1.192159569598887
0.7624255780656134 -0.9960995908771298
0.7630439786121941 -0.7994575793384082
0.7634770024125037 -0.6024150105320204
0.7637244355722073 -0.40500825667286794
0.7638269010885035 -0.20722334838887965
0.7649649535738546 -0.007520999396084178
0.30152220665768964 -0.008248727346762188
0.30235596207541987 -0.20726601382844176
0.30242797069582184 -0.4050149289448806
0.3026028379297672 -0.6024395243772314
0.30293384782288685 -0.799505618946151
0.30342645191163464 -0.9961739425519557
0.30416291799027745 -1.1923034123739538
0.30541464157917114 -1.3875552827667001
0.30756638058127317 -1.5813173738123498
0.31102276827300185 -1.772650571468654
0.31611493256256407 -1.9602665131501875
0.32309351643597084 -2.142519600483076
0.3321835568647514 -2.317435081614642
0.3436240934475499 -2.4827806224766134
0.3576899694515756 -2.636069092224493
0.3746737575422389 -2.774544482571888
0.39484163615052753 -2.895196885764529
0.41837675415579795 -2.9948382333179855
0.44534134676597453 -3.0702602318219396
0.4755690536052466 -3.1184448455750546
0.5084603753519709 -3.136880470388762
0.5413516970986921 -3.1184448455749503
0.5715794039379567 -3.0702602318217282
0.5985439965481233 -2.9948382333176813
0.6220791145533818 -2.8951968857641517
0.6422469931616566 -2.7745444825714594
0.6592307812523058 -2.6360690922240257
0.6732966572563179 -2.4827806224761204
0.6847371938391037 -2.3174350816141382
0.6938272342678715 -2.142519600482579
0.700805818141267 -1.9602665131497101
0.7058979824308191 -1.7726505714682081
0.7093543701225402 -1.581317373811941
0.7115061091246371 -1.3875552827663347
0.7127578327135277 -1.1923034123736347
0.7134942987921693 -0.9961739425516878
0.7139869028809168 -0.7995056189459322
0.7143179127740362 -0.6024395243770636
0.7144927800079816 -0.4050149289447626
0.7145647886283835 -0.20726601382837384
0.7153985440461114 -0.008248727346749387
0.3509885029989374 -0.00881447545793808
0.35158252947240476 -0.20730405778963296
0.3516305000467013 -0.40502108890970356
0.35173985824623627 -0.6024541184633802
0.3519706838054177 -0.7995409890464575
0.3523377473653585 -0.996230463324269
0.35287861817071614 -1.1924009708669274
0.35376125144613163 -1.3877601915916697
0.3552851083789994 -1.5817265164742702
0.3577754255284723 -1.7733598019040182
0.36150952108968665 -1.961345528822155
0.36667975316925133 -2.144019283551705
0.37344271886070035 -2.319403196977573
0.3819646898144626 -2.4852731600454616
0.3924511509009815 -2.6391515312191873
0.4051430656606272 -2.7782852180630115
0.4202828603910068 -2.8996535879619976
0.4380676787160579 -3.0000505908588284
0.4586693075698473 -3.076247764886085
0.4821993868529026 -3.1251682327436203
0.5084603753519596 -3.1441747354976735
0.5347213638510143 -3.1251682327435146
0.5582514431340639 -3.076247764885872
0.5788530719878455 -3.0000505908585224
0.5966378903128874 -2.8996535879616174
0.6117776850432561 -2.7782852180625794
0.6244695998028911 -2.639151531218717
0.6349560608893999 -2.485273160044965
0.643478031843153 -2.3194031969770665
0.6502409975345929 -2.1440192835512044
0.6554112296141487 -1.9613455288216752
0.6591453251753558 -1.7733598019035701
0.6616356423248231 -1.58172651647386
0.6631594992576872 -1.3877601915913036
0.6640421325331007 -1.1924009708666081
0.6645830033384577 -0.9962304633240011
0.6649500668983983 -0.7995409890462387
0.6651808924575795 -0.6024541184632124
0.6652902506571144 -0.40502108890958555
0.6653382212314108 -0.207304057789565
0.6659322477048766 -0.008814475457924114
0.4003746620249215 -0.00924642855296058
0.4007887047461537 -0.20733903905776227
0.4008100779551422 -0.40502596663245705
0.40085774286130543 -0.6024598668285155
0.400991350319943 -0.7995631002457643
0.4012285837492384 -0.9962706257849834
0.40158856740620447 -1.1924647861627498
0.4021498926098641 -1.3878826252098264
0.4031031673930742 -1.5819759102691047
0.4046859105427622 -1.7738133645753176
0.4071032803484178 -1.9620612088911675
0.4104950375925692 -2.1450355928413405
0.41495870565854176 -2.320751758199272
0.42059677536317647 -2.4869929309377548
0.4275441211690637 -2.641291457951295
0.43597934015028317 -2.780902497078572
0.4461150412793396 -2.90280392707633
0.4581640577967284 -3.0037810899257726
0.47234555055776023 -3.0806164165201118
0.4890127946152942 -3.130229380584617
0.5084603753519479 -3.1498771421413134
0.5279079560886003 -3.1302293805845105
0.5445752001461305 -3.0806164165198977
0.5587566929071566 -3.0037810899254644
0.5708057094245389 -2.9028039270759476
0.5809414105535876 -2.780902497078137
0.5893766295347999 -2.6412914579508224
0.596323975340681 -2.486992930937257
0.60196204504531 -2.320751758198764
0.6064257131112767 -2.1450355928408382
0.6098174703554222 -1.9620612088906864
0.6122348401610733 -1.7738133645748682
0.6138175833107579 -1.5819759102686939
0.6147708580939658 -1.3878826252094598
0.6153321832976244 -1.1924647861624305
0.61569216695459 -0.9962706257847153
0.6159294003838853 -0.7995631002455456
0.6160630078425229 -0.6024598668283477
0.616110672748686 -0.4050259666323389
0.6161320459576743 -0.20733903905769432
0.6165460886789055 -0.00924642855294574
0.44969416320973377 -0.00957349565741944
0.44998183298209776 -0.20737303762470105
0.449972432379565 -0.4050279286873424
0.44996041540001047 -0.602457554857226
0.4499997717462581 -0.799572002211301
0.45010495670003997 -0.9962931903868921
0.450282283436159 -1.1925024194182843
0.4505604204657026 -1.3879455318805738
0.45101127180024475 -1.5820963152942276
0.4517629759033824 -1.774040708065654
0.4529303894560723 -1.9624373370287451
0.45459483064530554 -2.1455882628035767
0.4567989640001167 -2.3214994520872105
0.45959299925349373 -2.4879599792233207
0.4630480402277714 -2.642509634703492
0.4672715687955701 -2.7824146689627365
0.4724305143640891 -2.9046623573096473
0.47875571843864545 -3.00604144697731
0.48652377703255145 -3.083351437625061
0.49614626316537713 -3.1335755242055576
0.5084603753519359 -3.1539409082973804
0.5207744875384943 -3.13357552420545
0.5303969736713181 -3.083351437624846
0.5381650322652207 -3.006041446977
0.544490236339773 -2.9046623573092636
0.5496491819082884 -2.7824146689623
0.5538727104760838 -2.642509634703018
0.5573277514503593 -2.487959979222822
0.5601217867037338 -2.3214994520867016
0.5623259200585422 -2.145588262803073
0.5639903612477731 -1.962437337028263
0.5651577748004611 -1.7740407080652039
0.5659094789035973 -1.5820963152938163
0.5663603302381386 -1.387945531880207
0.5666384672676817 -1.1925024194179648
0.5668157940038007 -0.9962931903866239
0.5669209789575824 -0.7995720022110823
0.5669603353038302 -0.6024575548570583
0.5669483183242755 -0.4050279286872242
0.5669389177217427 -0.2073730376246331
0.5672265874941061 -0.00957349565740404
0.49896323863819997 -0.009820156341225038
0.49916200854199605 -0.20740810852586627
0.4991224627843061 -0.40502557233479525
0.49905239356260933 -0.602447700351396
0.4990002283443968 -0.7995679261576077
0.49897392110632344 -0.996297489955681
0.4989640501574073 -1.192514293409999
0.49896123308496576 -1.3879656155318665
0.49896060501322465 -1.5821302938720794
0.49896076468927747 -1.7740992911003877
0.49896100847739133 -1.962533403713553
0.49896070608987775 -2.145730875302123
0.4989557873954879 -2.321696721675459
0.49894288149287064 -2.4882225485565983
0.4989273248200219 -2.642852895877341
0.49895091079464926 -2.782864709759048
0.49913464652647854 -2.9052652427325096
0.49973118153374846 -3.0068670672646656
0.5011191607726946 -3.0844853207946463
0.5037232685066575 -3.135163267758339
0.5084603753519235 -3.1562921780121416
0.51319748219719 -3.135163267758232
0.5158015899311525 -3.0844853207944305
0.5171895691700975 -3.006867067264355
0.5177861041773671 -2.9052652427321255
0.5179698399091971 -2.7828647097586114
0.5179934258838248 -2.642852895876867
0.5179778692109772 -2.4882225485560996
0.5179649633083613 -2.3216967216749502
0.5179600446139725 -2.1457308753016195
0.5179597422264599 -1.9625334037130706
0.5179599860145746 -1.7740992910999376
0.5179601456906279 -1.582130293871668
0.5179595176188868 -1.3879656155314992
0.5179567005464454 -1.1925142934096795
0.5179468295975295 -0.9962974899554128
0.5179205223594562 -0.7995679261573889
0.5178683571412436 -0.6024477003512284
0.5177982879195469 -0.405025572334677
0.517758742161857 -0.2074081085257984
0.5179575120656527 -0.009820156341209252
0.5481929387331629 -0.010009196028084545
0.5483307666281423 -0.20744307285699998
0.5482640520281545 -0.40501886759084554
0.5481383916375397 -0.6024304935397253
0.547997455720532 -0.7995513154783417
0.5478418464137745 -0.9962834794173995
0.5476456749454393 -1.1924998287679252
0.5473616944332546 -1.3879449779683564
0.5469097233556778 -1.5820962983656337
0.5461585116937231 -1.7740407526605528
0.5449920202090403 -1.9624374640385478
0.5433261310853236 -2.145587080894244
0.5411115419032557 -2.3214954469321554
0.5382917133323626 -2.487952674235726
0.5348077720114265 -2.64250783671514
0.5306348324661597 -2.782452107714696
0.5258368386766652 -2.9048193635364563
0.5206357281588331 -3.006461760180527
0.5154295318014162 -3.0842058621902493
0.5108079578226457 -3.135106579057559
0.5084603753519111 -3.157040939324433
0.506112792881176 -3.1351065790574513
0.5014912189024059 -3.084205862190034
0.49628502254499146 -3.006461760180217
0.4910839120271637 -2.904819363536073
0.48628591823767436 -2.7824521077142603
0.48211297869241165 -2.642507836714666
0.47862903737148005 -2.487952674235228
0.47580920880059174 -2.321495446931647
0.4735946196185291 -2.1455870808937414
0.47192873049481654 -1.9624374640380657
0.4707622390101376 -1.7740407526601032
0.47001102734818506 -1.5820962983652225
0.4695590562706094 -1.387944977967989
0.4692750757584254 -1.1924998287676056
0.4690789042900906 -0.9962834794171311
0.4689232949833333 -0.7995513154781231
0.46878235906632565 -0.6024304935395576
0.46865669867571097 -0.4050188675907273
0.4685899840757233 -0.20744307285693217
0.46872781197070257 -0.0100091960280685
0.597397431340435 -0.010154535556925146
0.5974924696169558 -0.20747591559683076
0.5974013236648847 -0.40500819527327414
0.597223275280901 -0.6024061973704863
0.5969970674941044 -0.7995227806005457
0.5967151734518363 -0.9962515200408836
0.5963377831378849 -1.1924596167671462
0.5957711691164562 -1.3878814598342821
0.5948173383786203 -1.5819759111751932
0.5932358971409477 -1.77381363697122
0.5908191216200136 -1.9620612207034716
0.5874251784368145 -2.145033010444128
0.5829521195710414 -2.3207433791398264
0.5772919154250268 -2.4869781392634183
0.570320451935952 -2.6412882282798753
0.5619346364037328 -2.780978861959864
0.5521341952738831 -2.9031172452096197
0.541103454316214 -3.004603779084979
0.5292855864803039 -3.0823207522936493
0.5177054233574033 -3.133508944571874
0.5084603753518991 -3.1563537430505835
0.4992153273463948 -3.133508944571766
0.48763516422349573 -3.0823207522934344
0.4758172963875907 -3.0046037790846705
0.4647865554299295 -2.903117245209238
0.4549861143000885 -2.78097886195943
0.44660029876787755 -2.641288228279403
0.43962883527881047 -2.4869781392629218
0.43396863113280426 -2.3207433791393197
0.4294955722670397 -2.1450330104436266
0.42610162908384813 -1.9620612207029908
0.4236848535629207 -1.773813636970771
0.42210341232525245 -1.5819759111747824
0.42114958158741905 -1.3878814598339149
0.4205829675659917 -1.1924596167668264
0.42020557725204094 -0.9962515200406155
0.41992368320977325 -0.7995227806003269
0.4196974754229769 -0.6024061973703185
0.41951942703899325 -0.405008195273156
0.41942828108692237 -0.20747591559676293
0.41952331936344295 -0.01015453555690892
0.646592395636266 -0.010263028590408767
0.646652480979952 -0.20750505702636377
0.6465390927439554 -0.4049938376178523
0.6463121162147213 -0.6023752260438777
0.6460042575991792 -0.7994830169325999
0.6456013290518712 -0.9962027571026585
0.6450451464772753 -1.1923929033834275
0.6441580458308085 -1.387758479187029
0.6426356336660761 -1.5817268383997618
0.6401468461467423 -1.7733603213613538
0.6364125243280508 -1.9613452127704987
0.6312396669376321 -2.144015373812605
0.6244705155488207 -2.3193914843432175
0.6159364447265219 -2.4852529194977397
0.6054386950231208 -2.639148025088323
0.5927891463503202 -2.7783951031218823
0.5779046664077024 -2.9000996572735516
0.5609384403225631 -3.0012259820296667
0.5425033448719179 -3.078782892176826
0.5240168261604471 -3.130233107791145
0.5084603753518873 -3.1542614943104916
0.49290392454332815 -3.1302331077910375
0.47441740583186054 -3.0787828921766116
0.4559823103812223 -3.0012259820293594
0.43901608429609384 -2.900099657273173
0.42413160435348846 -2.778395103121451
0.4114820556806997 -2.6391480250878527
0.4009843059773099 -2.485252919497246
0.3924502351550229 -2.319391484342713
0.38568108376622334 -2.1440153738121057
0.3805082263758155 -1.9613452127700202
0.37677390455713333 -1.7733603213609064
0.3742851170378059 -1.5817268383993517
0.3727627048730777 -1.387758479186662
0.37187560422661325 -1.1923929033831078
0.37131942165201837 -0.9962027571023904
0.37091649310471075 -0.7994830169323812
0.3706086344891691 -0.60237522604371
0.3703816579599351 -0.4049938376177341
0.3702682697239386 -0.20750505702629599
0.3703283550676245 -0.010263028590392388
0.6957874742046667 -0.010340341381491095
0.6958170976189106 -0.20752907788971153
0.695682315809661 -0.40497592574214614
0.6954093667452068 -0.6023380664146618
0.6950236225586651 -0.7994329356852848
0.6945066411743079 -0.9961382538593421
0.6937568791886647 -1.1922922712407829
0.6925044141023917 -1.3875536427522037
0.6903551792811554 -1.5813182652575235
0.6868998333892501 -1.7726511680470112
0.6818063871493532 -1.9602656399360816
0.6748252341616646 -2.1425146803168382
0.6657340382739578 -2.317422074198748
0.6542973173516194 -2.482759199799044
0.6402421353571954 -2.6360679391550863
0.6232899202883153 -2.7746767089856292
0.6032641772587685 -2.8957349157008805
0.5803183404822742 -2.9963063043523244
0.5552638313470153 -3.073582136798783
0.5300410756431445 -3.1253411287584645
0.5084603753518757 -3.150833249802018
0.48687967506060836 -3.125341128758357
0.4616569193567427 -3.0735821367985703
0.436602410221493 -2.9963063043520197
0.41365657344501205 -2.895734915700505
0.39363083041548075 -2.7746767089852016
0.3766786153466157 -2.636067939154619
0.36262343335220654 -2.4827591997985534
0.35118671242988353 -2.3174220741982468
0.34209551654219184 -2.142514680316342
0.33511436355451746 -1.9602656399356058
0.3300209173146322 -1.772651168046566
0.32656557142273557 -1.581318265257115
0.3244163366015051 -1.3875536427518376
0.3231638715152357 -1.1922922712404636
0.32241410952959393 -0.9961382538590742
0.3218971281452372 -0.7994329356850662
0.32151138395869605 -0.602338066414494
0.321238434894242 -0.4049759257420279
0.3211036530849925 -0.20752907788964378
0.3211332764992364 -0.010340341381474622
0.7449892061816824 -0.010391721946111833
0.7449921219683165 -0.20754696263511432
0.7448362118453719 -0.40495444013793763
0.744519952196187 -0.6022951778687189
0.7440615122335024 -0.7993739104382124
0.7434314082650305 -0.9960570080736227
0.7424632544375537 -1.1921461475241977
0.7408030531176472 -1.3872471245503304
0.7379755755995339 -1.580728033947957
0.7335166500126374 -1.7716696160896586
0.7270463174365234 -1.9588114212146928
0.7182406057605472 -2.140520773587635
0.7068077358622519 -2.3148246573872164
0.6924457818778462 -2.4794860623389767
0.674812754575292 -2.6320370257101944
0.653539825477589 -2.7698113907881083
0.6283712631793227 -2.890012352945441
0.5994639049363486 -2.9898390126520717
0.567849967437268 -3.066733486105654
0.5360077825550734 -3.1188723241389726
0.5084603753518643 -3.146086603120164
0.4809129681486574 -3.1188723241388665
0.44907078326646993 -3.0667334861054436
0.4174568457674007 -2.9898390126517707
0.3885494875244427 -2.8900123529450696
0.3633809252261944 -2.769811390787685
0.34210799612850984 -2.632037025709731
0.3244749688259742 -2.47948606233849
0.31011301484158726 -2.3148246573867195
0.2986801449433104 -2.1405207735871423
0.28987443326735113 -1.9588114212142207
0.2834041006912513 -1.7716696160892162
0.2789451751043658 -1.5807280339475502
0.27611769758626015 -1.3872471245499656
0.27445749626635824 -1.1921461475238788
0.2734893424388837 -0.9960570080733548
0.2728592384704125 -0.7993739104379938
0.2724007985077282 -0.6022951778685512
0.2720845388585436 -0.40495444013781945
0.27192862873559914 -0.20754696263504657
0.2719315445222333 -0.010391721946095306
0.794202222443528 -0.010422249857583636
0.7941825022553538 -0.20755818115587815
0.7940060916996159 -0.4049292790421994
0.7936488371809323 -0.6022471508505252
0.793121279817056 -0.7993066456806531
0.7923711322520646 -0.9959546567389421
0.7911583228428191 -1.1919428077625773
0.7890478115330677 -1.3868207246617468
0.7855054988219938 -1.5799421160540992
0.7800324683230145 -1.7704081980896849
0.7721752251559929 -1.9569765822427965
0.7615371172562914 -2.1380278143083817
0.7477529018179904 -2.311592372982373
0.7304503060349078 -2.4754257768098573
0.7092223818266716 -2.627049058608135
0.6836433242578104 -2.7637994691190473
0.6533855422202522 -2.8829387329725114
0.6185989415980311 -2.9818363548915494
0.5805154610772534 -3.0582540361557604
0.5420775688386461 -3.110830678253417
0.5084603753518531 -3.1399966876458376
0.47484318186506297 -3.110830678253312
0.4364052896264646 -3.0582540361555526
0.39832180910570075 -2.9818363548912514
0.363535208483498 -2.882938732972145
0.3332774264459608 -2.7637994691186285
0.3076983688771217 -2.627049058607678
0.28647044466890714 -2.475425776809375
0.2691678488858466 -2.3115923729818815
0.2553836334475673 -2.138027814307894
0.24474552554788562 -1.9569765822423286
0.23688828238088064 -1.7704081980892459
0.23141525188191417 -1.5799421160536946
0.22787293917084978 -1.3868207246613833
0.2257624278611043 -1.1919428077622591
0.22454961845186178 -0.9959546567386744
0.22379947088687133 -0.7993066456804346
0.22327191352299544 -0.6022471508503575
0.22291465900431218 -0.4049292790420812
0.22273824844857432 -0.20755818115581043
0.22271852826040023 -0.01042224985756707
0.8434295234007481 -0.010437001204070701
0.843392303884058 -0.20756268718545715
0.8431972833176814 -0.4049004293765956
0.842801213070794 -0.6021945035521789
0.8422059803587912 -0.7992313222792452
0.8413228155930058 -0.9958257590110455
0.8398333854163427 -1.1916682385285469
0.8372339029938124 -1.38626040691583
0.8329697222971512 -1.5789550464352928
0.826477656157487 -1.768863178104135
0.8172336698847993 -1.9547582040248483
0.8047651430412075 -2.1350330393570416
0.7886278421092509 -2.3077211879271387
0.768376439166947 -2.4705727793492005
0.7435498755534453 -2.621102063278885
0.7136891732974155 -2.7566507831719393
0.6784494288355786 -2.8745390676778197
0.6379497012991897 -2.972327634729125
0.5935037743223519 -3.0481536226207004
0.5483990469085324 -3.1011867556384822
0.5084603753518421 -3.132502981028256
0.468521703795155 -3.1011867556383788
0.42341697638134584 -3.0481536226204957
0.3789710494045246 -2.9723276347288317
0.33847132186815676 -2.8745390676774587
0.3032315774063439 -2.7566507831715263
0.27337087515033914 -2.6211020632784328
0.24854431153686263 -2.470572779348724
0.22829290859458398 -2.3077211879266524
0.2121556076626523 -2.1350330393565593
0.19968708081908312 -1.9547582040243854
0.19044309454641464 -1.7688631781036999
0.18395102840676517 -1.5789550464348914
0.17968684771011503 -1.3862604069154687
0.1770873652875918 -1.1916682385282298
0.17559793511093258 -0.9958257590107782
0.17471477034514862 -0.7992313222790268
0.17411953763314614 -0.6021945035520113
0.17372346738625907 -0.40490042937647747
0.17352844681988275 -0.2075626871853894
0.1734912273031926 -0.010437001204054105
0.8926723029303191 -0.010441131646666464
0.8926246324105315 -0.20756099172926257
0.8924154704854163 -0.40486805793187186
0.8919823866381942 -0.6021377969078381
0.89131683647101 -0.7991461868255412
0.8902814173102314 -0.9956624824574786
0.8884788294164044 -1.1913092890739025
0.885378932294918 -1.3855609359523886
0.880388128802538 -1.5777641016304167
0.8728816598747291 -1.7670335202849743
0.8622608209898566 -1.952156404307202
0.8479719468510091 -2.1315361757260702
0.8294905392522257 -2.3032098622488455
0.8062952057098134 -2.4649246168958765
0.7778689984892962 -2.614195223034524
0.7437582403235838 -2.74838005594213
0.703671477303938 -2.86485738120256
0.6577201255619225 -2.961362357011863
0.6070722346975793 -3.036437848110975
0.5551644908961214 -3.0898777007866873
0.5084603753518308 -3.1235009467889863
0.4617562598075439 -3.089877700786586
0.4098485160060982 -3.036437848110774
0.35920062514177414 -2.961362357011575
0.31324927339978276 -2.864857381202205
0.2731625103801641 -2.7483800559417233
0.23905175221447977 -2.6141952230340784
0.2106255449939911 -2.464924616895406
0.1874302114516077 -2.303209862248366
0.16894880385285221 -2.1315361757255937
0.15465992971402998 -1.9521564043067443
0.14403909082917885 -1.7670335202845435
0.13653262190138643 -1.5777641016300186
0.13154181840901918 -1.3855609359520296
0.1284419212875412 -1.1913092890735866
0.126639333393719 -0.9956624824572117
0.1256039142329423 -0.7991461868253229
0.12493836406575849 -0.6021377969076706
0.12450528021853678 -0.40486805793175373
0.12429611829342174 -0.20756099172919482
0.1242484477736342 -0.010441131646649851
0.9419292994118751 -0.010439874148793037
0.9418815516273614 -0.20755435397504474
0.9416672132003113 -0.4048327632261021
0.9411980819048216 -0.6020770368364845
0.940453091668362 -0.7990484967806821
0.9392378105913435 -0.9954532190415982
0.9370998720914636 -1.1908581889520924
0.9334935900117114 -1.3847196580826346
0.9277806113548889 -1.576368830608394
0.9192735631750678 -1.7649210900094983
0.907295032726682 -1.9491736069800227
0.8912062294086932 -2.1275396124701644
0.8703969851978113 -2.298059700806758
0.8442706642114283 -2.4584819000041453
0.8122693109380148 -2.606331698254755
0.7739442311787471 -2.7390006980094745
0.7291028780746965 -2.8539392307052776
0.6779917725138636 -2.949027887978464
0.6215905531872521 -3.0231360044844955
0.5626919786216441 -3.076794527677534
0.5084603753518192 -3.112815081273104
0.45422877208199886 -3.0767945276774347
0.3953301975164047 -3.0231360044842988
0.338928978189815 -2.9490278879781817
0.2878178726290096 -2.853939230704929
0.24297651952498925 -2.739000698009075
0.20465143976575317 -2.606331698254317
0.17265008649237146 -2.4584819000036826
0.1465237655060206 -2.2980597008062857
0.12571452129516994 -2.127539612469695
0.10962571797720908 -1.9491736069795706
0.09764718752884649 -1.7649210900090722
0.08914013934904413 -1.5763688306079997
0.08342716069223553 -1.3847196580822783
0.07982087861249303 -1.190858188951778
0.07768294011261873 -0.9954532190413321
0.0764676590356027 -0.7990484967804639
0.07572266879914366 -0.602077036836317
0.07525353750365424 -0.40483276322598405
0.07503919907660436 -0.207554353974977
0.07499145129209073 -0.010439874148776417
0.9911954558079314 -0.010438363448040605
0.9911640095489751 -0.2075453026244388
0.9909610769594316 -0.40479577515821774
0.9904540949665114 -0.6020110712050556
0.9896101677460976 -0.7989319002843516
0.9881882723227651 -0.9951898114629341
0.9857038379577333 -1.1903110020617873
0.9815897183197548 -1.383735573131362
0.9751668818763808 -1.5747715522364725
0.9656819848980949 -1.762530292342074
0.9523757113780223 -1.945815095689819
0.9345147102599688 -2.1230474338917356
0.9114006200698578 -2.2922742279769666
0.8823767650462061 -2.4512504865214377
0.8468413752021205 -2.5975195675012133
0.8043512355379748 -2.728523534423706
0.7548062287743026 -2.8418113371308062
0.6986729538294062 -2.9354133679881227
0.6371432733401158 -3.0084184585481415
0.5721371640382272 -3.0618184140282905
0.5084603753518072 -3.099999999999997
0.4447835866653923 -3.061818414028193
0.3797774773635193 -3.008418458547949
0.3182477968742538 -2.9354133679878474
0.26211452192938905 -2.8418113371304656
0.21256951516575032 -2.7285235344233154
0.1700793755016394 -2.597519567500783
0.13454398565758927 -2.4512504865209834
0.10552013063397288 -2.2922742279765025
0.08240604044389636 -2.1230474338912737
0.06454503932587365 -1.9458150956893734
0.05123876580582607 -1.7625302923416533
0.041753868827560714 -1.5747715522360823
0.03533103238420201 -1.3837355731310088
0.031216912746234202 -1.190311002061475
0.028732478381208817 -0.9951898114626688
0.027310582957879387 -0.7989319002841334
0.02646665573746646 -0.602011071204888
0.025959673744546587 -0.4047957751580997
0.025756741155003298 -0.20754530262437107
0.02572529489604693 -0.01043836344802398
SCALARS Stress float 6
LOOKUP_TABLE default
-1156.0258357471803 -1950.5586089502906 -1476.62328573284 -20.390709428940966 0.0 0.0
1292.6805424803294 753.887564025695 947.966065592874 -22.941719157202087 0.0 0.0
574.7543304884568 133.35500345931908 222.36568851173286 -38.95989755514822 0.0 0.0
471.34398886747454 22.071706256050163 150.89842920601112 -2.4159948080296454 0.0 0.0
586.6077436343298 64.45398428963821 224.2540071373844 1.4873300698250724 0.0 0.0
690.2479561053067 106.0035497485076 331.18031671650306 1.6037978589379152 0.0 0.0
804.3039936127957 146.69833860067928 440.5673041225656 0.7520409138593833 0.0 0.0
918.4226064706072 203.14329658227007 542.9035641533383 -0.4639667120238713 0.0 0.0
1039.4014239380733 272.3295074992891 643.4032724066236 -1.898997413482479 0.0 0.0
1174.7604800975573 360.3194005686644 756.3866422637769 -3.4444114224165174 0.0 0.0
1329.483722981577 471.51076182438453 889.477229617909 -4.959183133847707 0.0 0.0
1503.7413592406203 606.4462798334563 1043.795520805575 -6.233276517598895 0.0 0.0
1693.0910148015305 759.015725787977 1214.3005639535027 -7.036712417865576 0.0 0.0
1891.2560377053792 922.7800561771653 1394.8004014491303 -7.675080286462923 0.0 0.0
2089.55576250624 1088.9282992904093 1576.552270381608 -8.105943702188902 0.0 0.0
2278.36873084307 1247.9888191293373 1750.0350831115725 -8.294367315436112 0.0 0.0
2448.091131168579 1390.936655689044 1905.9927546889514 -8.092294575104424 0.0 0.0
2588.8179074540694 1508.5975789811519 2034.9331896560016 -7.381056216695414 0.0 0.0
2696.679011471835 1597.8907095413892 2133.3081494251883 -6.247383238526128 0.0 0.0
2759.313180669683 1647.4521183811605 2189.2884743679288 -6.960633320464159 0.0 0.0
2751.718323887483 1637.9406157911974 2181.0268194315254 -5.6356697086812346e-11 0.0 0.0
2759.31318066891 1647.4521183804372 2189.288474367211 6.960633320502801 0.0 0.0
2696.679011470575 1597.8907095401748 2133.3081494241114 6.247383238624401 0.0 0.0
2588.8179074529207 1508.5975789800852 2034.9331896551473 7.3810562166860745 0.0 0.0
2448.091131168287 1390.9366556888679 1905.9927546884849 8.092294575298975 0.0 0.0
2278.3687308429144 1247.9888191293119 1750.035083111177 8.294367315327658 0.0 0.0
2089.555762504875 1088.9282992891883 1576.5522703804409 8.105943702176395 0.0 0.0
1891.256037703335 922.78005617527 1394.8004014476194 7.675080286297343 0.0 0.0
1693.0910148000535 759.0157257867029 1214.3005639523267 7.036712417812119 0.0 0.0
1503.7413592398095 606.4462798328678 1043.795520804799 6.233276517712447 0.0 0.0
1329.483722980129 471.51076182316046 889.4772296167366 4.959183133896513 0.0 0.0
1174.7604800971608 360.3194005685365 756.3866422632769 3.4444114222567244 0.0 0.0
1039.4014239370247 272.32950749848527 643.4032724058359 1.8989974135471837 0.0 0.0
918.4226064696321 203.14329658155117 542.9035641525518 0.46396671203009276 0.0 0.0
804.3039936123124 146.69833860045603 440.5673041220576 -0.7520409138990551 0.0 0.0
690.2479561049546 106.00354974849448 331.18031671608964 -1.60379785898499 0.0 0.0
586.60774363377 64.45398428934908 224.2540071369782 -1.4873300699411072 0.0 0.0
471.34398886722397 22.07170625616028 150.89842920595032 2.415994808219258 0.0 0.0
574.7543304881053 133.35500345911163 222.36568851152867 38.959897555210375 0.0 0.0
1292.680542480077 753.887564025463 947.9660655924436 22.94171915721578 0.0 0.0
-1156.025835744352 -1950.5586089475644 -1476.6232857301143 20.390709428176468 0.0 0.0
-1472.6767795113096 -2237.673475204144 -1745.053219638632 -20.880552564181098 0.0 0.0
879.5916417151695 418.17921455766214 592.6342258604834 -32.00712956843484 0.0 0.0
399.89729540549786 53.19268390999496 134.32926589166604 -32.77183887668277 0.0 0.0
416.9797623042883 3.4233205188414764 126.98304281646166 -16.12717621424225 0.0 0.0
522.2810819012971 28.2622767846775 182.9139742753688 -15.663200971905473 0.0 0.0
617.1282161485669 39.514198479292055 264.27771781261004 -20.357700731184114 0.0 0.0
697.1994261016313 54.292136513717814 347.9872220665049 -22.472255157876408 0.0 0.0
774.7197236051999 72.42064366858743 414.7876522830291 -23.083914637956905 0.0 0.0
846.9370776335827 92.14088595345191 466.71868930937774 -23.48392217631349 0.0 0.0
916.7721339062736 114.78537235718304 514.4691450071668 -23.990547691625483 0.0 0.0
986.4009167955896 141.5249552298688 563.0576210428593 -24.220325866590617 0.0 0.0
1056.8686533950108 172.3433448506636 613.8118535467079 -24.105348741089703 0.0 0.0
1127.2766073798202 207.09618579450762 666.3918753387222 -23.642044405981924 0.0 0.0
1195.0954687710541 240.9126538514014 717.1764801422809 -23.03987854373475 0.0 0.0
1254.3717959628923 268.47006327110626 760.5604005422573 -22.34067344374286 0.0 0.0
1300.30924951097 285.05647220503766 791.7912113382434 -21.348720168698264 0.0 0.0
1329.6943989482234 287.8985601824825 807.8819092613268 -19.818979909930544 0.0 0.0
1342.6423296371684 277.80972538064844 809.3015120784697 -17.650842751790883 0.0 0.0
1337.16768472606 253.75359061367544 794.6327822448673 -15.169386805086326 0.0 0.0
1286.3873154320872 190.1695363393507 738.1140303232862 -14.222266539479886 0.0 0.0
1197.4614705972776 99.86021803972893 649.6393877586498 1.8776979970880348e-11 0.0 0.0
1286.3873154316373 190.16953633892183 738.1140303228716 14.22226653951854 0.0 0.0
1337.1676847248734 253.75359061253573 794.6327822440439 15.169386805093348 0.0 0.0
1342.6423296365474 277.80972538009723 809.3015120780943 17.65084275177965 0.0 0.0
1329.6943989484578 287.8985601828465 807.8819092614875 19.81897991005131 0.0 0.0
1300.3092495110873 285.0564722052663 791.7912113382977 21.34872016866605 0.0 0.0
1254.371795961405 268.47006326972456 760.5604005411873 22.340673443655223 0.0 0.0
1195.0954687706128 240.91265385114457 717.1764801419719 23.039878543555055 0.0 0.0
1127.2766073793741 207.0961857942524 666.3918753384692 23.642044405983498 0.0 0.0
1056.868653394944 172.34334485080396 613.8118535466768 24.105348741044963 0.0 0.0
986.4009167950845 141.524955229621 563.0576210424822 24.22032586661427 0.0 0.0
916.7721339059495 114.7853723570762 514.4691450069112 23.99054769153068 0.0 0.0
846.9370776332436 92.14088595338333 466.71868930911774 23.483922176253735 0.0 0.0
774.7197236045304 72.42064366817135 414.787652282525 23.083914637936367 0.0 0.0
697.1994261016464 54.29213651402837 347.9872220663595 22.472255157864367 0.0 0.0
617.1282161481846 39.514198479210414 264.2777178122269 20.357700731058408 0.0 0.0
522.2810819008142 28.262276784464625 182.91397427507067 15.66320097188261 0.0 0.0
416.97976230411 3.42332051891761 126.98304281643587 16.127176214313963 0.0 0.0
399.8972954054142 53.19268391002725 134.32926589165362 32.77183887669692 0.0 0.0
879.5916417145534 418.1792145571795 592.634225859831 32.007129568424176 0.0 0.0
-1472.676779509357 -2237.673475202122 -1745.0532196365555 20.880552563601917 0.0 0.0
-1221.7911616259055 -1952.3444187103553 -1467.0857050823427 -59.271342738776696 0.0 0.0
685.542688992655 327.5113820538161 448.6161016614148 -99.65827607843806 0.0 0.0
280.5703100249089 60.724595498276514 102.39045335173753 -34.921106022778886 0.0 0.0
357.3356993188393 0.08990316391512088 107.00820382398668 -37.14853395756427 0.0 0.0
477.0232023581392 19.379371760347066 157.0560593926218 -37.95705831489817 0.0 0.0
584.4881794908715 34.98778543011079 235.05502484741834 -39.49775701316455 0.0 0.0
668.2655478324172 50.63589592654044 323.2478096890516 -42.10316817722916 0.0 0.0
746.9329414354899 65.26383149449597 393.43707569825796 -43.26540718011503 0.0 0.0
817.1656301856577 82.12213395381042 445.6082868079397 -44.23488558333713 0.0 0.0
883.4967655033886 100.90261761986187 490.3974183801059 -45.08695715877207 0.0 0.0
949.3356765702413 124.17853838282139 535.505180810601 -45.23840985075946 0.0 0.0
1016.041841179259 152.4785051208894 583.1421449015921 -44.5999718144928 0.0 0.0
1083.4675011364789 183.71963402995556 632.4894364104675 -43.61307934484201 0.0 0.0
1147.3213790438922 214.83938092146946 679.9703843168695 -42.43087488533623 0.0 0.0
1203.944105820311 240.20419705062298 720.9389954553345 -41.04445754893357 0.0 0.0
1248.57107824496 255.8421583421463 751.0319976766889 -39.18487308754742 0.0 0.0
1278.8520815355992 259.7430922224087 768.0975409560921 -36.47389259492934 0.0 0.0
1292.2250775023213 250.03763035282216 769.9726372502498 -32.866051257748346 0.0 0.0
1279.8486711264402 218.99219907769478 748.5171463631455 -28.862223348499516 0.0 0.0
1249.6152859233255 176.07908807762848 712.3053033121482 -25.014193708018833 0.0 0.0
1141.7282199092913 67.28478042689947 605.3987482025946 1.3553602684623911e-11 0.0 0.0
1249.6152859231443 176.07908807749766 712.3053033119965 25.01419370814191 0.0 0.0
1279.8486711258324 218.99219907714377 748.5171463628064 28.86222334857498 0.0 0.0
1292.2250775014986 250.03763035207092 769.9726372496675 32.866051257792265 0.0 0.0
1278.852081535503 259.74309222244574 768.0975409560496 36.473892595060846 0.0 0.0
1248.5710782446974 255.84215834200353 751.0319976765293 39.18487308766749 0.0 0.0
1203.944105819004 240.20419704948586 720.9389954543362 41.04445754900202 0.0 0.0
1147.3213790444663 214.83938092218855 679.9703843172047 42.43087488531688 0.0 0.0
1083.4675011355546 183.71963402925286 632.4894364098889 43.61307934488642 0.0 0.0
1016.0418411787565 152.47850512058537 583.1421449013285 44.59997181455701 0.0 0.0
949.3356765703317 124.1785383831504 535.5051808106574 45.238409850779554 0.0 0.0
883.4967655023551 100.90261761907276 490.3974183794563 45.086957158781175 0.0 0.0
817.1656301851859 82.12213395359635 445.6082868076001 44.23488558333116 0.0 0.0
746.9329414350093 65.26383149429505 393.4370756978855 43.26540718010712 0.0 0.0
668.2655478320356 50.63589592642285 323.2478096886591 42.10316817718165 0.0 0.0
584.4881794903717 34.98778542987971 235.0550248469705 39.4977570130637 0.0 0.0
477.02320235769406 19.37937176020622 157.05605939240175 37.95705831489905 0.0 0.0
357.33569931853486 0.08990316356696093 107.00820382381032 37.14853395759727 0.0 0.0
280.5703100249044 60.72459549825187 102.39045335172924 34.921106022659494 0.0 0.0
685.5426889920144 327.5113820534757 448.6161016608054 99.65827607829158 0.0 0.0
-1221.791161623948 -1952.3444187082857 -1467.085705080243 59.271342738537015 0.0 0.0
-993.7857455441654 -1693.737637588205 -1216.45920803654 -72.73951607217981 0.0 0.0
520.3342673025012 231.92046547496858 325.647375688491 -144.83648262643777 0.0 0.0
205.09864341485095 54.22680234000517 77.79763372645681 -57.06191903725228 0.0 0.0
297.3741171259852 5.533109910075167 90.85324261141882 -58.20214206798802 0.0 0.0
422.0904416525916 10.003146650278445 131.55466400190164 -62.38969769833413 0.0 0.0
538.6250754475384 29.147846753767602 202.38034332672004 -60.212227899280926 0.0 0.0
636.7359134860284 44.765092087989494 292.9307476124781 -63.12177035766016 0.0 0.0
714.1769983261081 58.29367233679716 367.8344828225954 -63.74589695196674 0.0 0.0
783.3591609189483 72.26920330098453 421.7361387194198 -64.7439843534061 0.0 0.0
846.5742246352045 87.58708925555842 464.5020288448405 -65.55446022134053 0.0 0.0
908.3283851701026 107.1777134504551 506.0160023720516 -65.39445499444234 0.0 0.0
971.4447926921727 131.81647054029764 550.0823728041834 -64.32038459428792 0.0 0.0
1035.0772713249073 160.70564337135778 596.3867804765785 -62.79331873811916 0.0 0.0
1095.6379094946356 187.91280791088323 640.2867651485167 -61.191162943013225 0.0 0.0
1149.1429456956569 210.91881089435964 678.5291259962175 -59.20406105251694 0.0 0.0
1193.2829077685954 226.6821784001864 708.4464923781264 -56.53500851018304 0.0 0.0
1224.5675583397428 231.43913177911102 726.4491273591311 -52.947182341134834 0.0 0.0
1237.8991680937415 221.44547618686187 728.2128765222423 -48.360877102750365 0.0 0.0
1229.8815815531211 194.4163141401056 710.9196772433868 -42.6834861763499 0.0 0.0
1210.643526885891 161.82302994739723 685.2145147391312 -34.65862493720577 0.0 0.0
1058.5334459067171 8.993162845524694 534.9750088651881 5.6340709875257744e-11 0.0 0.0
1210.6435268863395 161.8230299478841 685.2145147395292 34.65862493728649 0.0 0.0
1229.88158155362 194.4163141406635 710.9196772437786 42.68348617640112 0.0 0.0
1237.8991680934964 221.44547618670646 728.2128765221137 48.36087710274578 0.0 0.0
1224.5675583399168 231.43913177940328 726.4491273592594 52.94718234126251 0.0 0.0
1193.2829077688061 226.68217840052526 708.4464923783179 56.535008510242534 0.0 0.0
1149.1429456952626 210.91881089413258 678.5291259958303 59.2040610525488 0.0 0.0
1095.6379094951046 187.9128079114942 640.2867651488865 61.19116294299348 0.0 0.0
1035.077271324567 160.70564337121738 596.3867804762746 62.79331873808738 0.0 0.0
971.4447926910045 131.81647053933102 550.0823728033919 64.32038459426548 0.0 0.0
908.3283851700955 107.17771345066976 506.01600237201995 65.39445499443407 0.0 0.0
846.5742246343292 87.58708925489668 464.5020288442182 65.55446022124227 0.0 0.0
783.359160918385 72.26920330072193 421.7361387190699 64.74398435345185 0.0 0.0
714.1769983255955 58.29367233654732 367.8344828221737 63.74589695198841 0.0 0.0
636.7359134852333 44.765092087389974 292.9307476118103 63.12177035748067 0.0 0.0
538.6250754470489 29.147846753613074 202.38034332635974 60.212227899281984 0.0 0.0
422.09044165233297 10.003146650461064 131.5546640018645 62.389697698348144 0.0 0.0
297.37411712587766 5.5331099099783 90.85324261135385 58.20214206795389 0.0 0.0
205.0986434148018 54.22680233990283 77.79763372641139 57.06191903701453 0.0 0.0
520.3342673019682 231.9204654747243 325.64737568798205 144.83648262625377 0.0 0.0
-993.7857455424796 -1693.7376375863887 -1216.4592080346604 72.7395160720074 0.0 0.0
-796.4254479628745 -1468.9070169852946 -996.5925832803359 -72.11245896850953 0.0 0.0
398.45261125848396 149.11605744708154 230.61257082495288 -175.69851262486992 0.0 0.0
150.956819552752 43.92870285389041 58.46565672199271 -86.71969387436559 0.0 0.0
243.54957387658226 11.741679928648251 76.58895812964344 -80.96061591937766 0.0 0.0
358.3059441196395 6.08677504173786 109.14107503617126 -86.85818065556398 0.0 0.0
485.0328275448725 17.166439798317207 166.9516194827263 -85.92898961188516 0.0 0.0
592.9694944760618 37.42303634716257 255.37985297401673 -84.31700787836446 0.0 0.0
675.5727711297045 52.28669097576837 337.5016216329391 -84.60140176644754 0.0 0.0
744.6607828230273 62.9370437162962 394.2623454947558 -84.99840106100127 0.0 0.0
805.0350183821738 74.62529917410524 435.93206456970006 -85.35306785977679 0.0 0.0
863.2644236782768 90.30839491173596 474.3034386906305 -84.73790362799409 0.0 0.0
922.2479555534583 111.16863214918197 514.563495739727 -83.17461087819277 0.0 0.0
982.2010045675836 136.14511103141348 557.103279144707 -81.29958702760156 0.0 0.0
1039.1161779964932 161.43474000950567 598.2699462465416 -79.25445116138552 0.0 0.0
1090.024958489 181.74543272795157 633.9003677585123 -76.74736043308027 0.0 0.0
1132.6872181748904 195.72693337354085 662.1860733793677 -73.47793866926268 0.0 0.0
1165.133698137187 202.04448889910844 681.5582612736692 -69.26036591365828 0.0 0.0
1182.464942248297 195.75141660274036 687.1653493657144 -63.96373322206859 0.0 0.0
1180.5514661592622 174.01730033947973 675.5413677938046 -56.51350893440236 0.0 0.0
1166.3519018401264 144.97217306094313 654.0782736409931 -44.60557040172003 0.0 0.0
959.443656686248 -62.44943619096671 450.260247074473 1.3724132941206335e-10 0.0 0.0
1166.3519018406032 144.97217306145225 654.0782736414441 44.605570401798715 0.0 0.0
1180.551466158992 174.0173003392904 675.5413677935657 56.51350893457306 0.0 0.0
1182.4649422485988 195.75141660310214 687.1653493659976 63.963733222104956 0.0 0.0
1165.1336981372142 202.0444888992899 681.5582612736146 69.26036591377182 0.0 0.0
1132.6872181757747 195.72693337458276 662.186073380038 73.47793866938778 0.0 0.0
1090.024958488113 181.7454327271543 633.9003677578264 76.74736043303808 0.0 0.0
1039.1161779972942 161.43474001052124 598.2699462471469 79.25445116140308 0.0 0.0
982.2010045679062 136.1451110318872 557.1032791449001 81.29958702766983 0.0 0.0
922.2479555527641 111.16863214873234 514.5634957391834 83.1746108781596 0.0 0.0
863.2644236776285 90.30839491127657 474.3034386901662 84.73790362805623 0.0 0.0
805.035018382105 74.62529917423062 435.93206456962423 85.35306785961289 0.0 0.0
744.660782822972 62.9370437165482 394.26234549467415 84.99840106099674 0.0 0.0
675.5727711287312 52.28669097503564 337.5016216322025 84.6014017664361 0.0 0.0
592.9694944755823 37.4230363470037 255.37985297356246 84.31700787831588 0.0 0.0
485.03282754449515 17.166439798271476 166.95161948247417 85.92898961187049 0.0 0.0
358.3059441195549 6.086775042235717 109.14107503630733 86.85818065544854 0.0 0.0
243.54957387675793 11.741679929167882 76.58895812984825 80.96061591922995 0.0 0.0
150.95681955274986 43.92870285380776 58.46565672196727 86.71969387417772 0.0 0.0
398.45261125790523 149.11605744675293 230.61257082446247 175.69851262469783 0.0 0.0
-796.4254479614203 -1468.907016983676 -996.5925832786552 72.1124589683459 0.0 0.0
-623.3132057252517 -1269.9207446347982 -801.6428793002573 -69.77427118069068 0.0 0.0
302.6050545641702 85.1093078743866 158.1223370419774 -193.18196231673198 0.0 0.0
109.45674189705173 31.105041349717446 42.16853497403074 -114.8751754961975 0.0 0.0
194.19762320411908 16.95386490206454 63.347074194353326 -104.03776480476887 0.0 0.0
292.9940636667087 4.9022932495743055 88.96765242888107 -110.39334856706233 0.0 0.0
416.2863670795871 8.439165731167146 133.51080536829653 -111.79366989370463 0.0 0.0
531.7302443994062 29.434352426708266 212.27064703489475 -107.0960118823725 0.0 0.0
629.5562435163743 43.24873138671513 298.247504437578 -106.67202504547765 0.0 0.0
697.9078775388625 54.284005382319236 361.1106372636174 -104.84753085008926 0.0 0.0
758.0817396600866 61.82538709149537 403.6471175628629 -104.52330638888435 0.0 0.0
812.8403841791749 73.57169084694425 439.4936651024716 -103.26042532667435 0.0 0.0
867.7674983401612 90.56546920839617 476.110799109838 -101.14929761105347 0.0 0.0
923.6512060985165 112.16431533475435 515.0079906950972 -98.89482232685786 0.0 0.0
976.8485229794677 133.50686970222029 552.399325733422 -96.61727238177286 0.0 0.0
1024.8965934900903 151.83247122665537 585.6562004237251 -93.73629795037016 0.0 0.0
1066.0235499092803 164.9591896996529 612.7954776978559 -89.85225537887379 0.0 0.0
1099.5891351471387 171.44193454737905 632.7816123766896 -85.2491323783101 0.0 0.0
1122.8876081528888 170.86789241554345 644.1729718795264 -79.5314348039241 0.0 0.0
1128.8253890638011 156.1534083469517 639.9776281996078 -70.71802185707804 0.0 0.0
1117.6403544508335 127.80298555263118 620.3853264240175 -55.53146856200367 0.0 0.0
845.2318369488152 -144.63057049159494 352.87155351213687 1.247659753289554e-10 0.0 0.0
1117.640354450886 127.80298555271673 620.3853264241025 55.531468562057185 0.0 0.0
1128.8253890635328 156.15340834679225 639.97762819947 70.71802185725153 0.0 0.0
1122.8876081527023 170.86789241540708 644.1729718794797 79.53143480402652 0.0 0.0
1099.589135147335 171.44193454770047 632.7816123767057 85.249132378344 0.0 0.0
1066.0235499096457 164.95918970017738 612.7954776982075 89.85225537893271 0.0 0.0
1024.8965934890894 151.83247122577228 585.6562004229638 93.73629795040323 0.0 0.0
976.848522978888 133.50686970181735 552.3993257330314 96.61727238186693 0.0 0.0
923.6512060983794 112.1643153348254 515.0079906949943 98.89482232695649 0.0 0.0
867.7674983397853 90.56546920817874 476.1107991095669 101.14929761096855 0.0 0.0
812.8403841786507 73.57169084663816 439.4936651020822 103.26042532667925 0.0 0.0
758.081739659855 61.82538709144658 403.6471175627123 104.52330638876226 0.0 0.0
697.9078775384487 54.28400538213835 361.1106372632636 104.84753085005661 0.0 0.0
629.5562435156946 43.248731386317594 298.24750443702635 106.67202504543978 0.0 0.0
531.7302443989176 29.43435242650539 212.27064703446678 107.09601188233182 0.0 0.0
416.28636707908015 8.439165730980069 133.51080536803187 111.79366989364367 0.0 0.0
292.9940636666779 4.9022932501176335 88.96765242904681 110.3933485668624 0.0 0.0
194.1976232042112 16.953864902302186 63.34707419445244 104.03776480463026 0.0 0.0
109.45674189702568 31.1050413495695 42.168534973978545 114.87517549604217 0.0 0.0
302.60505456365365 85.10930787418646 158.12233704160266 193.18196231657527 0.0 0.0
-623.3132057240759 -1269.920744633361 -801.6428792988212 69.77427118068572 0.0 0.0
-474.41236185319224 -1087.6651402690402 -629.4183803213127 -68.19071847157653 0.0 0.0
227.0158133279265 34.3255790789521 102.98762971177749 -203.55592075854722 0.0 0.0
75.68091278370258 18.332098443385647 28.203805946200738 -138.15799159599757 0.0 0.0
147.6813019417021 20.32047288906365 50.40160160519263 -125.59550610488375 0.0 0.0
229.47905370790733 6.173451926213167 70.58196345619191 -131.1159896849331 0.0 0.0
338.2964017647395 0.5807609338487792 102.11057474271668 -139.0591241450057 0.0 0.0
457.89948507037343 16.421145150602538 164.79474268457145 -133.82413636225536 0.0 0.0
562.6731849543878 35.30077984500327 248.88806687534813 -128.37902676921547 0.0 0.0
644.5045516288444 42.291043916426695 318.5158870291959 -126.58808240237019 0.0 0.0
702.0178200801228 49.35772505539931 364.9557589462725 -122.88592660291556 0.0 0.0
755.6240626653557 57.02369035701155 400.23960359104404 -120.89151650979038 0.0 0.0
806.6009651457368 69.91489812079186 433.61132470396683 -118.24435591779088 0.0 0.0
858.0669155172924 87.6474615524469 468.6106682877987 -115.63000115648968 0.0 0.0
907.1952196214544 105.87237405470039 502.5191734119741 -113.11305914145629 0.0 0.0
951.8893002613707 121.48798746835033 532.8360646937394 -110.04984840748337 0.0 0.0
990.9846364846161 131.8848718467373 557.6479612194205 -105.99231830245559 0.0 0.0
1025.2574333537073 140.42260619338168 579.0148053533121 -100.67055023329637 0.0 0.0
1056.2199875524473 146.3247104330885 597.3656720379718 -94.79221237791798 0.0 0.0
1072.216174445425 139.71342159235485 602.2071065738912 -85.62885766647598 0.0 0.0
1064.594822581584 112.19920789568664 584.9284467107827 -68.16516378804339 0.0 0.0
713.8754470564382 -237.23394169219358 242.04181441910166 7.80193687432984e-11 0.0 0.0
1064.594822581818 112.19920789600339 584.9284467109833 68.16516378811312 0.0 0.0
1072.2161744456935 139.71342159268033 602.207106574221 85.62885766662383 0.0 0.0
1056.2199875516753 146.32471043245025 597.3656720374541 94.79221237806387 0.0 0.0
1025.257433353578 140.42260619334516 579.014805353104 100.67055023342365 0.0 0.0
990.9846364848122 131.8848718470521 557.6479612196507 105.9923183024046 0.0 0.0
951.8893002611869 121.48798746829327 532.8360646935663 110.0498484075028 0.0 0.0
907.195219620668 105.872374054072 502.5191734114272 113.11305914144559 0.0 0.0
858.0669155172782 87.6474615526209 468.61066828777496 115.63000115655808 0.0 0.0
806.6009651460145 69.914898121373 433.61132470415987 118.24435591788915 0.0 0.0
755.6240626652644 57.02369035708472 400.2396035909145 120.8915165097399 0.0 0.0
702.0178200802461 49.357725055839595 364.9557589463357 122.8859266029042 0.0 0.0
644.5045516281222 42.291043915915125 318.51588702861204 126.58808240229448 0.0 0.0
562.6731849538522 35.300779844747694 248.88806687488142 128.37902676913788 0.0 0.0
457.8994850699668 16.42114515053045 164.794742684248 133.82413636218524 0.0 0.0
338.2964017642163 0.5807609336140622 102.11057474249147 139.05912414484578 0.0 0.0
229.47905370784775 6.173451926419575 70.58196345623801 131.1159896848146 0.0 0.0
147.68130194158078 20.320472888961227 50.40160160512511 125.5955061046634 0.0 0.0
75.68091278355101 18.332098443143714 28.203805946082795 138.15799159582636 0.0 0.0
227.01581332749944 34.325579078703484 102.9876297114607 203.55592075836768 0.0 0.0
-474.41236185216434 -1087.6651402677612 -629.4183803200663 68.19071847154856 0.0 0.0
-343.31612041940696 -930.0614043421272 -478.34239890028766 -75.74134512395973 0.0 0.0
162.5209734616354 -3.9945659617075364 60.158674051286035 -205.33905178768515 0.0 0.0
46.57874978485913 7.833889050745777 16.323625867980414 -155.9239532201761 0.0 0.0
102.74511864893023 21.6837929474249 37.32980939121532 -144.24635800155346 0.0 0.0
168.3161113625541 8.645385101918798 53.01595395367728 -149.1417561125602 0.0 0.0
252.3226440954639 -1.2757747652998161 74.70402641219047 -161.63886960588314 0.0 0.0
364.5096730588448 4.050014943973767 117.695890489898 -162.2257434279123 0.0 0.0
475.6239911443665 21.655713222161314 188.42056799468966 -152.20652085290843 0.0 0.0
568.17196344379 32.370606613970324 261.975089518337 -146.61834212674165 0.0 0.0
635.0193119978504 33.88425880712963 314.37160671502744 -142.31761694196265 0.0 0.0
686.8209846549149 39.693365463205176 351.95107291843595 -137.561714319875 0.0 0.0
734.7854014680992 49.391081207314485 384.09122854844 -134.21551468621004 0.0 0.0
782.2802746127877 63.24750925903304 415.8661578098198 -131.26984718095272 0.0 0.0
826.4246099274485 77.47024878416701 445.6040136117365 -128.57701445451977 0.0 0.0
867.6281783808369 90.11673145524163 472.82567701173434 -125.60229575054305 0.0 0.0
904.2616167873281 99.48035346193993 496.0401943065402 -121.53995701957224 0.0 0.0
938.0036789607918 106.01136719926998 516.2648339810895 -115.87490375523232 0.0 0.0
975.4683214247592 118.13957633968883 540.7800695428324 -109.45199965469259 0.0 0.0
1006.2855530699626 125.61412413937023 559.9561628884203 -100.97118811780338 0.0 0.0
1006.7776058448338 102.21971892047591 549.0825151496254 -83.40005704372054 0.0 0.0
559.6240732783248 -340.1935438315006 115.12571299331813 9.917755505739478e-11 0.0 0.0
1006.7776058451591 102.21971892088074 549.0825151498664 83.40005704397122 0.0 0.0
1006.2855530690971 125.61412413854968 559.9561628879081 100.97118811795053 0.0 0.0
975.4683214247059 118.13957633988338 540.7800695427694 109.4519996549558 0.0 0.0
938.0036789608791 106.01136719950465 516.2648339809882 115.87490375542983 0.0 0.0
904.2616167880315 99.48035346281564 496.0401943070485 121.53995701960704 0.0 0.0
867.6281783809552 90.11673145557809 472.82567701182586 125.60229575059437 0.0 0.0
826.4246099270276 77.47024878380124 445.6040136114575 128.57701445458162 0.0 0.0
782.2802746122579 63.24750925861407 415.8661578094474 131.2698471808714 0.0 0.0
734.7854014681474 49.39108120763223 384.0912285485056 134.21551468631827 0.0 0.0
686.8209846548357 39.693365463261586 351.95107291830965 137.56171431977648 0.0 0.0
635.0193119983559 33.88425880805737 314.3716067153763 142.31761694200878 0.0 0.0
568.1719634433429 32.370606613746126 261.9750895179317 146.61834212668762 0.0 0.0
475.62399114398636 21.655713222081168 188.42056799435954 152.20652085282688 0.0 0.0
364.5096730584287 4.050014943886168 117.69589048967045 162.22574342793416 0.0 0.0
252.3226440952453 -1.2757747649080788 74.70402641227551 161.63886960562402 0.0 0.0
168.31611136231783 8.645385101576162 53.01595395350247 149.1417561123648 0.0 0.0
102.745118648803 21.683792947241713 37.32980939112248 144.24635800136434 0.0 0.0
46.57874978491924 7.833889050928433 16.323625868053014 155.92395322002284 0.0 0.0
162.5209734612219 -3.9945659620233016 60.158674050998876 205.33905178746986 0.0 0.0
-343.31612041853873 -930.0614043409072 -478.3423988992408 75.74134512398582 0.0 0.0
-244.85756479623984 -777.590338762335 -357.5491936045572 -83.66268413989269 0.0 0.0
107.09863483882518 -34.99822298977877 27.584956868630993 -200.79721372132636 0.0 0.0
19.288105997431074 0.748600571925821 6.012671303352481 -168.60127717246078 0.0 0.0
59.02437704544308 21.518037777802363 24.16182856252714 -159.15326669928174 0.0 0.0
107.07204251334468 11.61294249527684 35.557657841336095 -163.40559077148419 0.0 0.0
165.71420711197445 0.9444807473082566 49.78433449622447 -177.6311957945452 0.0 0.0
251.0315212082293 -3.4526100974353544 74.61774838794582 -190.28038908917304 0.0 0.0
359.59825629202817 3.0065004207743193 120.66951282076056 -182.79567791067123 0.0 0.0
461.2790909087162 14.948974793773683 184.28609246540276 -167.91036987345544 0.0 0.0
538.4145819756964 18.29107508674217 241.0995359375251 -159.1780322757899 0.0 0.0
595.2094313075063 21.670949841888287 284.3035085040999 -152.51341180639776 0.0 0.0
642.1902962013166 27.464384983438826 317.5380079654123 -148.53823987561574 0.0 0.0
686.2010434771566 38.428329896072626 348.3189591619441 -145.402047248378 0.0 0.0
725.3751760419411 48.70080818744543 374.7607651993129 -142.59827740056627 0.0 0.0
761.9138738699096 58.234970995248176 398.6954363164334 -139.94865759669491 0.0 0.0
796.4460997183521 66.22524522637806 420.52647466434655 -136.52991529395726 0.0 0.0
829.8655318800439 72.6384230430305 441.02120497911767 -130.98467961803348 0.0 0.0
867.7570563853651 83.6945796585088 465.47636676551974 -123.47916664685259 0.0 0.0
915.8505105841055 105.47853842901849 499.9496151504587 -115.99496805766937 0.0 0.0
940.5641011684507 101.51881575990961 511.4539245948112 -102.65612813195311 0.0 0.0
373.77772075000786 -449.7997933227134 -29.934005878433794 -3.063860276597552e-11 0.0 0.0
940.564101169345 101.51881576105345 511.4539245954762 102.6561281322696 0.0 0.0
915.8505105830477 105.47853842811023 499.9496151498066 115.9949680579131 0.0 0.0
867.7570563861251 83.69457965960486 465.47636676604577 123.4791666473281 0.0 0.0
829.8655318804169 72.63842304359704 441.02120497932816 130.98467961824502 0.0 0.0
796.4460997194303 66.22524522779574 420.5264746651244 136.52991529413887 0.0 0.0
761.9138738699519 58.23497099529747 398.6954363163914 139.9486575966554 0.0 0.0
725.3751760412966 48.70080818698137 374.76076519883924 142.59827740059833 0.0 0.0
686.2010434766753 38.42832989558307 348.31895916156947 145.40204724839964 0.0 0.0
642.1902962011138 27.464384983286223 317.5380079651788 148.5382398753807 0.0 0.0
595.2094313072627 21.670949841854863 284.3035085039171 152.51341180641663 0.0 0.0
538.4145819758386 18.291075087338623 241.09953593761313 159.1780322757955 0.0 0.0
461.2790909082787 14.948974793714521 184.28609246509296 167.91036987350105 0.0 0.0
359.5982562917115 3.0065004207926362 120.6695128205732 182.79567791068715 0.0 0.0
251.03152120785646 -3.452610097285353 74.61774838788499 190.28038908901485 0.0 0.0
165.71420711202106 0.9444807478064736 49.7843344963974 177.631195794352 0.0 0.0
107.07204251318218 11.612942494905866 35.557657841174866 163.4055907712303 0.0 0.0
59.02437704536198 21.518037777670717 24.161828562463384 159.15326669920958 0.0 0.0
19.288105997475224 0.7486005721705036 6.012671303439009 168.60127717231398 0.0 0.0
107.09863483844845 -34.998222989965484 27.584956868424676 200.79721372110163 0.0 0.0
-244.85756479572348 -777.5903387613797 -357.5491936038517 83.6626841400429 0.0 0.0
-167.5468904402087 -645.0927544134244 -262.0926103526128 -99.1903016582711 0.0 0.0
57.13573601478461 -57.92668556052898 2.0355104302574807 -190.24064202296003 0.0 0.0
-6.980306503347728 -2.5583711237193785 -2.8615670229798935 -176.44377915745616 0.0 0.0
16.21857085696417 20.322844157014195 10.9618819677641 -169.7841450084833 0.0 0.0
45.90781152587291 14.3138984424932 18.05182294143418 -173.4610768470858 0.0 0.0
80.07370715267174 4.179190564298155 25.156481727406288 -189.10730100323522 0.0 0.0
125.12856236055646 -1.3119663287388637 37.08013938432822 -205.25197374427924 0.0 0.0
195.31458218168018 -4.759507028644817 57.586847301085314 -210.57741193206076 0.0 0.0
288.825802091214 -10.89181774145997 87.70415676382189 -200.4350167095396 0.0 0.0
379.1560204448783 -17.469377201765525 122.94557897368988 -182.30135814497908 0.0 0.0
443.1385906464848 -13.631206062737618 159.91477315484363 -168.04313015934076 0.0 0.0
488.6169009360873 -2.2347957160266816 193.27083285264365 -159.95095954693574 0.0 0.0
528.5294354644764 9.161974463448537 223.755279722221 -157.39272455219074 0.0 0.0
563.32948076664 18.016460958207873 250.28265344916124 -156.08801747718405 0.0 0.0
594.9672201466548 26.000330266015887 274.54359827085017 -155.34952760561086 0.0 0.0
626.7266282185558 33.451886433083786 298.3361193572871 -154.53872648127705 0.0 0.0
661.2915926018708 39.878478137660444 323.1343157316146 -150.60513355515135 0.0 0.0
699.4971627191052 45.096034682325296 348.75262315633717 -142.27705515190877 0.0 0.0
751.7147028155886 61.46048334034093 383.6545817156388 -132.75692845469018 0.0 0.0
829.8696992148338 100.96274733026874 444.8235687657492 -127.9092700117792 0.0 0.0
123.23591039679339 -562.4755383319484 -205.70981593778316 -3.936406756110955e-12 0.0 0.0
829.8696992146092 100.96274733008082 444.8235687657285 127.90927001203423 0.0 0.0
751.7147028152165 61.46048334027278 383.65458171549227 132.75692845503073 0.0 0.0
699.4971627192823 45.09603468250686 348.75262315649684 142.2770551523146 0.0 0.0
661.2915926017821 39.878478137883405 323.1343157315582 150.60513355531498 0.0 0.0
626.7266282184721 33.451886432966106 298.33611935732614 154.5387264813732 0.0 0.0
594.9672201467703 26.0003302662731 274.54359827096266 155.3495276055913 0.0 0.0
563.3294807668343 18.01646095858235 250.2826534492393 156.08801747727358 0.0 0.0
528.5294354637398 9.161974462663252 223.75527972176087 157.39272455221464 0.0 0.0
488.6169009359096 -2.2347957163174748 193.27083285248324 159.95095954690865 0.0 0.0
443.13859064654315 -13.631206062480699 159.9147731548435 168.04313015933832 0.0 0.0
379.1560204447983 -17.46937720143041 122.94557897372441 182.3013581449596 0.0 0.0
288.8258020909911 -10.8918177412042 87.70415676380097 200.4350167096415 0.0 0.0
195.31458218147753 -4.759507028384618 57.586847301100065 210.57741193199374 0.0 0.0
125.12856236042482 -1.311966328655262 37.080139384312766 205.25197374408557 0.0 0.0
80.07370715250842 4.179190564141312 25.156481727314496 189.10730100302874 0.0 0.0
45.90781152588376 14.313898442601833 18.05182294147153 173.46107684686507 0.0 0.0
16.218570856865597 20.32284415681679 10.961881967675062 169.78414500829126 0.0 0.0
-6.9803065033669895 -2.5583711236364444 -2.8615670229610153 176.44377915724692 0.0 0.0
57.135736014497795 -57.92668556066757 2.0355104301110605 190.2406420227403 0.0 0.0
-167.54689043975299 -645.0927544125844 -262.0926103520982 99.1903016583565 0.0 0.0
-122.24285686463466 -522.110388310223 -196.43530174285485 -109.78950458952033 0.0 0.0
13.980475329569758 -72.4493611327531 -17.104103627826934 -174.78804622743812 0.0 0.0
-31.667347487457043 -3.6103997887911476 -10.578873598297875 -180.20519274284152 0.0 0.0
-25.530214693460067 18.804342228799342 -2.0173587271801394 -176.05657158798857 0.0 0.0
-14.479613911625213 16.533818690003972 0.6173424411286335 -179.01045972243006 0.0 0.0
-6.508459049061603 7.7862837135377365 0.38823219928905006 -193.2868821688212 0.0 0.0
-2.6274076321576914 1.5125803074730044 -0.33856012576737005 -210.56577864263863 0.0 0.0
-0.7227974268115815 0.13420917727310577 -0.17984632052840865 -215.21550110253352 0.0 0.0
-0.13262494924400414 -0.058721210785863676 -0.05907966041346313 -207.50134128172837 0.0 0.0
0.0973886530157273 0.004464051481471998 0.03882515276212217 -198.49253168030853 0.0 0.0
-0.09369503035198079 -0.12943338891106393 -0.13102071273679172 -197.09463684001318 0.0 0.0
-0.649094047112186 0.1933634873490746 0.147327702581741 -193.14401462971057 0.0 0.0
-2.0053208922681733 0.6872528379981588 0.1905825632541962 -184.29355994028373 0.0 0.0
-1.595517297464454 1.4588186775955876 0.6100579405547819 -176.3445260416018 0.0 0.0
3.7515943100569586 4.196333054633179 1.5653571268837965 -170.71079674940412 0.0 0.0
21.704483646094417 9.867233250928173 4.407469741519591 -165.8245083261316 0.0 0.0
63.15947785349837 20.570930935833772 11.42323612450457 -160.63177226494236 0.0 0.0
146.42773607980644 27.630055410861942 15.480604353143107 -152.0791997289339 0.0 0.0
354.11382517417485 -24.139745768317965 29.018865693059027 -145.46729922540257 0.0 0.0
548.0954816956662 6.32106731709203 206.20543300200788 -183.33571660703564 0.0 0.0
-491.4614857052709 -778.5655272269355 -558.6669981170435 -3.0055957722652238e-12 0.0 0.0
548.0954816954845 6.321067317053348 206.2054330017873 183.33571660683518 0.0 0.0
354.1138251741762 -24.139745768355496 29.018865693084805 145.46729922622052 0.0 0.0
146.42773607961118 27.630055410624564 15.480604353033968 152.07919972940283 0.0 0.0
63.159477853187184 20.570930935444665 11.423236124206241 160.63177226524655 0.0 0.0
21.704483645322412 9.86723324970525 4.407469740829228 165.82450832605747 0.0 0.0
3.7515943105214973 4.196333055222958 1.5653571272636384 170.71079674936018 0.0 0.0
-1.5955172971523552 1.4588186777377246 0.6100579406912274 176.34452604151483 0.0 0.0
-2.0053208924626915 0.6872528371713571 0.19058256286020736 184.29355994039787 0.0 0.0
-0.6490940468928628 0.1933634864036442 0.14732770235717396 193.14401462973814 0.0 0.0
-0.09369502952348086 -0.12943338799194493 -0.13102071220682632 197.09463683989588 0.0 0.0
0.09738865314216127 0.0044640508760025455 0.03882515260892916 198.49253168015252 0.0 0.0
-0.1326249491218121 -0.05872121080611503 -0.059079660381202714 207.5013412818486 0.0 0.0
-0.7227974266616393 0.13420917753320216 -0.17984632040120285 215.21550110255515 0.0 0.0
-2.6274076322329236 1.5125803071106039 -0.33856012589832174 210.56577864232656 0.0 0.0
-6.508459049053828 7.786283713463342 0.38823219926849095 193.28688216860587 0.0 0.0
-14.479613911653288 16.533818689955453 0.6173424411050052 179.01045972221027 0.0 0.0
-25.530214693395582 18.804342228908272 -2.01735872712963 176.05657158768602 0.0 0.0
-31.66734748733454 -3.6103997886035266 -10.578873598203993 180.20519274272706 0.0 0.0
13.980475329412169 -72.4493611329394 -17.10410362793074 174.78804622727327 0.0 0.0
-122.24285686453847 -522.1103883094148 -196.4353017425919 109.78950458948077 0.0 0.0
-99.90106888892598 -410.71835349715553 -153.0437481398591 -109.00446828983601 0.0 0.0
-15.222036731734736 -80.97306297136441 -28.876768338400915 -162.27741795010255 0.0 0.0
-54.72135555147147 -4.347347236614076 -17.723012535786232 -179.96965675636164 0.0 0.0
-65.79166469260691 17.43217107175486 -14.505746369325047 -177.79725043181347 0.0 0.0
-73.7441512843397 17.994567943040963 -16.727288856532063 -179.35618253285762 0.0 0.0
-91.93673631971419 11.175098949125454 -24.176560068821708 -191.0275295080399 0.0 0.0
-130.32792118091945 4.544624687700979 -37.620084199337 -206.78267017371098 0.0 0.0
-196.53021236234417 4.912806714171538 -57.96309399139486 -210.79183646340147 0.0 0.0
-288.88540936261927 10.67548987219044 -87.82255050147796 -200.44651367983892 0.0 0.0
-379.0243174140913 17.477899286681875 -122.88272560144647 -182.2737673606957 0.0 0.0
-443.63629944067134 13.755391963449984 -159.89944756968305 -168.11734971905165 0.0 0.0
-488.9955215745956 2.2162448308274563 -193.8575193830347 -159.86039366405075 0.0 0.0
-529.6695627292114 -8.663580914622976 -224.82161287450498 -156.8661902072544 0.0 0.0
-563.7619713216216 -15.12047967696516 -249.95049844507804 -155.31076054667133 0.0 0.0
-589.1033434544433 -17.670998023341497 -267.10720623477755 -155.1426959463194 0.0 0.0
-603.6645552319478 -15.245396638467767 -273.3038843961083 -157.41295245013535 0.0 0.0
-605.3581234467428 -7.834427481606966 -266.2538339256406 -162.25727596488136 0.0 0.0
-599.772057741214 -0.8630735716285329 -245.71121650260903 -172.35248496652883 0.0 0.0
-582.7164101228498 43.41513130329177 -191.63392880349767 -185.58084148734682 0.0 0.0
-325.001591689218 121.92742280890398 -16.84064589839973 -137.4814713473821 0.0 0.0
-1035.452151246164 -1017.2278933469147 -1035.7106399299853 -1.3059064940534881e-10 0.0 0.0
-325.00159168875336 121.92742280990734 -16.840645897922286 137.4814713481055 0.0 0.0
-582.7164101229039 43.41513130288675 -191.63392880364393 185.58084148757973 0.0 0.0
-599.7720577404871 -0.8630735708870958 -245.71121650205004 172.35248496662516 0.0 0.0
-605.3581234471584 -7.834427482394844 -266.25383392591135 162.25727596504316 0.0 0.0
-603.6645552317817 -15.24539663843698 -273.3038843959904 157.41295245002928 0.0 0.0
-589.1033434538779 -17.670998022855244 -267.1072062343204 155.1426959463676 0.0 0.0
-563.7619713210415 -15.120479676480699 -249.95049844462608 155.31076054654957 0.0 0.0
-529.669562729506 -8.663580915464188 -224.82161287476677 156.866190207509 0.0 0.0
-488.995521574252 2.216244830963632 -193.85751938270857 159.86039366405774 0.0 0.0
-443.636299439995 13.755391964046657 -159.89944756919405 168.11734971905378 0.0 0.0
-379.0243174136952 17.477899286342627 -122.88272560131877 182.27376736068638 0.0 0.0
-288.88540936220846 10.675489871831736 -87.82255050142687 200.446513679927 0.0 0.0
-196.5302123619704 4.91280671406532 -57.96309399130159 210.79183646341033 0.0 0.0
-130.32792118048133 4.544624687980572 -37.62008419912865 206.78267017350595 0.0 0.0
-91.93673631949488 11.175098949147802 -24.17656006875229 191.02752950773146 0.0 0.0
-73.74415128423894 17.99456794302614 -16.727288856509304 179.35618253257564 0.0 0.0
-65.79166469232382 17.43217107226869 -14.505746369089573 177.79725043165777 0.0 0.0
-54.72135555143725 -4.347347236654088 -17.723012535791394 179.96965675624796 0.0 0.0
-15.222036731754192 -80.97306297133996 -28.87676833840241 162.2774179499296 0.0 0.0
-99.90106888878728 -410.71835349659926 -153.04374813965617 109.00446828971616 0.0 0.0
-82.47884622572073 -314.27530957560896 -119.02940435836724 -100.4678720873334 0.0 0.0
-34.45031701623968 -82.88171517357303 -35.195688438626306 -150.67193605099948 0.0 0.0
-76.17341130170283 -5.116523441632694 -24.381592807913876 -176.05067391605652 0.0 0.0
-104.0938308215154 16.03686299274377 -26.4343992901599 -174.7343945150802 0.0 0.0
-131.98423188438485 18.981570688772603 -33.81461761540065 -175.76442475868254 0.0 0.0
-176.35676136777448 14.405343721883263 -48.29551813915345 -184.1722659647059 0.0 0.0
-253.270190382845 5.681277175760963 -75.10033516076363 -189.61594939729136 0.0 0.0
-359.85082177989824 -3.2040892338667533 -120.97611020829152 -183.14139597824655 0.0 0.0
-461.3226338958791 -15.187044178004765 -184.38539193910364 -167.98246156992937 0.0 0.0
-538.3645596081512 -18.345851855297596 -241.09681466758522 -159.1423531511117 0.0 0.0
-595.1650312069376 -21.614652496834644 -284.29133625728775 -152.46064738791787 0.0 0.0
-642.4781762611166 -27.405269184988825 -317.7251310630156 -148.2291697464533 0.0 0.0
-686.8328778642793 -37.98172670075691 -348.56830545769265 -144.49489161797874 0.0 0.0
-725.0609918626226 -46.53385154350312 -373.810583558849 -141.2832037018274 0.0 0.0
-755.6761292352514 -50.82206325372128 -392.27212877757904 -139.7271364049608 0.0 0.0
-774.8521164262247 -48.09847564327697 -400.9483396899153 -140.72542347991978 0.0 0.0
-781.5116787512145 -39.088033846159874 -399.62343484053827 -144.7230529207673 0.0 0.0
-775.2101857104071 -26.206214633811655 -389.5187184931986 -151.7793240215441 0.0 0.0
-732.2730363141101 14.546841348331228 -348.6181207327404 -160.19123575105817 0.0 0.0
-645.5813302577492 86.46985102556386 -272.9673099851928 -166.97392717499986 0.0 0.0
-1791.830794435165 -1306.407696460073 -1509.4589811319477 3.665689973786357e-11 0.0 0.0
-645.5813302578621 86.469851025199 -272.967309985307 166.9739271753785 0.0 0.0
-732.2730363132738 14.546841349083593 -348.61812073215606 160.19123575125315 0.0 0.0
-775.2101857096048 -26.20621463315632 -389.5187184927279 151.77932402170646 0.0 0.0
-781.5116787514936 -39.08803384655199 -399.6234348408048 144.72305292092022 0.0 0.0
-774.852116426527 -48.09847564369465 -400.948339690097 140.72542347995767 0.0 0.0
-755.6761292349287 -50.82206325348617 -392.27212877728374 139.72713640488934 0.0 0.0
-725.0609918625458 -46.533851543563834 -373.81058355886114 141.28320370180677 0.0 0.0
-686.8328778644124 -37.98172670121192 -348.56830545779104 144.49489161805926 0.0 0.0
-642.4781762605703 -27.405269184649903 -317.7251310625976 148.2291697463939 0.0 0.0
-595.1650312067364 -21.614652496964396 -284.2913362571649 152.46064738795482 0.0 0.0
-538.3645596077299 -18.345851855147217 -241.09681466722 159.1423531509729 0.0 0.0
-461.322633895176 -15.187044177718024 -184.38539193859927 167.98246156993366 0.0 0.0
-359.8508217790601 -3.204089233233617 -120.97611020773658 183.1413959782604 0.0 0.0
-253.27019038233192 5.6812771758576055 -75.10033516057523 189.6159493971395 0.0 0.0
-176.3567613673963 14.40534372193683 -48.295518139035885 184.17226596440028 0.0 0.0
-131.9842318841145 18.981570688819463 -33.81461761531191 175.76442475846153 0.0 0.0
-104.09383082124806 16.03686299310582 -26.43439928997249 174.73439451495094 0.0 0.0
-76.17341130168151 -5.116523441679432 -24.381592807921866 176.05067391592954 0.0 0.0
-34.450317016228 -82.88171517356439 -35.19568843862049 150.67193605082056 0.0 0.0
-82.4788462255823 -314.275309575183 -119.02940435819595 100.46787208716376 0.0 0.0
-66.75360976863938 -232.79091469861382 -89.86335734017594 -88.8351360560366 0.0 0.0
-48.60797261989646 -79.25298632051377 -38.359080955614814 -137.71368508750896 0.0 0.0
-95.94321194304858 -5.640950775982228 -30.469987730089006 -167.95218468018155 0.0 0.0
-140.82211372962627 14.687966311411557 -37.810428505794206 -168.00496393024315 0.0 0.0
-187.69333739098806 18.68069807625652 -50.61704931421042 -165.83942829748017 0.0 0.0
-256.9883051995217 13.82231136239573 -73.11300349927582 -166.55802506816462 0.0 0.0
-365.16447884734407 -1.1173761421638737 -117.40634226572914 -164.97955197514406 0.0 0.0
-475.81884812701156 -21.99047853246787 -188.59347514485177 -152.8126056289468 0.0 0.0
-568.1851264899693 -32.63123592680233 -262.06864595098125 -146.6436500885024 0.0 0.0
-634.9851999343662 -33.89750306259035 -314.3883227461827 -142.30726285621117 0.0 0.0
-686.6698614964178 -39.5352801752844 -351.8299455470989 -137.50568731573642 0.0 0.0
-734.7840762783042 -49.14509619181838 -384.00099632487144 -133.87469518322865 0.0 0.0
-782.5797306980443 -62.809691908679724 -415.8621066408741 -130.21627811041492 0.0 0.0
-826.3890908393747 -76.0973728033204 -445.05270398314826 -126.88144482482079 0.0 0.0
-863.2682790386791 -84.79996118895642 -468.2704329270141 -124.98001532971925 0.0 0.0
-887.5401681858849 -85.06613817940587 -480.77914268319614 -126.03940557890803 0.0 0.0
-896.3123318325927 -74.5487351233788 -480.0064285453026 -130.72152203101882 0.0 0.0
-879.3634214022661 -45.558904894388945 -457.216801931189 -137.33811078769705 0.0 0.0
-829.7519050619993 7.237438770183402 -406.95564786577137 -143.02470808673223 0.0 0.0
-698.1676072120479 126.94456773632385 -286.0933770187132 -147.0991330979586 0.0 0.0
-2236.926633657128 -1545.9185581376635 -1861.4851974926921 7.09263758835732e-11 0.0 0.0
-698.167607212084 126.94456773602828 -286.0933770187417 147.09913309833138 0.0 0.0
-829.7519050611884 7.237438770888446 -406.9556478652415 143.02470808702003 0.0 0.0
-879.3634214021737 -45.55890489439537 -457.2168019311111 137.3381107878402 0.0 0.0
-896.3123318317221 -74.54873512252465 -480.0064285447319 130.72152203087825 0.0 0.0
-887.5401681870401 -85.066138180893 -480.7791426839525 126.03940557919816 0.0 0.0
-863.268279038107 -84.79996118839814 -468.2704329265638 124.98001532958486 0.0 0.0
-826.3890908397965 -76.09737280406401 -445.05270398345885 126.8814448248904 0.0 0.0
-782.5797306976301 -62.8096919082998 -415.862106640618 130.21627811036245 0.0 0.0
-734.784076277882 -49.145096191551104 -384.0009963245454 133.87469518305215 0.0 0.0
-686.6698614960094 -39.53528017521156 -351.8299455468854 137.50568731577292 0.0 0.0
-634.9851999341539 -33.89750306261609 -314.3883227459448 142.30726285611155 0.0 0.0
-568.1851264892268 -32.63123592640145 -262.0686459504107 146.64365008848642 0.0 0.0
-475.81884812597156 -21.99047853148598 -188.59347514403717 152.81260562884256 0.0 0.0
-365.16447884731764 -1.1173761428652056 -117.40634226581554 164.97955197517499 0.0 0.0
-256.98830519898 13.822311362437528 -73.11300349912288 166.55802506798275 0.0 0.0
-187.69333739083612 18.680698075952858 -50.61704931426278 165.83942829727926 0.0 0.0
-140.82211372934887 14.687966311649177 -37.81042850564595 168.00496393004735 0.0 0.0
-95.94321194296376 -5.640950775949323 -30.469987730053173 167.9521846800091 0.0 0.0
-48.607972619948576 -79.25298632063944 -38.35908095566798 137.71368508734773 0.0 0.0
-66.7536097685766 -232.79091469830092 -89.86335734006325 88.83513605600321 0.0 0.0
-54.30733024134734 -164.69584010678332 -65.7009511044392 -75.98373411292228 0.0 0.0
-59.566204387999576 -71.57843962428348 -39.343374742707624 -122.79065542416427 0.0 0.0
-114.48534874585496 -5.774212425701137 -36.078535106707804 -155.81279264139457 0.0 0.0
-175.4958483067247 12.75374950626055 -48.820745175167126 -156.32067262100625 0.0 0.0
-242.07025186304264 17.65682744333691 -67.02382142280003 -152.36353732514067 0.0 0.0
-338.482149730189 10.85073668170794 -99.71062061255637 -146.63390695143087 0.0 0.0
-455.293592918719 -14.99979936163883 -164.2088795921074 -134.64228820373026 0.0 0.0
-562.7817487656164 -35.87276922716849 -249.02133245424875 -128.70213228673262 0.0 0.0
-644.6060765466068 -42.55537451182483 -318.6903651435289 -126.59498047447458 0.0 0.0
-701.9651539399438 -49.31781963580427 -364.94892956277897 -122.88205006378928 0.0 0.0
-755.3926458953526 -56.739272010415405 -400.01370981932644 -120.84869869519969 0.0 0.0
-806.2027267794447 -69.35215062016391 -433.16260729851746 -117.9044959128638 0.0 0.0
-857.8022498953948 -86.92575699609979 -468.152609382793 -114.57651747376892 0.0 0.0
-907.5149628810614 -105.31842772797754 -502.4630354603454 -111.31409707220267 0.0 0.0
-950.8504596822157 -119.70848199855371 -531.5657775632732 -109.12895891306286 0.0 0.0
-980.7150086847982 -122.91629135947096 -548.3116770367674 -109.96959108902018 0.0 0.0
-986.5629452292392 -108.26475468120799 -544.1488585883071 -114.09616805941681 0.0 0.0
-958.766682829091 -65.04991820325876 -508.97614982582843 -120.00406122572267 0.0 0.0
-883.8127914688199 16.09542880378818 -432.0579838615422 -124.31126938954411 0.0 0.0
-728.0681158292441 162.13091596124184 -284.2636666630249 -126.34536720873783 0.0 0.0
-2586.1254625440433 -1788.5613421434202 -2163.960583579382 5.4072302191343624e-11 0.0 0.0
-728.0681158287753 162.13091596153336 -284.26366666275896 126.34536720898939 0.0 0.0
-883.8127914689206 16.095428803487195 -432.05798386154413 124.31126938991036 0.0 0.0
-958.7666828294808 -65.04991820382718 -508.9761498260699 120.00406122593398 0.0 0.0
-986.5629452288206 -108.26475468079727 -544.1488585881174 114.09616805943426 0.0 0.0
-980.7150086856155 -122.91629136049482 -548.3116770373334 109.96959108907294 0.0 0.0
-950.8504596815599 -119.70848199797429 -531.5657775627969 109.12895891302173 0.0 0.0
-907.5149628808551 -105.31842772799115 -502.46303546021585 111.3140970721998 0.0 0.0
-857.8022498954451 -86.92575699629451 -468.1526093829211 114.57651747381648 0.0 0.0
-806.2027267785654 -69.35215061943686 -433.1626072979049 117.9044959126759 0.0 0.0
-755.3926458950993 -56.73927201035786 -400.0137098191971 120.8486986951423 0.0 0.0
-701.9651539397037 -49.31781963581453 -364.9489295625581 122.88205006365257 0.0 0.0
-644.6060765462771 -42.55537451184797 -318.69036514322624 126.59498047447735 0.0 0.0
-562.7817487653083 -35.87276922730165 -249.02133245392199 128.7021322867423 0.0 0.0
-455.2935929184563 -14.999799361924959 -164.20887959189233 134.642288203683 0.0 0.0
-338.4821497296641 10.850736681793839 -99.71062061235261 146.63390695136115 0.0 0.0
-242.0702518627112 17.65682744325448 -67.02382142273919 152.36353732499808 0.0 0.0
-175.49584830650593 12.753749506301242 -48.820745175090444 156.32067262083905 0.0 0.0
-114.48534874571607 -5.7742124256268035 -36.07853510664397 155.81279264126712 0.0 0.0
-59.56620438795705 -71.57843962430319 -39.34337474270079 122.79065542408745 0.0 0.0
-54.30733024135928 -164.6958401066558 -65.70095110440452 75.98373411293228 0.0 0.0
-45.29234135730485 -109.42031782622739 -46.41379775505966 -62.643117553834536 0.0 0.0
-68.27882443138917 -61.24396449983379 -38.85683667936688 -105.87496596663698 0.0 0.0
-131.9891319462908 -5.309877613675269 -41.19034815427705 -139.71819286766734 0.0 0.0
-208.3601257359786 10.727435874446632 -59.26565721572962 -140.6463649191203 0.0 0.0
-293.86503776185896 13.372411934738013 -84.12231956631103 -132.27845802692985 0.0 0.0
-412.08931150788277 2.007632953436551 -129.83664291415943 -120.75837840371548 0.0 0.0
-530.16223604648 -27.773614760579697 -211.12742079346896 -108.63498513792354 0.0 0.0
-629.9459706072431 -43.97924797587271 -298.5788290363465 -106.78692800525948 0.0 0.0
-697.9778786734078 -54.41244588768625 -361.23860750881755 -104.85086475746779 0.0 0.0
-758.010419686561 -61.743638986566154 -403.6073998939231 -104.53149784609454 0.0 0.0
-812.5129308628275 -73.19554474674408 -439.17494873249893 -103.20537382746849 0.0 0.0
-866.975428293196 -89.66996051293316 -475.30307397358666 -100.81041080462056 0.0 0.0
-922.6414252014811 -110.95068365420963 -513.9197768934309 -97.95479368075719 0.0 0.0
-977.222058898192 -133.50548887441758 -552.5782836117955 -95.04449797113578 0.0 0.0
-1027.3042598409115 -153.82437237231576 -587.8927505690144 -92.72629351312449 0.0 0.0
-1062.0749708291232 -161.4325484858563 -609.3249367103142 -92.5859296438786 0.0 0.0
-1065.347735672168 -140.72076002434187 -600.9250216554085 -95.92604560778989 0.0 0.0
-1021.5238873476098 -80.18821270483213 -549.2240867944322 -101.0530243228984 0.0 0.0
-920.9277462964394 27.270692898343754 -446.16782734335465 -104.83954809117411 0.0 0.0
-749.8340541359223 189.00363272082794 -281.5383693439753 -108.83756357191086 0.0 0.0
-2887.5297821911126 -2020.2520257258361 -2435.0718056424375 9.351097673970798e-11 0.0 0.0
-749.8340541351056 189.00363272158074 -281.53836934343803 108.83756357205296 0.0 0.0
-920.9277462959689 27.270692898706912 -446.1678273429617 104.83954809133758 0.0 0.0
-1021.5238873474307 -80.18821270480217 -549.2240867943809 101.05302432306489 0.0 0.0
-1065.3477356730664 -140.72076002535744 -600.9250216561081 95.92604560792063 0.0 0.0
-1062.074970829049 -161.432548485947 -609.3249367102595 92.58592964388397 0.0 0.0
-1027.3042598415273 -153.82437237315335 -587.8927505694436 92.72629351333796 0.0 0.0
-977.2220588970426 -133.50548887341952 -552.5782836109006 95.04449797112883 0.0 0.0
-922.6414252018077 -110.95068365478828 -513.9197768937469 97.95479368082735 0.0 0.0
-866.9754282925497 -89.66996051249657 -475.30307397319234 100.81041080464351 0.0 0.0
-812.5129308629713 -73.19554474716992 -439.1749487326319 103.20537382748319 0.0 0.0
-758.0104196857412 -61.74363898599913 -403.60739989336747 104.53149784603276 0.0 0.0
-697.977878672969 -54.412445887527085 -361.23860750844483 104.85086475743984 0.0 0.0
-629.9459706069174 -43.97924797599033 -298.5788290359857 106.7869280052867 0.0 0.0
-530.162236045838 -27.773614760273333 -211.1274207929187 108.63498513782172 0.0 0.0
-412.08931150701386 2.0076329540854694 -129.83664291364045 120.75837840360924 0.0 0.0
-293.86503776143496 13.37241193472691 -84.1223195662145 132.2784580268195 0.0 0.0
-208.36012573574027 10.727435874602161 -59.26565721561033 140.64636491899887 0.0 0.0
-131.98913194614317 -5.309877613596157 -41.19034815420862 139.71819286761564 0.0 0.0
-68.27882443134364 -61.24396449983216 -38.85683667935273 105.87496596652952 0.0 0.0
-45.29234135728918 -109.42031782615503 -46.413797755033265 62.64311755376157 0.0 0.0
-39.395852401283186 -66.64136307182986 -31.811164641933914 -49.095550031421794 0.0 0.0
-75.07739478362149 -49.45575198729941 -37.35994403127627 -87.144377081823 0.0 0.0
-148.4371080122354 -4.26544470980029 -45.811215436292706 -119.67896003283344 0.0 0.0
-239.73660050276766 7.941594180111675 -69.52662892761654 -120.46646964412554 0.0 0.0
-348.6429452480446 8.582917196512579 -102.03515507262522 -109.78868201722217 0.0 0.0
-472.1939613059602 -12.995038944532261 -163.5364522049382 -90.83430283971782 0.0 0.0
-591.8343227757418 -36.25406699149191 -254.2145704784792 -85.26829622647188 0.0 0.0
-675.8199986025604 -52.689431589431784 -337.7114965724643 -84.5570053182053 0.0 0.0
-744.7408806761987 -63.00934695494911 -394.3704969914922 -84.99962134385923 0.0 0.0
-804.9467982889174 -74.51402279878698 -435.86525635482116 -85.37471193745681 0.0 0.0
-862.8335497718839 -89.8342513806351 -473.8836409371161 -84.66639581504188 0.0 0.0
-921.1378771608047 -110.01176963627304 -513.4668629718352 -82.84154665046884 0.0 0.0
-980.5721034720378 -134.51770404775965 -555.493555650608 -80.55190514010707 0.0 0.0
-1038.94600090979 -161.32289060150092 -598.0986286238319 -78.14592395890287 0.0 0.0
-1093.807555877108 -185.50081810420656 -637.6491584305643 -75.86283095607105 0.0 0.0
-1134.6077256738686 -197.6084181488601 -664.2895697674529 -74.67857917359127 0.0 0.0
-1137.829629889074 -176.11666336680955 -655.5797000536736 -76.3334769627665 0.0 0.0
-1078.8083864012692 -98.64582354945426 -587.9016970571734 -80.81893640806499 0.0 0.0
-952.8033036182645 35.26847790173217 -458.6644365143121 -86.03661243790762 0.0 0.0
-762.2358867867031 215.75765378149993 -274.02909414463977 -94.00691907383398 0.0 0.0
-3151.833736204528 -2233.3490193053162 -2677.253873211344 7.140599223021127e-11 0.0 0.0
-762.2358867856985 215.75765378245103 -274.0290941439289 94.00691907396632 0.0 0.0
-952.8033036181348 35.2684779017555 -458.6644365142463 86.03661243806546 0.0 0.0
-1078.8083864010234 -98.64582354928258 -587.9016970570149 80.8189364082136 0.0 0.0
-1137.8296298892665 -176.11666336707844 -655.5797000538048 76.33347696269172 0.0 0.0
-1134.60772567319 -197.6084181483336 -664.2895697670132 74.67857917363175 0.0 0.0
-1093.8075558772616 -185.5008181045641 -637.6491584306051 75.86283095619325 0.0 0.0
-1038.9460009085617 -161.32289060038877 -598.0986286229177 78.1459239588436 0.0 0.0
-980.5721034709445 -134.51770404679084 -555.4935556499162 80.55190513993918 0.0 0.0
-921.1378771606564 -110.01176963637376 -513.4668629717031 82.8415466504595 0.0 0.0
-862.8335497721334 -89.83425138114409 -473.88364093730524 84.6663958149984 0.0 0.0
-804.9467982881279 -74.51402279826817 -435.86525635429507 85.37471193743852 0.0 0.0
-744.7408806760208 -63.00934695508268 -394.37049699133576 84.99962134389386 0.0 0.0
-675.8199986021781 -52.68943158938382 -337.71149657209304 84.5570053182104 0.0 0.0
-591.8343227753895 -36.254066991492195 -254.2145704780573 85.26829622635358 0.0 0.0
-472.1939613053301 -12.995038944229545 -163.53645220451347 90.83430283957442 0.0 0.0
-348.6429452476999 8.582917196225651 -102.03515507262264 109.7886820171512 0.0 0.0
-239.73660050249822 7.94159418030248 -69.52662892747358 120.4664696441034 0.0 0.0
-148.4371080121577 -4.265444709884166 -45.81121543629453 119.67896003271457 0.0 0.0
-75.07739478352373 -49.455751987218356 -37.35994403122262 87.14437708171023 0.0 0.0
-39.39585240109048 -66.64136307167378 -31.811164641829265 49.09555003134574 0.0 0.0
-35.944937627687466 -36.154192041354996 -21.629738900712738 -35.677886116269484 0.0 0.0
-79.77920490768737 -37.27962999828548 -35.11765047179185 -66.81803382828824 0.0 0.0
-163.60492158249122 -2.8404495489761956 -49.93361133944022 -95.60588687700672 0.0 0.0
-270.70725540512615 4.378517213171342 -79.8507543970976 -95.9611280377551 0.0 0.0
-400.7311941916414 0.027198255976219166 -122.14728990185571 -81.85026636419923 0.0 0.0
-530.9802098723593 -23.714158539893834 -197.7417669595307 -65.71178413000393 0.0 0.0
-635.519302779557 -44.18889459717667 -292.0654554319619 -63.41029374421811 0.0 0.0
-714.2149240076126 -58.28482087065009 -367.817931221207 -63.63266088658796 0.0 0.0
-783.4587421077536 -72.32220230381546 -421.8372690858493 -64.74786539845634 0.0 0.0
-846.4711328710392 -87.45397377090877 -464.41313930174186 -65.58394187684561 0.0 0.0
-907.7831570225048 -106.60535707952246 -505.4873445852636 -65.30836790504236 0.0 0.0
-970.1609582778719 -130.54713256541277 -548.8378130962611 -64.01701388426704 0.0 0.0
-1033.1618199397433 -158.93882865255208 -594.5624390014907 -62.27342666144172 0.0 0.0
-1094.4765658410788 -187.07829491726991 -639.2744516681812 -60.57572738182163 0.0 0.0
-1151.100150472992 -213.21674582296623 -680.6353381344098 -58.63800487919598 0.0 0.0
-1196.8275508306642 -230.2849172006939 -712.133788343165 -56.53790481400908 0.0 0.0
-1207.9943584117027 -215.2057438751649 -710.590471725184 -56.01720983912367 0.0 0.0
-1141.8288385869216 -129.09922348244868 -635.1113094816327 -59.60715387446064 0.0 0.0
-986.9419053431948 34.634480516137955 -476.38145736779074 -67.43123908923897 0.0 0.0
-762.3297788678069 249.55146204028398 -256.9023729174062 -80.46945164851124 0.0 0.0
-3379.283336362513 -2418.4021420315767 -2886.301825339033 1.1504042163323902e-10 0.0 0.0
-762.3297788676043 249.55146204042376 -256.9023729172249 80.46945164872345 0.0 0.0
-986.9419053441441 34.6344805150856 -476.38145736850606 67.43123908939566 0.0 0.0
-1141.8288385874434 -129.09922348307066 -635.1113094820288 59.60715387458678 0.0 0.0
-1207.9943584119844 -215.20574387555533 -710.5904717253618 56.017209839160955 0.0 0.0
-1196.8275508301308 -230.28491720026017 -712.1337883427674 56.53790481404018 0.0 0.0
-1151.100150471784 -213.21674582189897 -680.6353381335025 58.63800487912147 0.0 0.0
-1094.4765658404638 -187.0782949168791 -639.2744516677463 60.57572738197535 0.0 0.0
-1033.1618199389586 -158.93882865193294 -594.5624390010105 62.273426661512836 0.0 0.0
-970.1609582769097 -130.54713256464228 -548.8378130955728 64.01701388415148 0.0 0.0
-907.7831570226156 -106.60535707989021 -505.48734458537587 65.30836790498415 0.0 0.0
-846.4711328706222 -87.45397377078598 -464.4131393014621 65.58394187688174 0.0 0.0
-783.4587421076825 -72.322202304022 -421.8372690857666 64.74786539841284 0.0 0.0
-714.214924007504 -58.28482087084805 -367.81793122099606 63.6326608864899 0.0 0.0
-635.519302779004 -44.18889459698907 -292.06545543143835 63.41029374414406 0.0 0.0
-530.9802098717224 -23.714158539611596 -197.7417669590338 65.71178412991341 0.0 0.0
-400.7311941913965 0.02719825561463063 -122.1472899018519 81.85026636418796 0.0 0.0
-270.7072554048762 4.378517213060861 -79.85075439708565 95.96112803768261 0.0 0.0
-163.60492158239 -2.840449549046954 -49.93361133943108 95.60588687687047 0.0 0.0
-79.77920490758899 -37.27962999817962 -35.11765047173057 66.81803382827859 0.0 0.0
-35.944937627663826 -36.15419204127273 -21.629738900680966 35.67788611616783 0.0 0.0
-33.743394889113375 -17.61853706493912 -15.40857958621575 -23.136165450525166 0.0 0.0
-81.62637448896997 -25.82535784426433 -32.23551969997028 -45.18608769144571 0.0 0.0
-177.10224040575116 -1.5425530382264996 -53.59343803319331 -67.02746615922099 0.0 0.0
-302.4133996785978 0.031047826305447224 -90.5971179158706 -66.593819476998 0.0 0.0
-448.7633967161924 -12.005252778090934 -145.273434074851 -51.73698729350673 0.0 0.0
-578.3463394090845 -32.62443539865288 -231.4337107026654 -42.60284401108246 0.0 0.0
-666.9669030731957 -49.690171156448606 -322.27211920540265 -42.09897689886331 0.0 0.0
-746.7637407170265 -64.8935226402957 -393.15853732089465 -43.14713746640447 0.0 0.0
-817.3104708040273 -82.20296440980758 -445.74226015727595 -44.246735174980905 0.0 0.0
-883.3561435924837 -100.72701269066947 -490.263990051049 -45.112181414067734 0.0 0.0
-948.6809391779522 -123.52187649220956 -534.875212090211 -45.15327609367285 0.0 0.0
-1014.7277456824612 -151.24024667438027 -581.8908764694605 -44.36369525246421 0.0 0.0
-1081.5342383889974 -182.01979355738104 -630.6913803484672 -43.309579138705914 0.0 0.0
-1145.1415141974344 -213.09884357991473 -678.0242564160993 -42.18217238553898 0.0 0.0
-1201.844129327803 -238.68839570680618 -719.1582810343687 -40.81079738293543 0.0 0.0
-1245.8615871405168 -253.6883853254341 -748.6878622205054 -38.7086328451719 0.0 0.0
-1267.6142563796375 -249.12214323364074 -757.4928950689696 -36.35566337574522 0.0 0.0
-1228.3175515349344 -188.61751211543313 -708.2246886717003 -37.47018533435832 0.0 0.0
-1042.8878826091805 7.721045504211617 -518.0594885075199 -47.33775006293565 0.0 0.0
-738.3922923341114 304.1114192206418 -217.56131560954987 -67.07135805516522 0.0 0.0
-3555.9359430912996 -2557.801087006869 -3046.658012382204 5.0256687700311886e-11 0.0 0.0
-738.3922923343073 304.1114192203706 -217.5613156096125 67.07135805530972 0.0 0.0
-1042.8878826099613 7.7210455033486625 -518.0594885080674 47.33775006306165 0.0 0.0
-1228.3175515352543 -188.6175121158243 -708.2246886719163 37.47018533440585 0.0 0.0
-1267.6142563794813 -249.12214323363645 -757.4928950688353 36.355663375828456 0.0 0.0
-1245.8615871401885 -253.68838532522392 -748.687862220133 38.70863284527285 0.0 0.0
-1201.8441293273027 -238.6883957064652 -719.1582810339532 40.810797382989186 0.0 0.0
-1145.1415141971493 -213.0988435797966 -678.0242564158671 42.182172385558125 0.0 0.0
-1081.534238389014 -182.01979355762924 -630.6913803484638 43.30957913875183 0.0 0.0
-1014.7277456820851 -151.24024667421415 -581.8908764691752 44.36369525247685 0.0 0.0
-948.6809391773228 -123.52187649182736 -534.875212089822 45.153276093630886 0.0 0.0
-883.3561435922268 -100.72701269067257 -490.26399005086154 45.112181414003636 0.0 0.0
-817.3104708035763 -82.20296440965103 -445.7422601569312 44.2467351750363 0.0 0.0
-746.7637407166749 -64.89352264026073 -393.1585373205819 43.147137466356305 0.0 0.0
-666.9669030724061 -49.690171155975506 -322.2721192047502 42.098976898892 0.0 0.0
-578.3463394084648 -32.62443539834389 -231.433710702138 42.60284401103675 0.0 0.0
-448.76339671567615 -12.00525277800306 -145.27343407461117 51.73698729350411 0.0 0.0
-302.4133996783135 0.03104782640075232 -90.59711791576589 66.59381947695923 0.0 0.0
-177.10224040556926 -1.542553038168766 -53.59343803312141 67.0274661591631 0.0 0.0
-81.62637448892187 -25.825357844297393 -32.23551969996578 45.186087691446346 0.0 0.0
-33.74339488909723 -17.618537064895104 -15.408579586197698 23.136165450378353 0.0 0.0
-30.540894215513724 -10.046978151851377 -12.176361710209529 -13.110398274445892 0.0 0.0
-79.1506838010421 -16.680947097368005 -28.749489269523036 -22.632742647509588 0.0 0.0
-188.3122487466167 -1.2736300627146049 -56.87576364279935 -32.71701590169553 0.0 0.0
-336.06812523493915 -4.01887643631983 -101.92469884085207 -31.86174421330818 0.0 0.0
-497.78386782483244 -21.603489769442106 -170.0658603557628 -23.12020193741071 0.0 0.0
-612.560104654241 -39.39219644791282 -262.1324480979111 -21.505784310330608 0.0 0.0
-695.3563130309349 -52.60224028763564 -346.4617786636742 -22.439751991134607 0.0 0.0
-774.4842506483079 -72.10961075685091 -414.53704638758614 -23.02888617901403 0.0 0.0
-847.1176227165515 -92.18543577715133 -466.8402295476535 -23.497141325222486 0.0 0.0
-916.5795824137947 -114.55699757746272 -514.2802053873183 -24.00069498060371 0.0 0.0
-985.657544097743 -140.80675207845755 -562.3477643501665 -24.161320055722342 0.0 0.0
-1055.6006720416706 -171.19970562338338 -612.6247420415586 -23.969746411173492 0.0 0.0
-1125.424268709985 -205.51844953296666 -664.6998503504215 -23.51230329209521 0.0 0.0
-1191.9455821935424 -238.22533202260317 -714.2995620612583 -22.98552140609967 0.0 0.0
-1247.8179755926512 -262.6232608517821 -754.440575704214 -22.26517513705961 0.0 0.0
-1286.5650954115554 -272.41034487679656 -778.7413032245345 -20.869007897733184 0.0 0.0
-1305.2802405078432 -265.3040939343114 -784.5921517257316 -18.441569917872748 0.0 0.0
-1305.125450792077 -243.71464545255643 -773.8903990574386 -16.699796942279363 0.0 0.0
-1208.7959115164526 -133.6338448783797 -671.4675191589532 -23.53316922228358 0.0 0.0
-721.7152499767612 350.03338157992624 -186.4623827571463 -49.5599305726983 0.0 0.0
-3531.82887468731 -2498.077987549785 -3007.2302525673736 3.491607003525132e-11 0.0 0.0
-721.715249976515 350.03338158013105 -186.46238275700125 49.55993057278545 0.0 0.0
-1208.7959115161734 -133.63384487817467 -671.467519158728 23.53316922233066 0.0 0.0
-1305.1254507921456 -243.71464545271002 -773.8903990574023 16.69979694232925 0.0 0.0
-1305.2802405078273 -265.3040939343948 -784.5921517258198 18.441569917910975 0.0 0.0
-1286.565095412521 -272.41034487789534 -778.7413032250956 20.869007897706926 0.0 0.0
-1247.817975592066 -262.62326085137295 -754.4405757037987 22.265175137145935 0.0 0.0
-1191.945582193088 -238.22533202230667 -714.2995620608187 22.985521406099007 0.0 0.0
-1125.4242687092724 -205.51844953245163 -664.6998503499944 23.512303291905145 0.0 0.0
-1055.60067204182 -171.19970562378597 -612.6247420416151 23.96974641130062 0.0 0.0
-985.6575440970955 -140.80675207803966 -562.3477643497341 24.161320055670036 0.0 0.0
-916.5795824134233 -114.55699757735073 -514.2802053870388 24.000694980438713 0.0 0.0
-847.1176227161849 -92.18543577707679 -466.8402295473965 23.497141325361422 0.0 0.0
-774.4842506483895 -72.10961075725086 -414.53704638756136 23.028886179017775 0.0 0.0
-695.3563130308166 -52.60224028784696 -346.4617786634468 22.439751991099406 0.0 0.0
-612.5601046536649 -39.39219644769781 -262.1324480973943 21.505784310312876 0.0 0.0
-497.78386782417374 -21.603489769042575 -170.0658603553483 23.120201937390107 0.0 0.0
-336.0681252345185 -4.0188764360696645 -101.92469884067535 31.861744213291793 0.0 0.0
-188.31224874647307 -1.2736300627297203 -56.87576364276083 32.717015901674195 0.0 0.0
-79.15068380096999 -16.680947097446364 -28.749489269524908 22.632742647475954 0.0 0.0
-30.540894215403398 -10.046978151796276 -12.176361710159899 13.110398274328237 0.0 0.0
-19.422634967802477 -5.003764980853143 -7.327919984596686 -8.137229263940364 0.0 0.0
-68.43363100749832 -9.435620748371186 -23.360775526760847 -9.398878583336746 0.0 0.0
-196.23502153939802 -2.8082666280378987 -59.712986450230765 -11.044087274360109 0.0 0.0
-377.2958272385356 -17.977301313919156 -119.21697263698537 -8.878646789236441 0.0 0.0
-562.0870777710647 -59.75252427415596 -211.317068643844 -1.201890195529252 0.0 0.0
-693.3434535745848 -102.37854847113545 -328.6962223609172 0.9804735946579051 0.0 0.0
-803.042764712418 -145.56084216753047 -439.558193476013 0.8125006916318078 0.0 0.0
-918.7829019912743 -203.25137775757997 -543.1385147333738 -0.44904354937789037 0.0 0.0
-1039.7196883214717 -272.54183707381395 -643.6800035335351 -1.9167145035439788 0.0 0.0
-1174.4418139945271 -359.9661841006148 -756.0852262576384 -3.461981373223395 0.0 0.0
-1328.2916663131218 -470.36018670547446 -888.3383447911002 -4.94670198524711 0.0 0.0
-1501.8446314988878 -604.6981932608874 -1041.9963506983709 -6.1885945917266 0.0 0.0
-1690.420323465495 -756.6284335478204 -1211.8028526312098 -7.026672411145837 0.0 0.0
-1885.5353729474882 -917.5194134096281 -1389.40584244254 -7.754942614141816 0.0 0.0
-2072.503044187175 -1072.6510512352502 -1560.1480795137975 -8.195966052058413 0.0 0.0
-2230.710124620138 -1201.7758794456822 -1703.6625844772461 -8.098923134535301 0.0 0.0
-2334.500429702677 -1280.1451962546762 -1794.812569540561 -7.005120147168636 0.0 0.0
-2363.990036437819 -1288.873957000062 -1813.8832012212672 -5.016690110372505 0.0 0.0
-2381.9674229123566 -1291.9142240196434 -1823.2572907852436 -9.644415003028396 0.0 0.0
-2400.225095373781 -1308.3613015013025 -1837.6565995994208 -38.609817954450634 0.0 0.0
-5712.762921319496 -4651.112838464627 -5156.703732701437 3.0127011996228248e-12 0.0 0.0
-2400.2250953733055 -1308.361301500857 -1837.656599599161 38.609817954480846 0.0 0.0
-2381.9674229109282 -1291.9142240182618 -1823.2572907841286 9.644415003006394 0.0 0.0
-2363.9900364372793 -1288.8739569996317 -1813.8832012205241 5.016690110411517 0.0 0.0
-2334.5004297030823 -1280.1451962551832 -1794.8125695407584 7.005120147236326 0.0 0.0
-2230.71012462176 -1201.7758794474894 -1703.6625844781572 8.098923134554077 0.0 0.0
-2072.5030441852414 -1072.651051233451 -1560.148079512273 8.195966052152237 0.0 0.0
-1885.5353729457333 -917.5194134080712 -1389.405842440842 7.754942614236455 0.0 0.0
-1690.4203234639895 -756.6284335464939 -1211.8028526301837 7.026672410982496 0.0 0.0
-1501.844631497761 -604.6981932600024 -1041.9963506974227 6.18859459181612 0.0 0.0
-1328.291666312417 -470.36018670501534 -888.3383447904689 4.946701985263864 0.0 0.0
-1174.4418139936938 -359.9661841000623 -756.0852262569215 3.4619813731250773 0.0 0.0
-1039.7196883209485 -272.54183707356873 -643.6800035331052 1.9167145036345126 0.0 0.0
-918.7829019913013 -203.25137775793712 -543.1385147332139 0.4490435494355687 0.0 0.0
-803.0427647126265 -145.56084216811237 -439.5581934759351 -0.8125006916217785 0.0 0.0
-693.3434535737459 -102.37854847061989 -328.6962223601792 -0.9804735946369263 0.0 0.0
-562.0870777702601 -59.75252427361286 -211.3170686432914 1.2018901955635855 0.0 0.0
-377.295827237951 -17.977301313397785 -119.2169726366514 8.878646789274363 0.0 0.0
-196.23502153932225 -2.8082666281899655 -59.712986450253666 11.044087274325221 0.0 0.0
-68.43363100748043 -9.435620748445766 -23.360775526777854 9.398878583302578 0.0 0.0
-19.422634967814915 -5.0037649808414635 -7.327919984596911 8.137229263832241 0.0 0.0
SCALARS Strain float 6
LOOKUP_TABLE default
0.013352934828114171 -0.022519350288974796 0.0 -0.0011259939672980447 0.0 0.0
0.008195943761568033 -0.0022068754173702374 0.0 -0.006896729760454934 0.0 0.0
0.0024722911625697677 -0.0006113411176507503 0.0 -0.0007569392501348756 0.0 0.0
0.0021479754061251017 -0.0008593471574660293 0.0 -1.3910738570097178e-05 0.0 0.0
0.003033744224804758 -0.0012831127546820541 0.0 0.00013469374492261206 0.0 0.0
0.004951432643898527 -0.002696568998757894 0.0 0.0002636790357193078 0.0 0.0
0.00824477584443359 -0.005461636571761502 0.0 0.0003525178495015483 0.0 0.0
0.013151452249588393 -0.009822513315175965 0.0 0.00038630002288634854 0.0 0.0
0.019870511955609436 -0.015960243547921443 0.0 0.00036947267183898904 0.0 0.0
0.028484774194534268 -0.023901841148674295 0.0 0.0002827472482845902 0.0 0.0
0.03897521189118619 -0.03359426846233838 0.0 0.00016315211659791704 0.0 0.0
0.051275255977563536 -0.04496728965780421 0.0 9.147954801259363e-06 0.0 0.0
0.06529488779660819 -0.05796207318752214 0.0 -0.00022077273992074928 0.0 0.0
0.08093477735778949 -0.07251710436712601 0.0 -0.0004790472200373679 0.0 0.0
0.09801402929804451 -0.08850395663368793 0.0 -0.0008068886298509675 0.0 0.0
0.11611428390237014 -0.10556149863620218 0.0 -0.0012037553760231273 0.0 0.0
0.13446750820139133 -0.12297746711829818 0.0 -0.0015973943647306017 0.0 0.0
0.15193698454668303 -0.13967228719450048 0.0 -0.0018354061782143703 0.0 0.0
0.16712816937684857 -0.1542724136359716 0.0 -0.0017417276628592772 0.0 0.0
0.1783825891499249 -0.16519048160308752 0.0 -0.0018595624738490723 0.0 0.0
0.18279574404897947 -0.16965437253075905 0.0 1.7355908377147955e-15 0.0 0.0
0.17838258914990288 -0.16519048160306968 0.0 0.0018595624738570043 0.0 0.0
0.1671281693768005 -0.15427241363593086 0.0 0.0017417276628672353 0.0 0.0
0.1519369845466139 -0.13967228719443767 0.0 0.0018354061782179694 0.0 0.0
0.1344675082013118 -0.12297746711822055 0.0 0.0015973943647327104 0.0 0.0
0.11611428390228712 -0.10556149863612052 0.0 0.0012037553760181749 0.0 0.0
0.09801402929796091 -0.08850395663361169 0.0 0.0008068886298496312 0.0 0.0
0.08093477735770449 -0.07251710436705215 0.0 0.00047904722003198636 0.0 0.0
0.06529488779652402 -0.057962073187445826 0.0 0.00022077273991841792 0.0 0.0
0.051275255977487194 -0.04496728965773219 0.0 -9.1479548011285e-06 0.0 0.0
0.03897521189112158 -0.0335942684622815 0.0 -0.00016315211659919228 0.0 0.0
0.02848477419448136 -0.023901841148623423 0.0 -0.0002827472482885196 0.0 0.0
0.019870511955568045 -0.01596024354788533 0.0 -0.00036947267183839365 0.0 0.0
0.01315145224955938 -0.00982251331515191 0.0 -0.00038630002288587745 0.0 0.0
0.00824477584441489 -0.005461636571745232 0.0 -0.0003525178495018594 0.0 0.0
0.004951432643888 -0.0026965689987489194 0.0 -0.00026367903571911013 0.0 0.0
0.0030337442248002233 -0.0012831127546800284 0.0 -0.0001346937449236133 0.0 0.0
0.002147975406123484 -0.0008593471574648136 0.0 1.3910738572707164e-05 0.0 0.0
0.0024722911625680633 -0.0006113411176505718 0.0 0.0007569392501346524 0.0 0.0
0.008195943761562807 -0.0022068754173668356 0.0 0.006896729760445631 0.0 0.0
0.013352934828106204 -0.022519350288950277 0.0 0.0011259939672510514 0.0 0.0
0.009236764960219381 -0.020147571908927565 0.0 -0.0006551847589529756 0.0 0.0
0.005423724443028641 -0.0016429142787620066 0.0 -0.005551037271799605 0.0 0.0
0.0016541151073839622 -0.0004792766169696437 0.0 -0.00048753363400061124 0.0 0.0
0.0019047667517829753 -0.0008099945005037927 0.0 -0.00020145374435824167 0.0 0.0
0.0026291721187855104 -0.0011622574528628226 0.0 -0.00015650539736829084 0.0 0.0
0.004258100095868219 -0.0024162598309872808 0.0 -0.00021119412257846729 0.0 0.0
0.007186193094461297 -0.004987235525097586 0.0 -0.00045846617357273413 0.0 0.0
0.01163543665415095 -0.009111580615037324 0.0 -0.0008361257702238929 0.0 0.0
0.017763331742925763 -0.01495173843713293 0.0 -0.0013591214068344015 0.0 0.0
0.025601747176246487 -0.022509693873705224 0.0 -0.0020029459536353373 0.0 0.0
0.0350949671787583 -0.031713000192621695 0.0 -0.002700624962891089 0.0 0.0
0.04617021764416307 -0.04248416994057829 0.0 -0.003408327226762906 0.0 0.0
0.05878220093967498 -0.05478067160264881 0.0 -0.004155113640447122 0.0 0.0
0.07287496391377642 -0.06856859470824693 0.0 -0.004954328122318901 0.0 0.0
0.08829848968767515 -0.08373168516812253 0.0 -0.005788591259772297 0.0 0.0
0.10469173103563972 -0.09993741716953128 0.0 -0.006594436920644948 0.0 0.0
0.12137576318598675 -0.11652481344920249 0.0 -0.0071721568742998554 0.0 0.0
0.13733784072538188 -0.13247833359118935 0.0 -0.007202759050257663 0.0 0.0
0.1512395690173533 -0.14646846090218416 0.0 -0.006448284179719974 0.0 0.0
0.1612193768800125 -0.15679003511582293 0.0 -0.005317957491984717 0.0 0.0
0.16495144153386773 -0.16105751938107646 0.0 6.785804557152275e-15 0.0 0.0
0.1612193768799916 -0.15679003511580458 0.0 0.005317957492002492 0.0 0.0
0.1512395690173103 -0.1464684609021473 0.0 0.006448284179738109 0.0 0.0
0.1373378407253218 -0.13247833359113226 0.0 0.007202759050267124 0.0 0.0
0.12137576318591661 -0.11652481344913102 0.0 0.007172156874302762 0.0 0.0
0.10469173103556507 -0.09993741716945556 0.0 0.006594436920639679 0.0 0.0
0.08829848968759917 -0.08373168516805464 0.0 0.0057885912597688965 0.0 0.0
0.0728749639136997 -0.06856859470817217 0.0 0.004954328122312524 0.0 0.0
0.05878220093959964 -0.05478067160257548 0.0 0.00415511364044327 0.0 0.0
0.046170217644094104 -0.042484169940509235 0.0 0.003408327226757066 0.0 0.0
0.035094967178699414 -0.03171300019256505 0.0 0.002700624962884565 0.0 0.0
0.025601747176198463 -0.02250969387365857 0.0 0.0020029459536290983 0.0 0.0
0.01776333174288856 -0.014951738437097076 0.0 0.0013591214068304066 0.0 0.0
0.01163543665412475 -0.009111580615014304 0.0 0.0008361257702211479 0.0 0.0
0.007186193094444749 -0.004987235525080678 0.0 0.0004584661735708878 0.0 0.0
0.004258100095859413 -0.0024162598309801675 0.0 0.00021119412257668017 0.0 0.0
0.002629172118782254 -0.0011622574528615543 0.0 0.00015650539736835573 0.0 0.0
0.0019047667517821357 -0.0008099945005032078 0.0 0.0002014537443592108 0.0 0.0
0.0016541151073837114 -0.0004792766169695213 0.0 0.0004875336340005626 0.0 0.0
0.005423724443021951 -0.0016429142787588234 0.0 0.0055510372717884355 0.0 0.0
0.009236764960206017 -0.020147571908902095 0.0 0.000655184758917933 0.0 0.0
0.006727845518222543 -0.016010288089059757 0.0 -0.0035056385985989657 0.0 0.0
0.003828573647789826 -0.0009052333023740538 0.0 -0.0055140502930305394 0.0 0.0
0.001158248328848365 -0.0002708776110985187 0.0 -0.00045392548375297484 0.0 0.0
0.0016209303484969204 -0.0006920627358834378 0.0 -0.00048027603925955694 0.0 0.0
0.0022623534802653396 -0.0009554362132431233 0.0 -0.00047835954381345556 0.0 0.0
0.003600093904989737 -0.0018910319254529353 0.0 -0.0005682922757027123 0.0 0.0
0.006138224784507224 -0.004053926277611204 0.0 -0.001036662788524832 0.0 0.0
0.010107311779722388 -0.007696044082465894 0.0 -0.0017762170679389605 0.0 0.0
0.015613316488610196 -0.012923524386715382 0.0 -0.00278875164697523 0.0 0.0
0.0226532406788688 -0.019703647075862092 0.0 -0.004009477397968348 0.0 0.0
0.031142207590505885 -0.02792416879897852 0.0 -0.005324721151924814 0.0 0.0
0.041000174799258694 -0.0374968498168552 0.0 -0.006635110085968166 0.0 0.0
0.052198002612592935 -0.04839864946943914 0.0 -0.00794388088864919 0.0 0.0
0.06472501564865685 -0.060640753360092337 0.0 -0.009331748673707592 0.0 0.0
0.07847696326167188 -0.07414678866501942 0.0 -0.010792970087544056 0.0 0.0
0.09315423802053588 -0.08864334755200819 0.0 -0.012176280478910657 0.0 0.0
0.10819052021476032 -0.10357713478533219 0.0 -0.013146246399326496 0.0 0.0
0.12268722983507926 -0.11806275914486841 0.0 -0.013214405979460707 0.0 0.0
0.13533092725812007 -0.1308362112249854 0.0 -0.012006360730712288 0.0 0.0
0.14443536016404762 -0.1401593608094212 0.0 -0.009454692064176633 0.0 0.0
0.14787496409690032 -0.14424614059982283 0.0 1.2623582734683225e-14 0.0 0.0
0.1444353601640281 -0.1401593608094029 0.0 0.009454692064209121 0.0 0.0
0.1353309272580814 -0.13083621122494998 0.0 0.012006360730744396 0.0 0.0
0.12268722983502642 -0.11806275914481981 0.0 0.013214405979480447 0.0 0.0
0.10819052021469877 -0.10357713478527075 0.0 0.013146246399330885 0.0 0.0
0.0931542380204695 -0.08864334755194306 0.0 0.012176280478905954 0.0 0.0
0.07847696326160415 -0.07414678866495852 0.0 0.010792970087541612 0.0 0.0
0.0647250156485893 -0.060640753360021574 0.0 0.009331748673702121 0.0 0.0
0.052198002612527 -0.04839864946937759 0.0 0.007943880888643264 0.0 0.0
0.04100017479919728 -0.03749684981679588 0.0 0.006635110085959442 0.0 0.0
0.031142207590453268 -0.027924168798925005 0.0 0.005324721151914099 0.0 0.0
0.0226532406788257 -0.01970364707582392 0.0 0.00400947739795974 0.0 0.0
0.015613316488576352 -0.012923524386683594 0.0 0.002788751646968853 0.0 0.0
0.01010731177969891 -0.007696044082444519 0.0 0.0017762170679340114 0.0 0.0
0.006138224784492683 -0.004053926277598448 0.0 0.0010366627885212074 0.0 0.0
0.003600093904982528 -0.0018910319254480828 0.0 0.000568292275700807 0.0 0.0
0.0022623534802629873 -0.0009554362132423828 0.0 0.00047835954381368856 0.0 0.0
0.0016209303484965595 -0.000692062735884735 0.0 0.0004802760392600793 0.0 0.0
0.0011582483288484035 -0.00027087761109863246 0.0 0.0004539254837514151 0.0 0.0
0.0038285736477833244 -0.0009052333023707315 0.0 0.0055140502930164145 0.0 0.0
0.006727845518209692 -0.016010288089034656 0.0 0.0035056385985776585 0.0 0.0
0.0050532147698390956 -0.012861179952176931 0.0 -0.003931101418518095 0.0 0.0
0.0028109751230001112 -0.000655170906068188 0.0 -0.0050277738209322 0.0 0.0
0.0008274565629745617 -0.0001532104040119357 0.0 -0.0007418049474842795 0.0 0.0
0.001341781748615625 -0.000554260809320667 0.0 -0.0007562343104256128 0.0 0.0
0.0019250012313351502 -0.000797704726725606 0.0 -0.000798215736231508 0.0 0.0
0.0029954691283328363 -0.001455162597276783 0.0 -0.0008917422782962173 0.0 0.0
0.005120111452153647 -0.0031712479457806572 0.0 -0.0014244138889014893 0.0 0.0
0.008580069072742709 -0.006299458765771707 0.0 -0.00246054818631558 0.0 0.0
0.013441341856417316 -0.010886612850538605 0.0 -0.0038453092314003814 0.0 0.0
0.019664303577757003 -0.016866976892285803 0.0 -0.00550727138824303 0.0 0.0
0.027140620008681872 -0.024097575806696622 0.0 -0.00728692203190969 0.0 0.0
0.03578320405110984 -0.032476516779036506 0.0 -0.00905525841852053 0.0 0.0
0.045572425257298994 -0.04198808586695338 0.0 -0.010810249258273444 0.0 0.0
0.05651986855436017 -0.05267219358925207 0.0 -0.01263489334057936 0.0 0.0
0.06857758672435703 -0.0645004049591845 0.0 -0.014543287709880202 0.0 0.0
0.08152918853047737 -0.07727236537338357 0.0 -0.016367483940070843 0.0 0.0
0.09491256192883227 -0.09054765029387624 0.0 -0.017690858344378207 0.0 0.0
0.10794628189340076 -0.10357116685179503 0.0 -0.017920669433766825 0.0 0.0
0.11944867404021205 -0.11517823889433881 0.0 -0.016437697369856587 0.0 0.0
0.127939629261863 -0.12382426711871841 0.0 -0.012467229512835788 0.0 0.0
0.1312367689889499 -0.12803176575371503 0.0 1.8514269978231468e-14 0.0 0.0
0.1279396292618453 -0.12382426711869773 0.0 0.012467229512878493 0.0 0.0
0.11944867404017759 -0.11517823889430143 0.0 0.016437697369896392 0.0 0.0
0.10794628189335488 -0.10357116685175022 0.0 0.017920669433791104 0.0 0.0
0.09491256192877849 -0.09054765029382134 0.0 0.017690858344382658 0.0 0.0
0.08152918853041877 -0.07727236537332344 0.0 0.016367483940064445 0.0 0.0
0.0685775867242973 -0.06450040495912686 0.0 0.014543287709875029 0.0 0.0
0.05651986855430063 -0.052672193589189696 0.0 0.01263489334057204 0.0 0.0
0.04557242525724142 -0.0419880858668973 0.0 0.010810249258262811 0.0 0.0
0.03578320405105665 -0.03247651677898921 0.0 0.009055258418507113 0.0 0.0
0.02714062000863594 -0.024097575806650347 0.0 0.007286922031896032 0.0 0.0
0.019664303577719016 -0.016866976892252115 0.0 0.005507271388229102 0.0 0.0
0.013441341856387548 -0.01088661285051119 0.0 0.003845309231392452 0.0 0.0
0.008580069072722398 -0.006299458765753762 0.0 0.0024605481863093784 0.0 0.0
0.005120111452141818 -0.00317124794577295 0.0 0.001424413888895993 0.0 0.0
0.0029954691283274014 -0.0014551625972733578 0.0 0.0008917422782954651 0.0 0.0
0.0019250012313334745 -0.000797704726724157 0.0 0.0007982157362318677 0.0 0.0
0.0013417817486152518 -0.0005542608093208324 0.0 0.00075623431042514 0.0 0.0
0.0008274565629745377 -0.00015321040401230552 0.0 0.0007418049474811892 0.0 0.0
0.0028109751229943546 -0.0006551709060650067 0.0 0.005027773820918674 0.0 0.0
0.005053214769827367 -0.012861179952154423 0.0 0.003931101418502675 0.0 0.0
0.003811183650473583 -0.010335033746930592 0.0 -0.0035109789327116524 0.0 0.0
0.0020914235584621257 -0.000535061079401088 0.0 -0.004494469495302698 0.0 0.0
0.0006011925583999353 -9.449020014266493e-05 0.0 -0.0011273560203667523 0.0 0.0
0.0010852842692775759 -0.0004215238454078276 0.0 -0.001052509903513399 0.0 0.0
0.0016103915547022313 -0.0006633239663071338 0.0 -0.0011151452333292378 0.0 0.0
0.0024555735074297956 -0.0011172717337779637 0.0 -0.0011989880051253075 0.0 0.0
0.004156399412283521 -0.0023848546446890353 0.0 -0.0016970625983920103 0.0 0.0
0.007070773209821269 -0.004940051042344449 0.0 -0.002849687063111698 0.0 0.0
0.011269335660929393 -0.008865615316861232 0.0 -0.004520853268413341 0.0 0.0
0.016658279836314554 -0.014027095072062581 0.0 -0.006488905494530996 0.0 0.0
0.023115666616675523 -0.02025991410211424 0.0 -0.008588865584378587 0.0 0.0
0.03054230278389239 -0.027446342617007666 0.0 -0.010669377337580693 0.0 0.0
0.03892231257977183 -0.035571413790284355 0.0 -0.012730726443735975 0.0 0.0
0.048294031896996686 -0.04469639016849161 0.0 -0.014860131414031495 0.0 0.0
0.05864691470780392 -0.05483557318985297 0.0 -0.017061747339522863 0.0 0.0
0.06984174197126833 -0.0658605415214127 0.0 -0.01915721376508214 0.0 0.0
0.08154161203206743 -0.07744413913544751 0.0 -0.020757132127367326 0.0 0.0
0.09311212157294138 -0.08898135815650791 0.0 -0.021234561005594958 0.0 0.0
0.10356027303850471 -0.09950005276991954 0.0 -0.01964612449922164 0.0 0.0
0.1116044468716713 -0.10767364217458704 0.0 -0.014761220093525483 0.0 0.0
0.11485257898339613 -0.11215807004825662 0.0 2.2998530163631514e-14 0.0 0.0
0.11160444687165472 -0.10767364217456761 0.0 0.014761220093573134 0.0 0.0
0.10356027303847401 -0.09950005276989023 0.0 0.019646124499267798 0.0 0.0
0.09311212157290175 -0.08898135815646642 0.0 0.021234561005621492 0.0 0.0
0.08154161203202132 -0.07744413913540103 0.0 0.020757132127372256 0.0 0.0
0.06984174197121805 -0.06586054152135717 0.0 0.019157213765075554 0.0 0.0
0.05864691470775231 -0.0548355731898061 0.0 0.017061747339514818 0.0 0.0
0.048294031896945734 -0.04469639016843578 0.0 0.014860131414023647 0.0 0.0
0.03892231257972322 -0.035571413790233805 0.0 0.012730726443724819 0.0 0.0
0.03054230278384734 -0.027446342616965963 0.0 0.01066937733756554 0.0 0.0
0.023115666616636017 -0.020259914102077874 0.0 0.008588865584362998 0.0 0.0
0.016658279836281722 -0.0140270950720298 0.0 0.006488905494513277 0.0 0.0
0.011269335660903913 -0.00886561531683552 0.0 0.004520853268402448 0.0 0.0
0.007070773209803788 -0.004940051042331849 0.0 0.002849687063104838 0.0 0.0
0.004156399412273671 -0.0023848546446813743 0.0 0.001697062598387718 0.0 0.0
0.002455573507425901 -0.0011172717337754184 0.0 0.0011989880051243079 0.0 0.0
0.0016103915547011443 -0.0006633239663049486 0.0 0.0011151452333281995 0.0 0.0
0.0010852842692772894 -0.000421523845405741 0.0 0.0010525099035113773 0.0 0.0
0.0006011925584000869 -9.449020014303687e-05 0.0 0.0011273560203643106 0.0 0.0
0.002091423558457164 -0.0005350610793989207 0.0 0.004494469495291355 0.0 0.0
0.0038111836504635334 -0.010335033746911047 0.0 0.00351097893270008 0.0 0.0
0.0028451312133858098 -0.008234884872706426 0.0 -0.0029227980413412138 0.0 0.0
0.0015506475020632174 -0.0004589741031021486 0.0 -0.00397958736762151 0.0 0.0
0.0004373733449996364 -7.191270855803643e-05 0.0 -0.0014933772814505677 0.0 0.0
0.0008505712000166155 -0.0003015740754155415 0.0 -0.0013525600654221853 0.0 0.0
0.001314280433613839 -0.0005405524149235104 0.0 -0.0014212764756968215 0.0 0.0
0.0019733967794932934 -0.0008569241031351917 0.0 -0.00149189086856634 0.0 0.0
0.003277200098764816 -0.0017303296110427985 0.0 -0.001928094085941954 0.0 0.0
0.0056144774108180156 -0.003672372452136677 0.0 -0.003007852097589638 0.0 0.0
0.009111337322773966 -0.0068847322824043666 0.0 -0.0047846812134293305 0.0 0.0
0.013658975636528108 -0.011211867147899223 0.0 -0.006943745691628402 0.0 0.0
0.01909003474384926 -0.01643822326359207 0.0 -0.009219860961333582 0.0 0.0
0.025302148735115257 -0.022433261201798456 0.0 -0.011473794704169992 0.0 0.0
0.032277983767243466 -0.02917633674298676 0.0 -0.01369548975249955 0.0 0.0
0.04006957120659084 -0.036744061769760625 0.0 -0.015975199683987893 0.0 0.0
0.04871447901473075 -0.04518970848444982 0.0 -0.018327183801689483 0.0 0.0
0.05813728326219156 -0.054449726827577975 0.0 -0.020563036062281617 0.0 0.0
0.06810101419079771 -0.06429338882665524 0.0 -0.02232257094997506 0.0 0.0
0.07816964722558467 -0.0742937902806888 0.0 -0.023033890807901854 0.0 0.0
0.08760011945344931 -0.08375020660222861 0.0 -0.02161177698717885 0.0 0.0
0.095304003819159 -0.09157234648630401 0.0 -0.016427954826252145 0.0 0.0
0.09856866960128596 -0.09646172396134722 0.0 2.2684111533610718e-14 0.0 0.0
0.095304003819144 -0.0915723464862887 0.0 0.016427954826299093 0.0 0.0
0.08760011945342266 -0.08375020660220311 0.0 0.021611776987227115 0.0 0.0
0.07816964722555123 -0.07429379028065597 0.0 0.023033890807931234 0.0 0.0
0.06810101419075897 -0.06429338882661549 0.0 0.022322570949979297 0.0 0.0
0.05813728326214908 -0.054449726827532983 0.0 0.02056303606227376 0.0 0.0
0.04871447901468755 -0.04518970848441188 0.0 0.018327183801680802 0.0 0.0
0.04006957120654861 -0.036744061769721156 0.0 0.015975199683981634 0.0 0.0
0.03227798376720286 -0.02917633674294645 0.0 0.013695489752488611 0.0 0.0
0.02530214873507748 -0.02243326120176242 0.0 0.011473794704153268 0.0 0.0
0.01909003474381596 -0.016438223263561216 0.0 0.009219860961315173 0.0 0.0
0.013658975636500311 -0.01121186714787227 0.0 0.006943745691610062 0.0 0.0
0.009111337322753188 -0.006884732282385492 0.0 0.004784681213417637 0.0 0.0
0.005614477410804476 -0.0036723724521263955 0.0 0.003007852097582701 0.0 0.0
0.0032772000987574715 -0.0017303296110376912 0.0 0.001928094085937942 0.0 0.0
0.001973396779490385 -0.0008569241031342007 0.0 0.0014918908685651083 0.0 0.0
0.0013142804336128916 -0.0005405524149212072 0.0 0.0014212764756944987 0.0 0.0
0.0008505712000165741 -0.0003015740754146425 0.0 0.0013525600654203825 0.0 0.0
0.00043737334499980625 -7.191270855865881e-05 0.0 0.0014933772814485489 0.0 0.0
0.0015506475020591452 -0.000458974103100259 0.0 0.003979587367612508 0.0 0.0
0.0028451312133778105 -0.00823488487269033 0.0 0.002922798041334581 0.0 0.0
0.002084388544325588 -0.006467380309212681 0.0 -0.0023796868591777144 0.0 0.0
0.0011322050476652475 -0.0004035470034279349 0.0 -0.003514352712062207 0.0 0.0
0.00030859481793416705 -6.416118358758904e-05 0.0 -0.0017959636103995272 0.0 0.0
0.0006323464088312493 -0.00019553965595933245 0.0 -0.0016328127268432238 0.0 0.0
0.001029517477334307 -0.000417048539153682 0.0 -0.0016984641493027462 0.0 0.0
0.0015363377092382916 -0.000654362234355681 0.0 -0.0017843681488526244 0.0 0.0
0.0024852370844206423 -0.0012070063386095471 0.0 -0.0021110319908084056 0.0 0.0
0.004254328238744716 -0.0025606041753952354 0.0 -0.003045858153288221 0.0 0.0
0.007010158367288487 -0.004999535402139552 0.0 -0.004678926201676617 0.0 0.0
0.010685689976613694 -0.008453027368450109 0.0 -0.006839309406982434 0.0 0.0
0.01508843520371127 -0.012662660490484444 0.0 -0.009159940584937503 0.0 0.0
0.020085780377734144 -0.01746552600179315 0.0 -0.011452096586754657 0.0 0.0
0.025663221264473828 -0.022834571173758738 0.0 -0.013692537894224253 0.0 0.0
0.0318830157335303 -0.028851842199354057 0.0 -0.015971151111419477 0.0 0.0
0.03881208011836125 -0.03559965341351428 0.0 -0.018307210146354527 0.0 0.0
0.04643958337368989 -0.04307854843458837 0.0 -0.020554416602250433 0.0 0.0
0.05462874576694874 -0.05113935607714797 0.0 -0.022360159058521276 0.0 0.0
0.06312463826930868 -0.0595248175292616 0.0 -0.023254848735005235 0.0 0.0
0.0714903743118108 -0.06786210090658744 0.0 -0.022247588955372523 0.0 0.0
0.07889878573249554 -0.07537534077811946 0.0 -0.01744290150134395 0.0 0.0
0.08222830436680706 -0.08079093772724037 0.0 2.065188298150389e-14 0.0 0.0
0.07889878573248221 -0.0753753407781046 0.0 0.017442901501390613 0.0 0.0
0.07149037431178902 -0.0678621009065638 0.0 0.02224758895542153 0.0 0.0
0.06312463826928146 -0.0595248175292383 0.0 0.023254848735034875 0.0 0.0
0.054628745766916585 -0.0511393560771165 0.0 0.022360159058525935 0.0 0.0
0.04643958337365507 -0.04307854843455208 0.0 0.02055441660223938 0.0 0.0
0.038812080118326736 -0.03559965341348064 0.0 0.01830721014634408 0.0 0.0
0.0318830157334974 -0.028851842199325052 0.0 0.015971151111411053 0.0 0.0
0.025663221264442055 -0.022834571173726705 0.0 0.013692537894212924 0.0 0.0
0.020085780377704216 -0.017465526001761135 0.0 0.011452096586740382 0.0 0.0
0.015088435203684622 -0.012662660490458093 0.0 0.009159940584917073 0.0 0.0
0.010685689976591693 -0.008453027368426859 0.0 0.006839309406965519 0.0 0.0
0.0070101583672723955 -0.004999535402127092 0.0 0.00467892620166573 0.0 0.0
0.004254328238734106 -0.002560604175387142 0.0 0.0030458581532808635 0.0 0.0
0.0024852370844153228 -0.0012070063386058316 0.0 0.0021110319908043333 0.0 0.0
0.001536337709236514 -0.0006543622343558709 0.0 0.0017843681488510475 0.0 0.0
0.0010295174773336715 -0.0004170485391526609 0.0 0.0016984641493013024 0.0 0.0
0.0006323464088308888 -0.00019553965595955447 0.0 0.0016328127268403333 0.0 0.0
0.00030859481793395595 -6.416118358840088e-05 0.0 0.001795963610397409 0.0 0.0
0.0011322050476621954 -0.00040354700342686776 0.0 0.003514352712054231 0.0 0.0
0.0020843885443196496 -0.00646738030919963 0.0 0.002379686859172555 0.0 0.0
0.0014850661836683548 -0.004988506030992 0.0 -0.001961678993077734 0.0 0.0
0.0008024963097048785 -0.00036512614660245035 0.0 -0.003094553461037837 0.0 0.0
0.0001966609672894025 -5.518843788223183e-05 0.0 -0.002027039545582377 0.0 0.0
0.00042522969839550305 -0.00010171225642036211 0.0 -0.0018753505132514756 0.0 0.0
0.00074736139890278 -0.0002874064980664796 0.0 -0.0019329185908305451 0.0 0.0
0.001134917956623037 -0.0004834161651383277 0.0 -0.002064318087568079 0.0 0.0
0.0017793801009664276 -0.0008068689439809945 0.0 -0.0022839132546150697 0.0 0.0
0.0030081127603540135 -0.0016367122156315782 0.0 -0.002980676855713642 0.0 0.0
0.005017717602925731 -0.003292682283773532 0.0 -0.004315578831430052 0.0 0.0
0.0077805158883589905 -0.00581396553331897 0.0 -0.00620805408605421 0.0 0.0
0.011130409550973722 -0.008973478704900603 0.0 -0.008382613130339467 0.0 0.0
0.014916497213767074 -0.012579961791319382 0.0 -0.010564479411279788 0.0 0.0
0.019106170806514052 -0.016583382923150754 0.0 -0.012691601648243818 0.0 0.0
0.02376054005035147 -0.02106154230570476 0.0 -0.01482200822388553 0.0 0.0
0.02897296980770577 -0.026111828634010136 0.0 -0.016994313934497282 0.0 0.0
0.03478963686253161 -0.03179007253341995 0.0 -0.01909965788829168 0.0 0.0
0.041155766319288314 -0.038035206559006024 0.0 -0.020839690350710514 0.0 0.0
0.04798305897355055 -0.04471428303893597 0.0 -0.021806202950456335 0.0 0.0
0.05516463517105581 -0.05178092349086034 0.0 -0.021376033397061345 0.0 0.0
0.06223883472764047 -0.05892267504781061 0.0 -0.017690008214246558 0.0 0.0
0.06565247124763969 -0.06498335876275943 0.0 1.8258831946393883e-14 0.0 0.0
0.062238834727630296 -0.05892267504779841 0.0 0.017690008214292566 0.0 0.0
0.05516463517103906 -0.051780923490848015 0.0 0.021376033397108654 0.0 0.0
0.04798305897352937 -0.04471428303891469 0.0 0.021806202950483952 0.0 0.0
0.04115576631926332 -0.03803520655898053 0.0 0.02083969035071383 0.0 0.0
0.03478963686250469 -0.031790072533388926 0.0 0.019099657888280226 0.0 0.0
0.028972969807679584 -0.02611182863398286 0.0 0.016994313934487745 0.0 0.0
0.02376054005032734 -0.021061542305682798 0.0 0.014822008223878823 0.0 0.0
0.019106170806491175 -0.016583382923130528 0.0 0.012691601648232024 0.0 0.0
0.014916497213744436 -0.012579961791295861 0.0 0.010564479411265908 0.0 0.0
0.011130409550953669 -0.008973478704880852 0.0 0.008382613130320102 0.0 0.0
0.007780515888343014 -0.005813965533299431 0.0 0.00620805408603879 0.0 0.0
0.005017717602914294 -0.0032926822837642533 0.0 0.004315578831420856 0.0 0.0
0.0030081127603471965 -0.001636712215626341 0.0 0.0029806768557073407 0.0 0.0
0.0017793801009631 -0.0008068689439791288 0.0 0.0022839132546130666 0.0 0.0
0.0011349179566219722 -0.00048341616513674626 0.0 0.0020643180875664093 0.0 0.0
0.0007473613989023452 -0.0002874064980675521 0.0 0.0019329185908279639 0.0 0.0
0.0004252296983952828 -0.00010171225642094844 0.0 0.0018753505132490865 0.0 0.0
0.00019666096728931755 -5.518843788151616e-05 0.0 0.002027039545580387 0.0 0.0
0.0008024963097027489 -0.00036512614660235364 0.0 0.003094553461031429 0.0 0.0
0.001485066183664333 -0.004988506030981708 0.0 0.0019616789930746573 0.0 0.0
0.00103510680308053 -0.0037951009974067935 0.0 -0.0017032252080227774 0.0 0.0
0.0005442699127758885 -0.0003448991753405338 0.0 -0.002727905050905377 0.0 0.0
8.629764393969107e-05 -3.4198888194272315e-05 0.0 -0.0021913730491229244 0.0 0.0
0.00022659045600099828 -1.718196922945308e-05 0.0 -0.0020686312477626316 0.0 0.0
0.0004635511099163087 -0.00015506582421639332 0.0 -0.0021180089913830644 0.0 0.0
0.0007465213578269121 -0.0003136353131158975 0.0 -0.002291060722824258 0.0 0.0
0.0011516360757820804 -0.0005072427567846006 0.0 -0.0024966729538389823 0.0 0.0
0.0018932499835872104 -0.0009267014445200848 0.0 -0.0028930600350889867 0.0 0.0
0.0031700224161226313 -0.0018489940997868447 0.0 -0.00378260710063728 0.0 0.0
0.0050001411941795176 -0.00340453080817959 0.0 -0.005168871403028224 0.0 0.0
0.007261408812258861 -0.00545904103295187 0.0 -0.006923443500600284 0.0 0.0
0.009819281637655003 -0.007844896259354662 0.0 -0.008787799254860344 0.0 0.0
0.012627172213259092 -0.010481275548188743 0.0 -0.010665446923436211 0.0 0.0
0.015731769388152444 -0.01343409588929504 0.0 -0.012533077494873555 0.0 0.0
0.01922820598388343 -0.01679051742152026 0.0 -0.01440251104207273 0.0 0.0
0.023213650137844898 -0.020647254498626737 0.0 -0.016248070731579235 0.0 0.0
0.027730897058056495 -0.025043846738252086 0.0 -0.017859971193588963 0.0 0.0
0.03278813659802571 -0.02995428059240697 0.0 -0.018825413191789174 0.0 0.0
0.03856092102320711 -0.0355183636948799 0.0 -0.018788016010034714 0.0 0.0
0.04514353099273468 -0.04203645730968835 0.0 -0.01684152546412942 0.0 0.0
0.04861895184163277 -0.04883086399853508 0.0 1.3130989351406441e-14 0.0 0.0
0.04514353099272824 -0.042036457309676464 0.0 0.016841525464169883 0.0 0.0
0.03856092102319531 -0.03551836369487332 0.0 0.018788016010078543 0.0 0.0
0.03278813659801044 -0.029954280592386834 0.0 0.0188254131918145 0.0 0.0
0.027730897058038884 -0.025043846738232203 0.0 0.01785997119358754 0.0 0.0
0.02321365013782624 -0.020647254498601518 0.0 0.01624807073156866 0.0 0.0
0.019228205983866733 -0.01679051742150345 0.0 0.014402511042063162 0.0 0.0
0.01573176938813771 -0.013434095889283479 0.0 0.012533077494870282 0.0 0.0
0.012627172213244565 -0.010481275548176915 0.0 0.010665446923427831 0.0 0.0
0.009819281637640257 -0.007844896259341094 0.0 0.008787799254844034 0.0 0.0
0.007261408812245778 -0.005459041032939705 0.0 0.006923443500587051 0.0 0.0
0.005000141194169396 -0.003404530808167816 0.0 0.0051688714030163445 0.0 0.0
0.003170022416115592 -0.0018489940997814184 0.0 0.0037826071006320794 0.0 0.0
0.0018932499835833238 -0.0009267014445171686 0.0 0.002893060035084998 0.0 0.0
0.001151636075780273 -0.0005072427567833605 0.0 0.0024966729538370386 0.0 0.0
0.0007465213578263514 -0.0003136353131139016 0.0 0.0022910607228229674 0.0 0.0
0.0004635511099162655 -0.0001550658242177394 0.0 0.002118008991379665 0.0 0.0
0.00022659045600088542 -1.7181969229893176e-05 0.0 0.0020686312477617794 0.0 0.0
8.629764393941402e-05 -3.419888819324451e-05 0.0 0.002191373049121101 0.0 0.0
0.000544269912774283 -0.0003448991753404677 0.0 0.002727905050900945 0.0 0.0
0.0010351068030776949 -0.003795100997399606 0.0 0.0017032252080223065 0.0 0.0
0.0007191744309099179 -0.0028686389413224104 0.0 -0.0015559718518120612 0.0 0.0
0.0003478364622890428 -0.00034534734052001645 0.0 -0.002451522308191305 0.0 0.0
-2.677197760915782e-05 1.971488309063838e-06 0.0 -0.002293722394836244 0.0 0.0
3.417420836633309e-05 6.083238559715187e-05 0.0 -0.0022068383984285185 0.0 0.0
0.00018067662503690125 -2.412955921730059e-05 0.0 -0.0022501542898134817 0.0 0.0
0.00035313961237611546 -0.00013432085348736303 0.0 -0.0024363347233035794 0.0 0.0
0.0005693297070782918 -0.0002475362362460001 0.0 -0.0026880131110871594 0.0 0.0
0.000911235455107156 -0.00041495161019891455 0.0 -0.002935667469420958 0.0 0.0
0.0015031942970997114 -0.0007719180148725595 0.0 -0.0033317821305984445 0.0 0.0
0.0023988970697844123 -0.0014296326253508077 0.0 -0.004052006435570258 0.0 0.0
0.003539818427403925 -0.0023609741119267422 0.0 -0.0051458027775356146 0.0 0.0
0.004835718180055488 -0.0034764123039100815 0.0 -0.006499301336539402 0.0 0.0
0.006247710760235256 -0.00472481738093496 0.0 -0.007979236839949777 0.0 0.0
0.007811345284568396 -0.006148088094220375 0.0 -0.009532197621881433 0.0 0.0
0.009598211927595383 -0.007807189630228341 0.0 -0.011152343919478905 0.0 0.0
0.011728092670397115 -0.00981106340237926 0.0 -0.012833050035863812 0.0 0.0
0.014355187053844221 -0.012306578280901922 0.0 -0.014435446282521764 0.0 0.0
0.017616578335577966 -0.015429886694462425 0.0 -0.01552573170916808 0.0 0.0
0.021738180908414617 -0.019344521372671494 0.0 -0.015549545460637738 0.0 0.0
0.027420747899230515 -0.02466943586860879 0.0 -0.014684468883582786 0.0 0.0
0.030785280466396538 -0.032075179354142426 0.0 1.1823875212257917e-14 0.0 0.0
0.027420747899227698 -0.024669435868606867 0.0 0.01468446888361595 0.0 0.0
0.021738180908407834 -0.019344521372665888 0.0 0.01554954546067332 0.0 0.0
0.01761657833556856 -0.015429886694451982 0.0 0.015525731709183262 0.0 0.0
0.014355187053834468 -0.012306578280892025 0.0 0.014435446282516987 0.0 0.0
0.011728092670388372 -0.00981106340237084 0.0 0.012833050035853697 0.0 0.0
0.009598211927588625 -0.007807189630220613 0.0 0.011152343919471973 0.0 0.0
0.007811345284562557 -0.006148088094213249 0.0 0.009532197621877162 0.0 0.0
0.00624771076022855 -0.004724817380932222 0.0 0.007979236839943872 0.0 0.0
0.004835718180049045 -0.0034764123039048938 0.0 0.006499301336527567 0.0 0.0
0.00353981842739875 -0.0023609741119209366 0.0 0.005145802777526141 0.0 0.0
0.0023988970697803374 -0.001429632625346153 0.0 0.004052006435564131 0.0 0.0
0.00150319429709689 -0.0007719180148697137 0.0 0.0033317821305959214 0.0 0.0
0.0009112354551055542 -0.000414951610197168 0.0 0.0029356674694186414 0.0 0.0
0.0005693297070775286 -0.0002475362362453638 0.0 0.0026880131110840594 0.0 0.0
0.00035313961237576835 -0.00013432085348783978 0.0 0.002436334723301913 0.0 0.0
0.00018067662503673952 -2.4129559216825304e-05 0.0 0.002250154289810957 0.0 0.0
3.41742083662713e-05 6.083238559644365e-05 0.0 0.002206838398425858 0.0 0.0
-2.6771977609409168e-05 1.971488309480262e-06 0.0 0.0022937223948336243 0.0 0.0
0.0003478364622882761 -0.00034534734052039343 0.0 0.0024515223081888983 0.0 0.0
0.000719174430908715 -0.0028686389413175874 0.0 0.0015559718518112933 0.0 0.0
0.0004969247594901914 -0.002178501853325617 0.0 -0.0014760028444578775 0.0 0.0
0.00019903018263262506 -0.0003501761614946457 0.0 -0.0022621017617400993 0.0 0.0
-0.00013701872423340232 4.530548248431012e-05 0.0 -0.0023413915389645717 0.0 0.0
-0.00015279304988663893 0.00013530658750295717 0.0 -0.0022880610908695234 0.0 0.0
-9.809057035737467e-05 0.0001034336647963894 0.0 -0.0023238171339863994 0.0 0.0
-4.5222733736774445e-05 4.855484746430484e-05 0.0 -0.0024985104968162784 0.0 0.0
-1.5860026697063397e-05 1.2953251796159233e-05 0.0 -0.0027681994238311003 0.0 0.0
-4.306430228360068e-06 2.769561088226296e-06 0.0 -0.003013630739841123 0.0 0.0
-5.854946104248237e-07 8.464296953817458e-08 0.0 -0.0031748366834862735 0.0 0.0
5.043302082950816e-07 -2.229744937764979e-07 0.0 -0.0035262083501386276 0.0 0.0
-7.324924968128959e-08 -6.350490143180185e-07 0.0 -0.00423132648732962 0.0 0.0
-6.52635237926517e-06 5.909546664902758e-06 0.0 -0.005297645252291334 0.0 0.0
-2.2280746258893395e-05 2.0025775276862523e-05 0.0 -0.006551702052399011 0.0 0.0
-3.557821933248824e-05 3.652493797386055e-05 0.0 -0.007951647358009363 0.0 0.0
1.0036627223325954e-05 8.98994175982219e-06 0.0 -0.009504042584787502 0.0 0.0
0.00025915213307083475 -0.00018719375979374902 0.0 -0.011199115216012875 0.0 0.0
0.0009753384238740181 -0.0007850311340463444 0.0 -0.012971325319140801 0.0 0.0
0.00248064280777006 -0.0021015660160824423 0.0 -0.014625048976733411 0.0 0.0
0.0049901087161362805 -0.004272122825938448 0.0 -0.01584147677276795 0.0 0.0
0.009176518224036073 -0.0076552742600065355 0.0 -0.016450098235526782 0.0 0.0
0.011842767113165571 -0.01550015513526408 0.0 9.547918011776346e-15 0.0 0.0
0.009176518224036371 -0.007655274260007711 0.0 0.016450098235547064 0.0 0.0
0.0049901087161346004 -0.00427212282593679 0.0 0.015841476772784586 0.0 0.0
0.0024806428077684137 -0.0021015660160818737 0.0 0.014625048976735108 0.0 0.0
0.0009753384238745241 -0.0007850311340488454 0.0 0.012971325319132955 0.0 0.0
0.0002591521330720936 -0.0001871937598003782 0.0 0.011199115216002767 0.0 0.0
1.0036627225116406e-05 8.989941760899995e-06 0.0 0.009504042584778435 0.0 0.0
-3.557821932938926e-05 3.652493797194346e-05 0.0 0.00795164735799953 0.0 0.0
-2.2280746255723947e-05 2.0025775270861355e-05 0.0 0.00655170205239056 0.0 0.0
-6.526352376660591e-06 5.90954666039657e-06 0.0 0.0052976452522841885 0.0 0.0
-7.324924747770288e-08 -6.350490119670616e-07 0.0 0.004231326487320751 0.0 0.0
5.04330209942066e-07 -2.2297449668771626e-07 0.0 0.0035262083501359917 0.0 0.0
-5.854946097528623e-07 8.46429691346413e-08 0.0 0.0031748366834861447 0.0 0.0
-4.306430228206409e-06 2.769561089147092e-06 0.0 0.003013630739839074 0.0 0.0
-1.5860026696724584e-05 1.2953251794683282e-05 0.0 0.002768199423827494 0.0 0.0
-4.522273373661575e-05 4.8554847463971756e-05 0.0 0.002498510496814366 0.0 0.0
-9.80905703574437e-05 0.00010343366479625805 0.0 0.0023238171339843984 0.0 0.0
-0.0001527930498866257 0.00013530658750339182 0.0 0.002288061090866684 0.0 0.0
-0.00013701872423318935 4.530548248490526e-05 0.0 0.0023413915389627012 0.0 0.0
0.00019903018263228532 -0.0003501761614952012 0.0 0.0022621017617380865 0.0 0.0
0.0004969247594891791 -0.00217850185332227 0.0 0.001476002844457811 0.0 0.0
0.00034456973744858617 -0.0016718960785004674 0.0 -0.0014137285611140484 0.0 0.0
8.889161873962907e-05 -0.0003390353548226293 0.0 -0.002109784078652819 0.0 0.0
-0.00024046873825323022 8.688530760548661e-05 0.0 -0.00233997145051304 0.0 0.0
-0.0003332453845281892 0.000207514904547835 0.0 -0.0023111512679121118 0.0 0.0
-0.0003706815297064923 0.0002257277853108308 0.0 -0.002332036598554711 0.0 0.0
-0.0004397259688659554 0.00022984957398713448 0.0 -0.0024793798844151733 0.0 0.0
-0.0006001899756498617 0.0002733832142647506 0.0 -0.0027082082863081848 0.0 0.0
-0.0009199394872017607 0.0004207784879226257 0.0 -0.002945906839683763 0.0 0.0
-0.0015039784244142923 0.0007719134844304782 0.0 -0.003336051538267428 0.0 0.0
-0.0023971289332968136 0.0014282706458391037 0.0 -0.004050794832791308 0.0 0.0
-0.0035404757604993314 0.002360915050405521 0.0 -0.005142344579002404 0.0 0.0
-0.0048505978822307024 0.0034893242899770947 0.0 -0.006500116882325909 0.0 0.0
-0.006293022191201191 0.004766712678164511 0.0 -0.007975330799084255 0.0 0.0
-0.007879712364786505 0.006222046465899171 0.0 -0.00952031756795042 0.0 0.0
-0.009571101082753762 0.007823337987328637 0.0 -0.01115865626906189 0.0 0.0
-0.011213666668451746 0.009429238995918705 0.0 -0.01297078048122851 0.0 0.0
-0.012498880384158372 0.010739987614450395 0.0 -0.015014321845265785 0.0 0.0
-0.013009133594061396 0.011316440898430489 0.0 -0.01737175940491384 0.0 0.0
-0.012284712920234336 0.010822842504988234 0.0 -0.01997389505824432 0.0 0.0
-0.008711445561881262 0.008271615932323837 0.0 -0.021133072164000094 0.0 0.0
-0.005868956176836915 -0.00030782519220921595 0.0 1.284389261613228e-14 0.0 0.0
-0.008711445561881498 0.008271615932327968 0.0 0.021133072164023662 0.0 0.0
-0.012284712920230718 0.010822842504983405 0.0 0.019973895058259188 0.0 0.0
-0.013009133594052712 0.011316440898425853 0.0 0.017371759404916743 0.0 0.0
-0.012498880384146375 0.010739987614435445 0.0 0.015014321845257712 0.0 0.0
-0.011213666668440047 0.009429238995907625 0.0 0.012970780481216197 0.0 0.0
-0.009571101082742894 0.007823337987320789 0.0 0.01115865626905379 0.0 0.0
-0.007879712364774853 0.006222046465890556 0.0 0.009520317567941337 0.0 0.0
-0.0062930221911885915 0.004766712678149118 0.0 0.007975330799074625 0.0 0.0
-0.004850597882218979 0.003489324289966984 0.0 0.006500116882313568 0.0 0.0
-0.003540475760489361 0.0023609150503990763 0.0 0.005142344578989953 0.0 0.0
-0.0023971289332893266 0.001428270645831984 0.0 0.0040507948327843145 0.0 0.0
-0.00150397842441023 0.000771913484426622 0.0 0.0033360515382651543 0.0 0.0
-0.000919939487199555 0.00042077848792114176 0.0 0.0029459068396817047 0.0 0.0
-0.0006001899756485567 0.0002733832142652977 0.0 0.002708208286305769 0.0 0.0
-0.0004397259688650652 0.00022984957398686635 0.0 0.0024793798844116506 0.0 0.0
-0.000370681529706107 0.0002257277853106627 0.0 0.002332036598551978 0.0 0.0
-0.0003332453845280026 0.0002075149045497132 0.0 0.0023111512679110783 0.0 0.0
-0.00024046873825301447 8.688530760524887e-05 0.0 0.0023399714505123923 0.0 0.0
8.889161873949284e-05 -0.000339035354822486 0.0 0.0021097840786506593 0.0 0.0
0.0003445697374481914 -0.0016718960784982773 0.0 0.001413728561112627 0.0 0.0
0.00023759569130175326 -0.0012691628116211474 0.0 -0.0013061655842485738 0.0 0.0
4.865405562129939e-06 -0.0003099208468190081 0.0 -0.0019585028863881495 0.0 0.0
-0.000336492920068363 0.00012514986496586414 0.0 -0.0022876486380654696 0.0 0.0
-0.0005053202134754411 0.0002763374792375778 0.0 -0.0022746087731816828 0.0 0.0
-0.0006351272863309536 0.0003414927287089278 0.0 -0.0022726439447606174 0.0 0.0
-0.0008241054452744201 0.0004036115737043308 0.0 -0.0023736320177675917 0.0 0.0
-0.001180005419225047 0.0005346269224893519 0.0 -0.002540067082567338 0.0 0.0
-0.0019005559490807228 0.0009324939066366091 0.0 -0.002913611022289069 0.0 0.0
-0.003169089969385612 0.0018472998293596371 0.0 -0.0037856698691808854 0.0 0.0
-0.0049977709482582925 0.003402156495996223 0.0 -0.005164964645252753 0.0 0.0
-0.007263398380166496 0.005461256340244381 0.0 -0.0069216962460812 0.0 0.0
-0.009833752561215181 0.00785853540819694 0.0 -0.008785018783900856 0.0 0.0
-0.012666578764734739 0.010519812944689275 0.0 -0.010636542796288173 0.0 0.0
-0.015789584543861764 0.013498773689931826 0.0 -0.012457404454265807 0.0 0.0
-0.0191965987766175 0.016799058134084385 0.0 -0.01434628831208661 0.0 0.0
-0.022732820827586275 0.020285022964067433 0.0 -0.016514701741377848 0.0 0.0
-0.026038977609398436 0.023598531314522612 0.0 -0.01919200775120752 0.0 0.0
-0.02856076099197387 0.026178890754299033 0.0 -0.02249082303638569 0.0 0.0
-0.02924753869851334 0.0271148500671163 0.0 -0.02576239150610941 0.0 0.0
-0.026031513910506027 0.02436735633207126 0.0 -0.02649689675716057 0.0 0.0
-0.023112620013760743 0.013897225069706358 0.0 1.4917754531662553e-14 0.0 0.0
-0.02603151391050424 0.024367356332068286 0.0 0.026496896757196915 0.0 0.0
-0.029247538698505146 0.027114850067112437 0.0 0.025762391506143067 0.0 0.0
-0.028560760991957833 0.026178890754286838 0.0 0.022490823036399286 0.0 0.0
-0.02603897760937772 0.023598531314500015 0.0 0.019192007751202153 0.0 0.0
-0.022732820827564986 0.020285022964044355 0.0 0.016514701741364317 0.0 0.0
-0.019196598776597556 0.01679905813406616 0.0 0.014346288312073848 0.0 0.0
-0.01578958454384164 0.013498773689911698 0.0 0.012457404454253366 0.0 0.0
-0.012666578764713457 0.010519812944666621 0.0 0.010636542796275777 0.0 0.0
-0.009833752561195156 0.007858535408179523 0.0 0.008785018783883575 0.0 0.0
-0.007263398380148818 0.005461256340227088 0.0 0.006921696246064464 0.0 0.0
-0.004997770948244668 0.003402156495984473 0.0 0.00516496464523896 0.0 0.0
-0.0031690899693770647 0.0018472998293540778 0.0 0.0037856698691747914 0.0 0.0
-0.0019005559490759072 0.000932493906635846 0.0 0.0029136110222855137 0.0 0.0
-0.001180005419222693 0.0005346269224885936 0.0 0.002540067082564569 0.0 0.0
-0.0008241054452731106 0.0004036115737041195 0.0 0.002373632017764555 0.0 0.0
-0.0006351272863299903 0.00034149272870877625 0.0 0.002272643944758635 0.0 0.0
-0.0005053202134749597 0.0002763374792387302 0.0 0.002274608773180278 0.0 0.0
-0.00033649292006817587 0.00012514986496561014 0.0 0.0022876486380638 0.0 0.0
4.865405562168601e-06 -0.0003099208468189944 0.0 0.001958502886385825 0.0 0.0
0.00023759569130152878 -0.0012691628116194514 0.0 0.0013061655842463158 0.0 0.0
0.00015021335921498757 -0.000929029122829846 0.0 -0.0011548567687284757 0.0 0.0
-6.662861538824573e-05 -0.00026581146440380444 0.0 -0.0017903712745298592 0.0 0.0
-0.00042545595653838174 0.00016134765564014203 0.0 -0.002182750548011756 0.0 0.0
-0.0006685439309702268 0.0003406547791222087 0.0 -0.002181016821905443 0.0 0.0
-0.0008884839535627386 0.00044922457630485445 0.0 -0.0021516385006721097 0.0 0.0
-0.0011988889023800103 0.0005663309077072067 0.0 -0.0021800194511753094 0.0 0.0
-0.0018041040263282668 0.0008367276318177917 0.0 -0.002349172351563532 0.0 0.0
-0.0030118910139989422 0.0016390854103902782 0.0 -0.0030011938407402718 0.0 0.0
-0.005013999605082871 0.0032882295883473645 0.0 -0.004313098205229523 0.0 0.0
-0.007778886672531817 0.005812344621045541 0.0 -0.0062032867219100245 0.0 0.0
-0.011133974011387843 0.00897790383695023 0.0 -0.008382487917365575 0.0 0.0
-0.01492751097403771 0.012591650636447717 0.0 -0.010557560841648229 0.0 0.0
-0.01912902776388784 0.016606524705392665 0.0 -0.012637338591836538 0.0 0.0
-0.023789775657124965 0.021094697321873253 0.0 -0.01466866629841806 0.0 0.0
-0.028934122970252198 0.026101445623942916 0.0 -0.01681931242396205 0.0 0.0
-0.034417535769272846 0.031510764871175836 0.0 -0.019413120808622734 0.0 0.0
-0.03981338253469624 0.03691164754369371 0.0 -0.02288868871030247 0.0 0.0
-0.04425165191973075 0.04148737366327503 0.0 -0.02727961279879099 0.0 0.0
-0.04615201770264496 0.04369307747432975 0.0 -0.0313676828682897 0.0 0.0
-0.04255371190003819 0.04083907906704932 0.0 -0.0326699912383755 0.0 0.0
-0.03889112702139866 0.027602466242823677 0.0 1.764647455937407e-14 0.0 0.0
-0.0425537119000333 0.04083907906704373 0.0 0.03266999123841819 0.0 0.0
-0.04615201770263241 0.043693077474321274 0.0 0.0313676828683315 0.0 0.0
-0.044251651919708396 0.04148737366325305 0.0 0.027279612798808868 0.0 0.0
-0.03981338253466732 0.03691164754366938 0.0 0.022888688710298075 0.0 0.0
-0.03441753576924277 0.03151076487113897 0.0 0.01941312080861155 0.0 0.0
-0.028934122970223207 0.026101445623917092 0.0 0.016819312423946423 0.0 0.0
-0.023789775657095908 0.02109469732184126 0.0 0.014668666298405627 0.0 0.0
-0.019129027763858174 0.016606524705365066 0.0 0.01263733859182135 0.0 0.0
-0.014927510974009316 0.012591650636421352 0.0 0.010557560841626337 0.0 0.0
-0.01113397401136253 0.008977903836926308 0.0 0.008382487917346712 0.0 0.0
-0.00777888667251197 0.005812344621026542 0.0 0.0062032867218928004 0.0 0.0
-0.0050139996050695265 0.0032882295883374445 0.0 0.004313098205220417 0.0 0.0
-0.0030118910139908736 0.0016390854103878851 0.0 0.003001193840733917 0.0 0.0
-0.0018041040263242101 0.0008367276318122132 0.0 0.002349172351560217 0.0 0.0
-0.0011988889023781127 0.000566330907706782 0.0 0.002180019451174146 0.0 0.0
-0.0008884839535616314 0.0004492245763033394 0.0 0.002151638500670153 0.0 0.0
-0.0006685439309695733 0.0003406547791228818 0.0 0.0021810168219037287 0.0 0.0
-0.0004254559565380373 0.00016134765564010473 0.0 0.0021827505480094002 0.0 0.0
-6.66286153882364e-05 -0.00026581146440427564 0.0 0.0017903712745277426 0.0 0.0
0.00015021335921466328 -0.000929029122828545 0.0 0.0011548567687280418 0.0 0.0
7.405853561009703e-05 -0.0006434667785152369 0.0 -0.0009877885434679894 0.0 0.0
-0.0001314479937571783 -0.00020952804375280314 0.0 -0.0015962755089950272 0.0 0.0
-0.0005096635921299348 0.00019698739957340678 0.0 -0.002025640149104844 0.0 0.0
-0.0008233665637448718 0.00040024087579360897 0.0 -0.002032082521594231 0.0 0.0
-0.0011284069636236336 0.0005455324719386222 0.0 -0.0019639611342343035 0.0 0.0
-0.0015834292125005529 0.0007287451451784781 0.0 -0.001923773378574432 0.0 0.0
-0.0025027838398953626 0.0012337792961504323 0.0 -0.0021786963146840426 0.0 0.0
-0.004252124884386648 0.00255677318349258 0.0 -0.003057456086731919 0.0 0.0
-0.007005725891427042 0.00499402225902312 0.0 -0.004672196951220166 0.0 0.0
-0.010685990164752796 0.00845352635847575 0.0 -0.0068351990187215566 0.0 0.0
-0.01509324903448183 0.012668957779031632 0.0 -0.00916042479492048 0.0 0.0
-0.020090436094244168 0.01747300112484791 0.0 -0.011440848713758072 0.0 0.0
-0.025659896012556423 0.02283413478000786 0.0 -0.013619547785601017 0.0 0.0
-0.03186487864595307 0.02883428579381426 0.0 -0.01576064543880079 0.0 0.0
-0.03875924632913023 0.035554996890642114 0.0 -0.018026588722374615 0.0 0.0
-0.04622244762303369 0.04291856166887166 0.0 -0.0208303250458986 0.0 0.0
-0.053714474757551534 0.05043652164055392 0.0 -0.02470401035026654 0.0 0.0
-0.06000043238969148 0.05693484688797516 0.0 -0.029681703303450366 0.0 0.0
-0.06284658104891201 0.06024703035585885 0.0 -0.03456041768092394 0.0 0.0
-0.05850431999392458 0.05680391826086252 0.0 -0.03660910928091188 0.0 0.0
-0.05395175072817031 0.040874455951636544 0.0 1.8774044818758995e-14 0.0 0.0
-0.058504319993916296 0.056803918260856276 0.0 0.03660910928095656 0.0 0.0
-0.06284658104889422 0.06024703035584024 0.0 0.034560417680969464 0.0 0.0
-0.06000043238966328 0.05693484688794445 0.0 0.029681703303474104 0.0 0.0
-0.05371447475751533 0.05043652164051985 0.0 0.02470401035026587 0.0 0.0
-0.04622244762299544 0.04291856166882854 0.0 0.020830325045886142 0.0 0.0
-0.0387592463290927 0.03555499689060804 0.0 0.018026588722360768 0.0 0.0
-0.03186487864591523 0.02883428579377708 0.0 0.015760645438787607 0.0 0.0
-0.025659896012518384 0.02283413477996905 0.0 0.013619547785586082 0.0 0.0
-0.020090436094207596 0.017473001124815785 0.0 0.011440848713736088 0.0 0.0
-0.01509324903444964 0.012668957779000354 0.0 0.009160424794897966 0.0 0.0
-0.01068599016472735 0.0084535263584512 0.0 0.006835199018702321 0.0 0.0
-0.007005725891408772 0.004994022259006075 0.0 0.0046721969512086604 0.0 0.0
-0.0042521248843747856 0.002556773183481721 0.0 0.003057456086724316 0.0 0.0
-0.0025027838398889034 0.0012337792961443557 0.0 0.0021786963146791546 0.0 0.0
-0.0015834292124980794 0.0007287451451776334 0.0 0.0019237733785735785 0.0 0.0
-0.001128406963622272 0.0005455324719378803 0.0 0.0019639611342330545 0.0 0.0
-0.0008233665637439801 0.0004002408757933897 0.0 0.002032082521592141 0.0 0.0
-0.0005096635921294476 0.00019698739957347387 0.0 0.0020256401491031786 0.0 0.0
-0.00013144799375694653 -0.00020952804375297558 0.0 0.0015962755089940302 0.0 0.0
7.405853560979405e-05 -0.0006434667785146334 0.0 0.0009877885434681193 0.0 0.0
7.2894665854063036e-06 -0.0004095423804625902 0.0 -0.000814360528199849 0.0 0.0
-0.00019124292038814487 -0.00014551633083303492 0.0 -0.001376374557566281 0.0 0.0
-0.0005902122151619267 0.0002332334997334403 0.0 -0.001816389592230734 0.0 0.0
-0.0009683745148369451 0.00045457782068242204 0.0 -0.0018269856967158566 0.0 0.0
-0.0013606799139456636 0.0006314500231587994 0.0 -0.0017140014641754027 0.0 0.0
-0.001997822244935925 0.0009179856019987135 0.0 -0.0016428409686982245 0.0 0.0
-0.0032854439342292477 0.0017473173910281894 0.0 -0.001980427325113038 0.0 0.0
-0.005609598547524835 0.0036645904522859107 0.0 -0.0030103708763189983 0.0 0.0
-0.009108003881262301 0.006880746017122474 0.0 -0.004776516719968307 0.0 0.0
-0.013661572703763041 0.011214849786628943 0.0 -0.00694105941459652 0.0 0.0
-0.019095055315112568 0.016445288466428426 0.0 -0.009219756839270902 0.0 0.0
-0.025298226967839135 0.02243433004227972 0.0 -0.0114571297425204 0.0 0.0
-0.032243529853376154 0.029148506081877884 0.0 -0.013612293219014122 0.0 0.0
-0.0399937266086999 0.03666711494593113 0.0 -0.015750516987280704 0.0 0.0
-0.04863244550032155 0.04509440273475703 0.0 -0.018005428214032924 0.0 0.0
-0.05805186424496174 0.05438619933291115 0.0 -0.020702139196582967 0.0 0.0
-0.06759490067655044 0.06398091364184656 0.0 -0.024427702522534928 0.0 0.0
-0.07565161967756824 0.0723497473038744 0.0 -0.029498410871481497 0.0 0.0
-0.07932015297659406 0.07664050321511112 0.0 -0.03503349070743566 0.0 0.0
-0.07423699010675486 0.0725522525252367 0.0 -0.03900893029062926 0.0 0.0
-0.06886851800802006 0.05418281078090128 0.0 1.9860849076458464e-14 0.0 0.0
-0.07423699010674278 0.0725522525252289 0.0 0.03900893029067338 0.0 0.0
-0.07932015297657083 0.0766405032150904 0.0 0.0350334907074793 0.0 0.0
-0.07565161967753409 0.0723497473038408 0.0 0.029498410871505946 0.0 0.0
-0.06759490067650796 0.06398091364179878 0.0 0.02442770252253616 0.0 0.0
-0.05805186424491615 0.05438619933286568 0.0 0.020702139196573276 0.0 0.0
-0.04863244550027527 0.045094402734707044 0.0 0.01800542821402353 0.0 0.0
-0.039993726608653336 0.036667114945890596 0.0 0.01575051698726786 0.0 0.0
-0.032243529853329886 0.029148506081829166 0.0 0.013612293219000128 0.0 0.0
-0.025298226967795275 0.022434330042238784 0.0 0.01145712974250213 0.0 0.0
-0.019095055315073915 0.01644528846638836 0.0 0.009219756839249159 0.0 0.0
-0.01366157270373166 0.011214849786601446 0.0 0.006941059414579547 0.0 0.0
-0.009108003881238988 0.006880746017101106 0.0 0.004776516719955969 0.0 0.0
-0.005609598547509424 0.0036645904522716365 0.0 0.0030103708763116075 0.0 0.0
-0.003285443934220538 0.0017473173910224778 0.0 0.0019804273251074755 0.0 0.0
-0.0019978222449321794 0.0009179856019990414 0.0 0.0016428409686964141 0.0 0.0
-0.0013606799139443413 0.0006314500231584962 0.0 0.0017140014641750792 0.0 0.0
-0.0009683745148361309 0.00045457782068263443 0.0 0.0018269856967142377 0.0 0.0
-0.0005902122151613992 0.00023323349973350328 0.0 0.00181638959223003 0.0 0.0
-0.00019124292038794085 -0.0001455163308331163 0.0 0.0013763745575648837 0.0 0.0
7.289466585336549e-06 -0.0004095423804622915 0.0 0.0008143605281989003 0.0 0.0
-4.930047043577026e-05 -0.0002263962897943237 0.0 -0.0006382421504084832 0.0 0.0
-0.0002451634298902439 -7.862275171415047e-05 0.0 -0.0011328769020636992 0.0 0.0
-0.0006670813430269363 0.00027005380671027955 0.0 -0.0015558547567616474 0.0 0.0
-0.0011060148531998695 0.0005033715826993245 0.0 -0.0015654039250323226 0.0 0.0
-0.0015971311610846527 0.0007129407948363383 0.0 -0.0014120417340781457 0.0 0.0
-0.0024536962177963326 0.0011562453128854705 0.0 -0.0013381659625296648 0.0 0.0
-0.004154150898746226 0.0023895449782548 0.0 -0.0017319300095619277 0.0 0.0
-0.007066030026031515 0.0049335881725026 0.0 -0.0028448859835766686 0.0 0.0
-0.011269179012566358 0.008864937563321082 0.0 -0.004513608296836728 0.0 0.0
-0.016662842082501177 0.014032189927616134 0.0 -0.006488052011624327 0.0 0.0
-0.023119188833404088 0.020266085949224792 0.0 -0.008587758031991927 0.0 0.0
-0.030527904172503346 0.0274386711529655 0.0 -0.010647052021168849 0.0 0.0
-0.03885851402672949 0.03551734730038865 0.0 -0.012646921891850006 0.0 0.0
-0.04816314998914847 0.04456641494887824 0.0 -0.014667570586700547 0.0 0.0
-0.058508727221371945 0.05467481215654821 0.0 -0.016781510495721998 0.0 0.0
-0.06979604950802427 0.06580303808084381 0.0 -0.019115353856337343 0.0 0.0
-0.08130547832472394 0.07736642633810477 0.0 -0.02215527893434834 0.0 0.0
-0.0910876014287484 0.08755688961473264 0.0 -0.02671514716485667 0.0 0.0
-0.09565171594923122 0.09289931742476941 0.0 -0.03297386977691532 0.0 0.0
-0.09006885715675043 0.08842784250245074 0.0 -0.040221992595301896 0.0 0.0
-0.08404298371697896 0.06791811045953665 0.0 1.9805337925227207e-14 0.0 0.0
-0.09006885715673553 0.08842784250244115 0.0 0.04022199259534454 0.0 0.0
-0.09565171594920274 0.09289931742474135 0.0 0.03297386977695571 0.0 0.0
-0.09108760142870818 0.08755688961469354 0.0 0.02671514716487941 0.0 0.0
-0.081305478324675 0.0773664263380547 0.0 0.022155278934349078 0.0 0.0
-0.06979604950797048 0.06580303808079337 0.0 0.01911535385633198 0.0 0.0
-0.05850872722131702 0.05467481215649212 0.0 0.01678151049571391 0.0 0.0
-0.04816314998909394 0.04456641494883021 0.0 0.014667570586688519 0.0 0.0
-0.038858514026674854 0.035517347300339605 0.0 0.012646921891834525 0.0 0.0
-0.030527904172451263 0.02743867115291378 0.0 0.010647052021150773 0.0 0.0
-0.02311918883335841 0.020266085949177257 0.0 0.008587758031971088 0.0 0.0
-0.016662842082464307 0.01403218992758291 0.0 0.0064880520116089415 0.0 0.0
-0.011269179012538554 0.008864937563293668 0.0 0.0045136082968256636 0.0 0.0
-0.007066030026012308 0.004933588172484998 0.0 0.002844885983568913 0.0 0.0
-0.004154150898735022 0.002389544978245141 0.0 0.0017319300095557152 0.0 0.0
-0.00245369621779124 0.0011562453128830938 0.0 0.001338165962526632 0.0 0.0
-0.001597131161082911 0.0007129407948347175 0.0 0.0014120417340778954 0.0 0.0
-0.0011060148531989126 0.0005033715826995738 0.0 0.001565403925031882 0.0 0.0
-0.0006670813430264189 0.00027005380670974607 0.0 0.0015558547567601018 0.0 0.0
-0.00024516342988995714 -7.862275171397233e-05 0.0 0.001132876902062233 0.0 0.0
-4.9300470435197815e-05 -0.00022639628979398933 0.0 0.0006382421504074947 0.0 0.0
-9.304879172533577e-05 -9.440894541417469e-05 0.0 -0.00046381251951150334 0.0 0.0
-0.00029030010383332086 -1.40528669222086e-05 0.0 -0.0008686344397677472 0.0 0.0
-0.0007388635165798314 0.00030610555163801607 0.0 -0.0012428765294010876 0.0 0.0
-0.0012391286986127728 0.0005467697134346678 0.0 -0.0012458688420025849 0.0 0.0
-0.0018479968472354755 0.0008022942755604342 0.0 -0.001061286053814101 0.0 0.0
-0.002965743678060921 0.0014608714073173525 0.0 -0.0009947200207939956 0.0 0.0
-0.005111140748991798 0.0031675934433744043 0.0 -0.0014407770130544933 0.0 0.0
-0.0085795788989894 0.006298943546790464 0.0 -0.0024529060741818576 0.0 0.0
-0.013445308545406907 0.010890072118412053 0.0 -0.003840314082660809 0.0 0.0
-0.01967006551543987 0.0168733890235525 0.0 -0.0055079892283720795 0.0 0.0
-0.02714064139534924 0.024100889677974635 0.0 -0.007284347396815013 0.0 0.0
-0.03575728471943543 0.032458192911556334 0.0 -0.009029581904274818 0.0 0.0
-0.04548587984282559 0.04191255366763802 0.0 -0.010736487819022207 0.0 0.0
-0.05634745819475691 0.05250579956990376 0.0 -0.012501595815155217 0.0 0.0
-0.06835908233691432 0.06426917786805363 0.0 -0.014364421465301286 0.0 0.0
-0.08137555839733346 0.07709706588458452 0.0 -0.016221675169802312 0.0 0.0
-0.09467433999778213 0.09040675884975803 0.0 -0.01816638902805349 0.0 0.0
-0.10618206814153312 0.10236998939843107 0.0 -0.021412273859144113 0.0 0.0
-0.11193831798832163 0.10908094022393194 0.0 -0.028290033035066015 0.0 0.0
-0.10630424871313753 0.10476488733364787 0.0 -0.0400020877220678 0.0 0.0
-0.09984667889172189 0.08247870428425562 0.0 1.7281315267680952e-14 0.0 0.0
-0.10630424871312022 0.10476488733363144 0.0 0.04000208772210595 0.0 0.0
-0.11193831798828811 0.10908094022389295 0.0 0.02829003303510235 0.0 0.0
-0.1061820681414864 0.10236998939838124 0.0 0.02141227385916365 0.0 0.0
-0.09467433999772584 0.09040675884970002 0.0 0.01816638902805591 0.0 0.0
-0.08137555839727205 0.07709706588452574 0.0 0.01622167516979914 0.0 0.0
-0.06835908233685156 0.0642691778679972 0.0 0.014364421465293688 0.0 0.0
-0.05634745819469404 0.052505799569843824 0.0 0.012501595815147771 0.0 0.0
-0.04548587984276301 0.04191255366757924 0.0 0.010736487819013233 0.0 0.0
-0.03575728471937612 0.03245819291150189 0.0 0.00902958190425964 0.0 0.0
-0.027140641395297073 0.024100889677921303 0.0 0.007284347396797102 0.0 0.0
-0.019670065515397402 0.01687338902351165 0.0 0.0055079892283587855 0.0 0.0
-0.013445308545374485 0.010890072118379543 0.0 0.0038403140826502235 0.0 0.0
-0.008579578898966682 0.006298943546767987 0.0 0.002452906074173162 0.0 0.0
-0.005111140748978069 0.0031675934433632045 0.0 0.0014407770130495515 0.0 0.0
-0.0029657436780540056 0.0014608714073132694 0.0 0.0009947200207915943 0.0 0.0
-0.0018479968472330769 0.0008022942755578088 0.0 0.001061286053814008 0.0 0.0
-0.0012391286986119662 0.0005467697134341642 0.0 0.0012458688420021297 0.0 0.0
-0.0007388635165792331 0.00030610555163749673 0.0 0.0012428765293993162 0.0 0.0
-0.00029030010383307957 -1.4052866921918818e-05 0.0 0.0008686344397676215 0.0 0.0
-9.304879172538856e-05 -9.440894541384651e-05 0.0 0.00046381251951018175 0.0 0.0
-0.0001191762994688346 -1.4364723611701912e-05 0.0 -0.0003007701508568273 0.0 0.0
-0.00032104055612849805 4.1666052062088734e-05 0.0 -0.0005874191399887942 0.0 0.0
-0.0008028072154216263 0.0003383307524672842 0.0 -0.000871357060069873 0.0 0.0
-0.001373292518007812 0.0005873335784714861 0.0 -0.0008633169469492928 0.0 0.0
-0.002126211659953602 0.0009141274928153333 0.0 -0.0006703003891966719 0.0 0.0
-0.0035475088182569193 0.0018626998472361135 0.0 -0.0006289028187632271 0.0 0.0
-0.00612810626914163 0.004050247882271538 0.0 -0.001040633493032706 0.0 0.0
-0.010113375767332958 0.00770374416597653 0.0 -0.0017700806061483971 0.0 0.0
-0.015621590525236123 0.012931079134493898 0.0 -0.002786285127043411 0.0 0.0
-0.02265913476585186 0.019710440473183457 0.0 -0.004010843258077701 0.0 0.0
-0.031137141279650102 0.027922985224129337 0.0 -0.005321505091956579 0.0 0.0
-0.04096285217203862 0.037467134434386 0.0 -0.006611390589625664 0.0 0.0
-0.0520959264264947 0.048307435601904994 0.0 -0.007889836019455665 0.0 0.0
-0.064526925953662 0.06045439672527507 0.0 -0.00926057575969286 0.0 0.0
-0.07817120673278709 0.07385182512064918 0.0 -0.01072212188496968 0.0 0.0
-0.09274690148169788 0.08825042581232488 0.0 -0.012052408303386636 0.0 0.0
-0.10754764345207646 0.10299918486271203 0.0 -0.012960630141575632 0.0 0.0
-0.12074905325794807 0.11649873375330391 0.0 -0.014265227562149702 0.0 0.0
-0.12819454333225125 0.1250880906810262 0.0 -0.02021028539402897 0.0 0.0
-0.12326482418218582 0.12196113980473963 0.0 -0.037364214781955306 0.0 0.0
-0.11676028886072194 0.09843949877576111 0.0 1.1501216645726231e-14 0.0 0.0
-0.1232648241821656 0.12196113980471854 0.0 0.03736421478198437 0.0 0.0
-0.12819454333221228 0.12508809068098303 0.0 0.0202102853940578 0.0 0.0
-0.12074905325789437 0.11649873375324837 0.0 0.01426522756216312 0.0 0.0
-0.1075476434520126 0.10299918486264888 0.0 0.012960630141578857 0.0 0.0
-0.09274690148162881 0.08825042581225773 0.0 0.012052408303386046 0.0 0.0
-0.07817120673271616 0.07385182512058074 0.0 0.010722121884966719 0.0 0.0
-0.06452692595359015 0.060454396725204584 0.0 0.009260575759685323 0.0 0.0
-0.05209592642642371 0.048307435601833475 0.0 0.007889836019448778 0.0 0.0
-0.040962852171972194 0.0374671344343212 0.0 0.006611390589615976 0.0 0.0
-0.03113714127959178 0.027922985224073854 0.0 0.0053215050919433685 0.0 0.0
-0.022659134765804424 0.0197104404731369 0.0 0.0040108432580663374 0.0 0.0
-0.01562159052519958 0.01293107913445927 0.0 0.0027862851270371103 0.0 0.0
-0.010113375767306516 0.007703744165951477 0.0 0.0017700806061420348 0.0 0.0
-0.0061281062691252355 0.004050247882258977 0.0 0.0010406334930300417 0.0 0.0
-0.0035475088182486585 0.0018626998472307628 0.0 0.0006289028187616547 0.0 0.0
-0.0021262116599506096 0.0009141274928140281 0.0 0.0006703003891970059 0.0 0.0
-0.0013732925180068634 0.0005873335784715064 0.0 0.0008633169469487916 0.0 0.0
-0.000802807215420911 0.0003383307524671921 0.0 0.0008713570600691203 0.0 0.0
-0.0003210405561282146 4.166605206184449e-05 0.0 0.0005874191399888025 0.0 0.0
-0.00011917629946884696 -1.4364723611533108e-05 0.0 0.00030077015085491857 0.0 0.0
-0.00011936946128447725 1.384099312932797e-05 0.0 -0.0001704351775677966 0.0 0.0
-0.00032760776445487413 7.844552411900771e-05 0.0 -0.00029422565441762465 0.0 0.0
-0.0008543371531748124 0.000361413868270551 0.0 -0.00042532120672204203 0.0 0.0
-0.0015176519149365682 0.0006336285139123456 0.0 -0.0004111253016386399 0.0 0.0
-0.0024503391418475066 0.0010714327059474316 0.0 -0.00025357138095334614 0.0 0.0
-0.004191524471122969 0.002363354972722838 0.0 -0.00022784015159257428 0.0 0.0
-0.00718027572454007 0.004991435060575581 0.0 -0.0004580060946504028 0.0 0.0
-0.011649075920718387 0.009126814105132892 0.0 -0.0008343719461922498 0.0 0.0
-0.01777503354580446 0.014962746969721753 0.0 -0.0013580245393644177 0.0 0.0
-0.02560697328525858 0.022516139714501407 0.0 -0.002004345347706535 0.0 0.0
-0.03508416720796823 0.03170654308691552 0.0 -0.002698701135004218 0.0 0.0
-0.04612255941108825 0.04244370917167502 0.0 -0.0033938002386190067 0.0 0.0
-0.058669456496581146 0.05467817135939433 0.0 -0.004127455329316193 0.0 0.0
-0.07265959282474567 0.06837065187219081 0.0 -0.004932200128032744 0.0 0.0
-0.08790804129085145 0.08337827766655422 0.0 -0.005786613942539398 0.0 0.0
-0.10395804107914779 0.09928260759212196 0.0 -0.006544439491197028 0.0 0.0
-0.11994057333110433 0.11523022035876862 0.0 -0.00686023010941318 0.0 0.0
-0.13439040610930536 0.12974494511870133 0.0 -0.00673182588660293 0.0 0.0
-0.14412474236527417 0.14009694781416637 0.0 -0.009353106411154636 0.0 0.0
-0.1414127222942914 0.1402964337919834 0.0 -0.027235480275230692 0.0 0.0
-0.13557900817455681 0.11750473394494781 0.0 6.555520015716354e-15 0.0 0.0
-0.14141272229426802 0.14029643379196113 0.0 0.027235480275248098 0.0 0.0
-0.1441247423652299 0.1400969478141236 0.0 0.009353106411170847 0.0 0.0
-0.13439040610924397 0.1297449451186394 0.0 0.006731825886610114 0.0 0.0
-0.11994057333103224 0.1152302203586961 0.0 0.00686023010941476 0.0 0.0
-0.1039580410790705 0.09928260759203945 0.0 0.00654443949119562 0.0 0.0
-0.08790804129077216 0.08337827766647776 0.0 0.0057866139425377765 0.0 0.0
-0.07265959282466586 0.06837065187211334 0.0 0.004932200128029274 0.0 0.0
-0.058669456496501994 0.054678171359318545 0.0 0.004127455329309858 0.0 0.0
-0.04612255941101442 0.04244370917159996 0.0 0.003393800238614371 0.0 0.0
-0.03508416720790433 0.03170654308685458 0.0 0.0026987011349965885 0.0 0.0
-0.02560697328520614 0.022516139714450517 0.0 0.002004345347698831 0.0 0.0
-0.017775033545763694 0.014962746969682354 0.0 0.001358024539362657 0.0 0.0
-0.011649075920688876 0.00912681410510247 0.0 0.0008343719461893434 0.0 0.0
-0.00718027572452103 0.004991435060556808 0.0 0.0004580060946479353 0.0 0.0
-0.00419152447111294 0.002363354972715424 0.0 0.00022784015159218256 0.0 0.0
-0.002450339141843838 0.001071432705946709 0.0 0.00025357138095361513 0.0 0.0
-0.001517651914935578 0.000633628513913051 0.0 0.0004111253016384935 0.0 0.0
-0.0008543371531741299 0.00036141386827020236 0.0 0.0004253212067217646 0.0 0.0
-0.0003276077644543931 7.84455241185105e-05 0.0 0.00029422565441718744 0.0 0.0
-0.00011936946128408276 1.3840993129363567e-05 0.0 0.0001704351775662671 0.0 0.0
-7.861564739083764e-05 1.5107007524333027e-05 0.0 -0.00010578398043122473 0.0 0.0
-0.0002929735606247936 9.051350605953283e-05 0.0 -0.00012218542158337766 0.0 0.0
-0.000887393228079587 0.00036988067884425354 0.0 -0.0001435731345666814 0.0 0.0
-0.0016886365166676365 0.0006596563142887563 0.0 -0.00011002579076736723 0.0 0.0
-0.002832278304682888 0.0011659649633047576 0.0 9.733545500960014e-05 0.0 0.0
-0.004882912235455321 0.002634075786642046 0.0 0.00028074009242371975 0.0 0.0
-0.008248192503762991 0.005471868903051069 0.0 0.0003574565771643994 0.0 0.0
-0.013171195101690602 0.00984084951272614 0.0 0.00038559536207999367 0.0 0.0
-0.019884666777074796 0.015972783719217145 0.0 0.0003693062015316078 0.0 0.0
-0.02848896312294796 0.023907976674242402 0.0 0.0002797879135896424 0.0 0.0
-0.03895909329765744 0.03358511290203802 0.0 0.0001603595763276849 0.0 0.0
-0.05121886413520563 0.04492178578428932 0.0 1.0893153822958378e-05 0.0 0.0
-0.06517243151720334 0.057854728297914264 0.0 -0.00021746706666250695 0.0 0.0
-0.08069905608467143 0.07231413482707216 0.0 -0.0004956660575273619 0.0 0.0
-0.09753191188528917 0.08812130753541654 0.0 -0.0008706672367762257 0.0 0.0
-0.1150439330347724 0.10477163585768627 0.0 -0.0012946684447117766 0.0 0.0
-0.1320978521357103 0.12127893574471431 0.0 -0.00157878495945845 0.0 0.0
-0.14707869429273332 0.13614519990341492 0.0 -0.0014470886162415483 0.0 0.0
-0.15816973723897376 0.14717545936353948 0.0 -0.0024791060215728095 0.0 0.0
-0.16085362248538587 0.14976113649243686 0.0 -0.020025072648987223 0.0 0.0
-0.15919197171604385 0.1281508127310725 0.0 1.8041124150158794e-15 0.0 0.0
-0.1608536224853598 0.1497611364924131 0.0 0.02002507264899364 0.0 0.0
-0.1581697372389232 0.14717545936349663 0.0 0.002479106021578522 0.0 0.0
-0.1470786942926628 0.1361451999033481 0.0 0.0014470886162429673 0.0 0.0
-0.1320978521356293 0.12127893574463104 0.0 0.0015787849594591698 0.0 0.0
-0.11504393303468705 0.10477163585759217 0.0 0.0012946684447128019 0.0 0.0
-0.09753191188520119 0.08812130753533913 0.0 0.0008706672367750686 0.0 0.0
-0.0806990560845832 0.07231413482699388 0.0 0.0004956660575275128 0.0 0.0
-0.06517243151711619 0.05785472829783489 0.0 0.00021746706665927082 0.0 0.0
-0.05121886413512407 0.044921785784213616 0.0 -1.0893153825212651e-05 0.0 0.0
-0.03895909329758792 0.03358511290197213 0.0 -0.0001603595763297848 0.0 0.0
-0.028488963122891134 0.023907976674189802 0.0 -0.00027978791359243704 0.0 0.0
-0.019884666777030043 0.01597278371917481 0.0 -0.0003693062015309918 0.0 0.0
-0.013171195101658097 0.009840849512693175 0.0 -0.0003855953620790799 0.0 0.0
-0.008248192503741487 0.0054718689030281336 0.0 -0.0003574565771640552 0.0 0.0
-0.004882912235443532 0.002634075786634442 0.0 -0.000280740092422191 0.0 0.0
-0.002832278304677938 0.00116596496330361 0.0 -9.73354550084794e-05 0.0 0.0
-0.0016886365166659924 0.0006596563142899914 0.0 0.00011002579076791245 0.0 0.0
-0.0008873932280789459 0.00036988067884341405 0.0 0.0001435731345662279 0.0 0.0
-0.00029297356062456676 9.05135060591586e-05 0.0 0.00012218542158293354 0.0 0.0
-7.861564739091698e-05 1.5107007524410412e-05 0.0 0.00010578398042981915 0.0 0.0
SCALARS Statev float 8
LOOKUP_TABLE default
0.0 0.017492372742142468 0.013992291164825381 -0.016715530926443373 0.0027232397616179923 -0.0008609147447218129 0.0 0.0
0.0 0.0058542466765932446 0.00428532149359424 -0.0026153433253889077 -0.001669978168205334 -0.006598487411411307 0.0 0.0
0.0 8.524036905291055e-05 0.00013210054808406103 -8.243610644706093e-05 -4.966444163700015e-05 -0.00025046058191794865 0.0 0.0
0.0 0.00013488658317364584 5.07106649808204e-05 -3.634206163605192e-05 -1.4368603344768662e-05 1.749719393428815e-05 0.0 0.0
0.0 0.00084431309651936 0.0005337674937736439 -0.0003890900499726739 -0.00014467744380097002 0.00011535845401488613 0.0 0.0
0.0 0.002156778793281332 0.0021559686630695106 -0.0016944443382677181 -0.0004615243248017943 0.00024282966355311473 0.0 0.0
0.0 0.005548427613545096 0.005104154340454478 -0.004327821318161856 -0.0007763330222926154 0.00034274131762137633 0.0 0.0
0.0 0.010683650248955814 0.00967840950833877 -0.0086462405421514 -0.0010321689661873757 0.0003923315901426591 0.0 0.0
0.0 0.017924526278718385 0.016047104005777933 -0.01479768404090084 -0.0012494199648770744 0.00039415963821426165 0.0 0.0
0.0 0.02738604638275943 0.024286030858295147 -0.02280671746797563 -0.0014793133903195528 0.0003275245967760046 0.0 0.0
0.0 0.03902619148195213 0.034369275263441745 -0.032623380842561084 -0.001745894420880602 0.00022762149733793864 0.0 0.0
0.0 0.05243770527190829 0.046231911882318975 -0.04417821573690222 -0.0020536961454167605 9.018054953004444e-05 0.0 0.0
0.0 0.0678823675371994 0.05978940715721275 -0.057396064448329474 -0.002393342708883255 -0.00012929547848849836 0.0 0.0
0.0 0.08519951050148314 0.07495486785570202 -0.07220191998928006 -0.002752947866421834 -0.00037927117631335046 0.0 0.0
0.0 0.10420591651577493 0.09156447134002135 -0.08844943608080821 -0.003115035259213069 -0.0007015113617225117 0.0 0.0
0.0 0.12448704267287508 0.10921947610151611 -0.10575883701091685 -0.003460639090599251 -0.001095928600922458 0.0 0.0
0.0 0.14514589132817726 0.12717244666111543 -0.12340102456795717 -0.0037714220931583256 -0.001492194535254243 0.0 0.0
0.0 0.16488415994379846 0.1443081911623684 -0.14027964844374116 -0.0040285427186271755 -0.0017394524473973308 0.0 0.0
0.0 0.1820923528115991 0.1592415726079393 -0.15501688644233302 -0.004224686165606104 -0.0016605116807584365 0.0 0.0
0.0 0.19466656163229518 0.17034113413570012 -0.1660048397124369 -0.0043362944232633776 -0.001769074240683038 0.0 0.0
0.0 0.1998507259789762 0.17476560358237608 -0.17044495789473652 -0.004320645687639609 2.463307335887066e-15 0.0 0.0
0.0 0.19466656163227233 0.17034113413567978 -0.16600483971241764 -0.004336294423262037 0.0017690742406904682 0.0 0.0
0.0 0.18209235281154806 0.15924157260789407 -0.15501688644228973 -0.0042246861656044295 0.001660511680765123 0.0 0.0
0.0 0.1648841599437225 0.14430819116230215 -0.14027964844367602 -0.004028542718626232 0.0017394524474010492 0.0 0.0
0.0 0.14514589132808636 0.12717244666103636 -0.12340102456787977 -0.003771422093156694 0.0014921945352538227 0.0 0.0
0.0 0.12448704267278082 0.10921947610143327 -0.10575883701083595 -0.003460639090597546 0.0010959286009189157 0.0 0.0
0.0 0.10420591651568285 0.09156447133994096 -0.08844943608072964 -0.0031150352592111082 0.0007015113617213379 0.0 0.0
0.0 0.08519951050139174 0.07495486785562216 -0.07220191998920206 -0.0027529478664201894 0.0003792711763101202 0.0 0.0
0.0 0.06788236753710716 0.05978940715713233 -0.057396064448250766 -0.0023933427088814983 0.00012929547848686013 0.0 0.0
0.0 0.052437705271823544 0.04623191188224463 -0.04417821573682962 -0.002053696145414978 -9.018054953139005e-05 0.0 0.0
0.0 0.03902619148188274 0.03436927526338078 -0.032623380842502006 -0.0017458944208787498 -0.00022762149733984737 0.0 0.0
0.0 0.027386046382700285 0.02428603085824328 -0.022806717467925453 -0.0014793133903178387 -0.0003275245967778568 0.0 0.0
0.0 0.0179245262786748 0.016047104005739405 -0.014797684040863467 -0.0012494199648759158 -0.0003941596382145068 0.0 0.0
0.0 0.01068365024892676 0.009678409508312374 -0.00864624054212639 -0.0010321689661859847 -0.0003923315901422686 0.0 0.0
0.0 0.005548427613526759 0.0051041543404370966 -0.0043278213181459566 -0.0007763330222911366 -0.00034274131762117126 0.0 0.0
0.0 0.002156778793272089 0.0021559686630601015 -0.0016944443382598266 -0.00046152432480027445 -0.0002428296635523053 0.0 0.0
0.0 0.0008443130965152983 0.0005337674937708651 -0.00038909004997065156 -0.00014467744380021236 -0.0001153584540143789 0.0 0.0
0.0 0.0001348865831724891 5.071066498053008e-05 -3.634206163585384e-05 -1.4368603344675694e-05 -1.7497193934143174e-05 0.0 0.0
0.0 8.524036905211494e-05 0.00013210054808349844 -8.24361064466794e-05 -4.9664441636818544e-05 0.00025046058191691763 0.0 0.0
0.0 0.005854246676583558 0.0042853214935892805 -0.0026153433253853697 -0.001669978168203907 0.006598487411401827 0.0 0.0
0.0 0.01749237274212186 0.01399229116481145 -0.016715530926424155 0.0027232397616126966 0.000860914744684758 0.0 0.0
0.0 0.014219418636460004 0.010626058815511765 -0.013785799531631759 0.0031597407161199813 -0.00038373757561862177 0.0 0.0
0.0 0.0035474850856013398 0.002541986395080012 -0.001525471550186838 -0.0010165148448931698 -0.005134944587409952 0.0 0.0
0.0 -6.452109255209972e-05 -6.408844494103648e-05 5.609980542612732e-05 7.988639514909169e-06 -6.149972860373521e-05 0.0 0.0
0.0 2.396487025005259e-05 1.5477485264488885e-05 -1.1166895416875094e-05 -4.310589847613814e-06 8.199546426907612e-06 0.0 0.0
0.0 0.00044220860392650085 0.0003345310858690938 -0.0002457762525212111 -8.875483334788215e-05 4.711621526648036e-05 0.0 0.0
0.0 0.0018925225413323565 0.001628146889563237 -0.0012917219224419761 -0.00033642496712126213 5.3455986926926206e-05 0.0 0.0
0.0 0.004683657843497975 0.004303615001823475 -0.0036909162354139694 -0.0006126987664095014 -0.00016632685652034085 0.0 0.0
0.0 0.009446323441892161 0.008492650480052375 -0.007689422769547915 -0.0008032277105044645 -0.0005360348799304531 0.0 0.0
0.0 0.016201310603571977 0.014366935717652093 -0.01344195921648575 -0.0009249765011663363 -0.001053830418542326 0.0 0.0
0.0 0.02495240051868601 0.02196176828276164 -0.020936758817120982 -0.0010250094656406492 -0.001691068833644205 0.0 0.0
0.0 0.03566140004724436 0.03121983645918944 -0.03009643716201338 -0.0011233992971761092 -0.002385760726625412 0.0 0.0
0.0 0.04834038151171461 0.04206510717478407 -0.04083986590441902 -0.0012252412703650276 -0.0030949576931287386 0.0 0.0
0.0 0.06235126898954775 0.054456049994475716 -0.053125649807543536 -0.0013304001869321196 -0.0038477670631693545 0.0 0.0
0.0 0.07837156130683198 0.06833662027091165 -0.06690475005413395 -0.0014318702167777225 -0.0046548097012503505 0.0 0.0
0.0 0.09594522863924547 0.08357017640358073 -0.08205163718972032 -0.0015185392138602882 -0.00549816250500364 0.0 0.0
0.0 0.11470166380449086 0.09980545631339979 -0.09822454883928265 -0.0015809074741172059 -0.006316903558451871 0.0 0.0
0.0 0.13389260206860673 0.11637096189541135 -0.1147579417878006 -0.0016130201076105745 -0.006914510135470756 0.0 0.0
0.0 0.15234172453732941 0.13225529593338467 -0.1306394664555191 -0.001615829477865624 -0.006973298094484382 0.0 0.0
0.0 0.1684539830373156 0.14612631015301084 -0.1445395281547961 -0.001586781998214734 -0.006251082151253855 0.0 0.0
0.0 0.18020529582502404 0.15617986565284603 -0.1547041307788867 -0.0014757348739592735 -0.005133068026971482 0.0 0.0
0.0 0.1851679003745491 0.16008838358957894 -0.15878616918374122 -0.0013022144058377394 6.540341185301557e-15 0.0 0.0
0.0 0.1802052958250019 0.1561798656528261 -0.15470413077886744 -0.00147573487395852 0.005133068026988747 0.0 0.0
0.0 0.1684539830372697 0.14612631015297078 -0.14453952815475657 -0.001586781998214107 0.006251082151271895 0.0 0.0
0.0 0.15234172453726172 0.13225529593332633 -0.13063946645546076 -0.0016158294778655044 0.006973298094493988 0.0 0.0
0.0 0.13389260206852485 0.1163709618953408 -0.11475794178773034 -0.0016130201076104825 0.006914510135472093 0.0 0.0
0.0 0.1147016638044044 0.09980545631332499 -0.09822454883920781 -0.0015809074741169576 0.006316903558447022 0.0 0.0
0.0 0.09594522863916283 0.08357017640350853 -0.08205163718964939 -0.0015185392138592421 0.005498162505001378 0.0 0.0
0.0 0.078371561306745 0.06833662027083631 -0.066904750054059 -0.0014318702167772238 0.004654809701246308 0.0 0.0
0.0 0.06235126898946223 0.054456049994401845 -0.053125649807469984 -0.0013304001869319057 0.0038477670631654826 0.0 0.0
0.0 0.048340381511635916 0.042065107174715614 -0.04083986590435083 -0.0012252412703647629 0.003094957693123483 0.0 0.0
0.0 0.03566140004717832 0.03121983645913214 -0.03009643716195681 -0.0011233992971753518 0.0023857607266185793 0.0 0.0
0.0 0.02495240051863272 0.021961768282714695 -0.02093675881707466 -0.0010250094656400173 0.0016910688336391993 0.0 0.0
0.0 0.016201310603531575 0.014366935717616098 -0.013441959216450453 -0.0009249765011656488 0.0010538304185391078 0.0 0.0
0.0 0.009446323441865362 0.008492650480028141 -0.007689422769524579 -0.0008032277105035734 0.0005360348799279751 0.0 0.0
0.0 0.004683657843480281 0.004303615001807099 -0.0036909162353988114 -0.0006126987664082853 0.00016632685651865107 0.0 0.0
0.0 0.0018925225413236918 0.0016281468895556449 -0.0012917219224356023 -0.0003364249671200418 -5.345598692707917e-05 0.0 0.0
0.0 0.00044220860392390733 0.0003345310858674849 -0.00024577625252005 -8.875483334743519e-05 -4.711621526611814e-05 0.0 0.0
0.0 2.396487024948172e-05 1.5477485264614876e-05 -1.1166895416976989e-05 -4.310589847637699e-06 -8.199546426870701e-06 0.0 0.0
0.0 -6.452109255194196e-05 -6.408844494083834e-05 5.609980542594414e-05 7.988639514894056e-06 6.149972860350269e-05 0.0 0.0
0.0 0.003547485085591491 0.002541986395074699 -0.0015254715501831447 -0.001016514844891556 0.00513494458739892 0.0 0.0
0.0 0.014219418636437832 0.010626058815494789 -0.013785799531610356 0.0031597407161155604 0.0003837375755911085 0.0 0.0
0.0 0.010539932560210805 0.007707656140663026 -0.010281881295570353 0.0025742251549073234 -0.002735111142994868 0.0 0.0
0.0 0.002466863229962082 0.0015650514283993965 -0.0008415520266620302 -0.0007234994017373676 -0.0042184927040108434 0.0 0.0
0.0 1.0856827304318177e-07 6.935199884136351e-08 -5.944352493154979e-08 -9.908473909813842e-09 4.889454315076313e-08 0.0 0.0
0.0 -3.665280425460159e-06 -5.100987615423631e-06 4.003603011225395e-06 1.0973846041981089e-06 2.6549021887786627e-06 0.0 0.0
0.0 0.00017641215307543954 0.00014189061520409585 -0.00010121417941871708 -4.067643578537918e-05 1.5082214280220662e-05 0.0 0.0
0.0 0.0013254475441043614 0.0010827172229516731 -0.0008366560460960541 -0.00024606117685561815 -5.482143453157296e-05 0.0 0.0
0.0 0.003584225129432242 0.003357722603768527 -0.002819835720961704 -0.0005378868828068222 -0.0004893216022208529 0.0 0.0
0.0 0.00784513877118304 0.007060698433334069 -0.006311808214237754 -0.0007488902190963113 -0.0012137667745974647 0.0 0.0
0.0 0.013872875769115944 0.01231908396882453 -0.011439974180994036 -0.0008791097878304965 -0.0022136981343918475 0.0 0.0
0.0 0.02178142280851911 0.01912270690535181 -0.018147318888136157 -0.0009753880172156537 -0.0034233469549043117 0.0 0.0
0.0 0.031385654385662515 0.02738505478644481 -0.026317800204821367 -0.001067254581623411 -0.00473662182386494 0.0 0.0
0.0 0.04247259882566707 0.03702339656839612 -0.03586046636333836 -0.0011629302050577388 -0.006055310452379761 0.0 0.0
0.0 0.055354335429517974 0.04800497871257118 -0.0467433122332685 -0.0012616664793026861 -0.007376910857166242 0.0 0.0
0.0 0.06932914448420638 0.060330623401294914 -0.058974012619658525 -0.0013566107816363059 -0.008780147300198219 0.0 0.0
0.0 0.08501939391501105 0.07389895752132926 -0.07246048499835908 -0.0014384725229702722 -0.01025939213940792 0.0 0.0
0.0 0.10181021097817537 0.08842169386333935 -0.08692315372983646 -0.0014985401335027848 -0.011666877128772542 0.0 0.0
0.0 0.11906888340741988 0.10333802075685003 -0.10180542581270668 -0.0015325949441434492 -0.012672085795592418 0.0 0.0
0.0 0.13575130876220998 0.11775611984897223 -0.11621965072450363 -0.0015364691244685344 -0.012787147313109976 0.0 0.0
0.0 0.15039456311238392 0.13038294792064908 -0.12888862349413951 -0.0014943244265095258 -0.011631151827181795 0.0 0.0
0.0 0.1610353460669039 0.13951986032151562 -0.13809687536595616 -0.0014229849555593113 -0.009129507545972396 0.0 0.0
0.0 0.16571689153449146 0.14317534829029813 -0.14196187404978947 -0.001213474240508687 1.2446640940133591e-14 0.0 0.0
0.0 0.1610353460668837 0.1395198603214967 -0.13809687536593768 -0.00142298495555902 0.009129507546003274 0.0 0.0
0.0 0.15039456311234176 0.13038294792061217 -0.12888862349410277 -0.0014943244265095677 0.011631151827212922 0.0 0.0
0.0 0.1357513087621519 0.11775611984892154 -0.11621965072445341 -0.0015364691244679864 0.012787147313129146 0.0 0.0
0.0 0.11906888340734854 0.103338020756789 -0.10180542581264566 -0.0015325949441433256 0.012672085795595096 0.0 0.0
0.0 0.10181021097809989 0.08842169386327382 -0.08692315372977123 -0.0014985401335025955 0.011666877128766276 0.0 0.0
0.0 0.08501939391493722 0.07389895752126487 -0.07246048499829597 -0.0014384725229689475 0.010259392139404588 0.0 0.0
0.0 0.069329144484127 0.060330623401226066 -0.05897401261959 -0.0013566107816360418 0.008780147300192997 0.0 0.0
0.0 0.05535433542944492 0.04800497871250794 -0.04674331223320569 -0.0012616664793022342 0.00737691085715974 0.0 0.0
0.0 0.04247259882559769 0.03702339656833638 -0.035860466363278685 -0.0011629302050576312 0.0060553104523702 0.0 0.0
0.0 0.03138565438560243 0.02738505478639233 -0.02631780020476928 -0.0010672545816230654 0.004736621823853966 0.0 0.0
0.0 0.02178142280847368 0.01912270690531172 -0.018147318888096568 -0.0009753880172151399 0.0034233469548955843 0.0 0.0
0.0 0.013872875769079368 0.012319083968792213 -0.011439974180962398 -0.0008791097878298276 0.002213698134385547 0.0 0.0
0.0 0.007845138771158212 0.0070606984333121325 -0.006311808214216654 -0.000748890219095471 0.0012137667745926188 0.0 0.0
0.0 0.003584225129417867 0.0033577226037551267 -0.00281983572094952 -0.0005378868828056077 0.0004893216022178463 0.0 0.0
0.0 0.0013254475440975368 0.0010827172229459436 -0.0008366560460914677 -0.0002460611768544755 5.4821434530978835e-05 0.0 0.0
0.0 0.00017641215307392488 0.0001418906152034287 -0.00010121417941827036 -4.067643578515838e-05 -1.5082214279999061e-05 0.0 0.0
0.0 -3.6652804253715564e-06 -5.1009876150486184e-06 4.0036030109477754e-06 1.0973846041008688e-06 -2.65490218868524e-06 0.0 0.0
0.0 1.085682730313156e-07 6.935199885317994e-08 -5.944352494134217e-08 -9.908473911837491e-09 -4.889454315811741e-08 0.0 0.0
0.0 0.002466863229954252 0.0015650514283946748 -0.0008415520266588799 -0.0007234994017357925 0.004218492703998625 0.0 0.0
0.0 0.010539932560188696 0.00770765614064664 -0.010281881295549506 0.002574225154902865 0.002735111142976677 0.0 0.0
0.0 0.007947565282474171 0.005656848229122805 -0.0077078591946069626 0.0020510109654841456 -0.002985487709579758 0.0 0.0
0.0 0.0017578661178853856 0.001045655548232795 -0.0005458007689565419 -0.0004998547792762506 -0.0031448995467885095 0.0 0.0
0.0 0.0 0.0 0.0 0.0 0.0 0.0 0.0
0.0 -4.821830150763735e-08 -5.09308232059541e-07 4.1468073506312055e-07 9.462749699641731e-08 3.9353645823161817e-07 0.0 0.0
0.0 4.929539031153306e-05 2.6885739050461594e-05 -1.725280149525831e-05 -9.632937555203006e-06 1.2850333846835595e-05 0.0 0.0
0.0 0.0007496292325418828 0.0006496360362158757 -0.0004893937028842335 -0.00016024233333164113 -0.000108983315605565 0.0 0.0
0.0 0.0027834187783377837 0.0024429756442742078 -0.0020005734145728447 -0.00044240222970136453 -0.0006038308742519071 0.0 0.0
0.0 0.006288210239007271 0.005648376313851256 -0.004967909905732638 -0.000680466408118619 -0.0016318515259400122 0.0 0.0
0.0 0.011617010736623983 0.01026555406485318 -0.009440315917585977 -0.0008252381472672001 -0.0030036374348061017 0.0 0.0
0.0 0.0186106842975221 0.016259566131731584 -0.015338297958343522 -0.0009212681733880576 -0.004655063405365603 0.0 0.0
0.0 0.027028977709964055 0.023518768656565117 -0.022511947792635673 -0.001006820863929423 -0.006436794116981938 0.0 0.0
0.0 0.03689207145092178 0.031948828352665694 -0.03085330838349346 -0.0010955199691722118 -0.008219093418794789 0.0 0.0
0.0 0.047870174303909115 0.04153267753644637 -0.04034441800610794 -0.0011882595303384952 -0.009993936114677892 0.0 0.0
0.0 0.06056374863140628 0.052283978366476094 -0.05100787061684177 -0.001276107749634305 -0.011839408222320186 0.0 0.0
0.0 0.07422321708274156 0.0641660439012146 -0.06281349090611849 -0.001352552995096064 -0.01377363491619748 0.0 0.0
0.0 0.08885630735040684 0.0769654669978019 -0.0755531821651644 -0.001412284832637458 -0.015632528829438462 0.0 0.0
0.0 0.10427899535180052 0.09022655652584091 -0.08877832092422347 -0.001448235601617375 -0.017002544973943445 0.0 0.0
0.0 0.11926681976637554 0.10318127358199568 -0.10172922616580536 -0.001452047416190306 -0.017291978031431073 0.0 0.0
0.0 0.13251666453532074 0.11465727011952169 -0.11323911857684457 -0.0014181515426770932 -0.015882812049564037 0.0 0.0
0.0 0.14229830317814748 0.12315696794446339 -0.12178959520601784 -0.0013673727384457255 -0.012016667388652112 0.0 0.0
0.0 0.146967698300433 0.12676005401698237 -0.1256864688857848 -0.0010735851311975786 1.7779180905286296e-14 0.0 0.0
0.0 0.14229830317812758 0.1231569679444447 -0.12178959520599834 -0.0013673727384463108 0.01201666738869377 0.0 0.0
0.0 0.13251666453528063 0.11465727011948613 -0.11323911857680864 -0.001418151542677468 0.015882812049603175 0.0 0.0
0.0 0.11926681976632418 0.10318127358195063 -0.10172922616576034 -0.0014520474161902651 0.017291978031455407 0.0 0.0
0.0 0.10427899535173765 0.09022655652578693 -0.0887783209241696 -0.0014482356016173163 0.01700254497394624 0.0 0.0
0.0 0.08885630735033859 0.07696546699774304 -0.0755531821651054 -0.0014122848326375925 0.015632528829431287 0.0 0.0
0.0 0.07422321708267442 0.06416604390115592 -0.06281349090606088 -0.0013525529950950599 0.013773634916191893 0.0 0.0
0.0 0.0605637486313364 0.05228397836641569 -0.05100787061678118 -0.0012761077496345355 0.011839408222313127 0.0 0.0
0.0 0.04787017430384347 0.04153267753638983 -0.040344418006052124 -0.0011882595303376953 0.009993936114667677 0.0 0.0
0.0 0.036892071450864566 0.031948828352615706 -0.030853308383444272 -0.0010955199691714572 0.008219093418781662 0.0 0.0
0.0 0.027028977709911476 0.023518768656519497 -0.022511947792590522 -0.0010068208639289532 0.006436794116968391 0.0 0.0
0.0 0.01861068429748138 0.01625956613169604 -0.015338297958308777 -0.0009212681733872528 0.004655063405352952 0.0 0.0
0.0 0.011617010736591953 0.010265554064825315 -0.009440315917558617 -0.0008252381472666894 0.0030036374347975773 0.0 0.0
0.0 0.006288210238986769 0.005648376313832503 -0.004967909905714845 -0.0006804664081176547 0.0016318515259335286 0.0 0.0
0.0 0.002783418778326082 0.002442975644264452 -0.002000573414564335 -0.0004424022297001167 0.0006038308742487439 0.0 0.0
0.0 0.0007496292325368648 0.0006496360362121158 -0.0004893937028813103 -0.0001602423333308056 0.00010898331560479888 0.0 0.0
0.0 4.9295390310615745e-05 2.6885739050297605e-05 -1.7252801495166236e-05 -9.63293755513138e-06 -1.2850333846658265e-05 0.0 0.0
0.0 -4.8218301960285205e-08 -5.093082321378844e-07 4.146807351234689e-07 9.462749701443664e-08 -3.9353645826057495e-07 0.0 0.0
0.0 0.0 0.0 0.0 0.0 0.0 0.0 0.0
0.0 0.0017578661178780895 0.001045655548228572 -0.0005458007689537023 -0.0004998547792748715 0.0031448995467773756 0.0 0.0
0.0 0.007947565282455446 0.005656848229108193 -0.007707859194588191 0.00205101096548 0.0029854877095665767 0.0 0.0
0.0 0.005782258956356918 0.0040950614898895114 -0.005680025708868936 0.0015849642189794263 -0.0025735169661210283 0.0 0.0
0.0 0.0014018175170501374 0.0006687534445777572 -0.00033704359351134064 -0.0003317098510664161 -0.002210388831179389 0.0 0.0
0.0 0.0 0.0 0.0 0.0 0.0 0.0 0.0
0.0 -3.974296375109735e-07 3.235698210176588e-08 -2.4447041730322094e-08 -7.90994037144244e-09 -2.1896561489439638e-08 0.0 0.0
0.0 -1.843423010159088e-05 -8.29639077910256e-06 7.412687217893023e-06 8.837035612095375e-07 1.401111519309406e-05 0.0 0.0
0.0 0.00039204029220447244 0.0003065864586269989 -0.00022512726222815183 -8.145919639884701e-05 -8.191114017080058e-05 0.0 0.0
0.0 0.002004872530339632 0.0016307562738849788 -0.0012994458052497304 -0.0003313104686352469 -0.0006009414959732722 0.0 0.0
0.0 0.004807842935162988 0.004277591823085806 -0.0036818729080793267 -0.0005957189150064862 -0.0017498688401478796 0.0 0.0
0.0 0.009400205664937347 0.00823183083063083 -0.007471915842966036 -0.0007599149876647936 -0.0034158740546203228 0.0 0.0
0.0 0.015438952496417942 0.013398940790019385 -0.0125387709435053 -0.0008601698465140824 -0.005379315612353896 0.0 0.0
0.0 0.022763861221151413 0.019646262248687693 -0.018705104283119566 -0.0009411579655681337 -0.007487272837214661 0.0 0.0
0.0 0.031237607447047615 0.02686966119795846 -0.025846968600813792 -0.0010226925971446746 -0.009588107396164185 0.0 0.0
0.0 0.04088731613002014 0.03505118014219809 -0.03394318291987299 -0.0011079972223250391 -0.011673831812377158 0.0 0.0
0.0 0.051372982054894725 0.044238008036398296 -0.04304748468217458 -0.0011905233542237096 -0.013829823548933477 0.0 0.0
0.0 0.06332088967927026 0.0544202586160886 -0.05315841236412147 -0.001261846251967134 -0.016064031653892818 0.0 0.0
0.0 0.0762389512788581 0.06546517539052324 -0.064146866250949 -0.0013183091395741935 -0.018202000562381727 0.0 0.0
0.0 0.08950012947432084 0.07704134766664064 -0.07568432364082676 -0.0013570240258139034 -0.01985674737048976 0.0 0.0
0.0 0.10275166754359319 0.08852417201065256 -0.08715566980210063 -0.0013685022085520168 -0.02040303247370806 0.0 0.0
0.0 0.11473005106690516 0.09893185370990833 -0.09758600002068732 -0.0013458536892209114 -0.018911448883074403 0.0 0.0
0.0 0.1239186476076907 0.10697126303252355 -0.10566785777667007 -0.0013034052558533616 -0.01418134767830312 0.0 0.0
0.0 0.1287414739502022 0.11063707691629013 -0.10973126701166068 -0.0009058099046294429 2.121263234511339e-14 0.0 0.0
0.0 0.12391864760767257 0.10697126303250602 -0.10566785777665182 -0.001303405255854137 0.014181347678349752 0.0 0.0
0.0 0.11473005106687276 0.09893185370987831 -0.09758600002065786 -0.0013458536892204062 0.018911448883118347 0.0 0.0
0.0 0.10275166754354771 0.08852417201061241 -0.08715566980206002 -0.0013685022085524372 0.02040303247373413 0.0 0.0
0.0 0.08950012947426739 0.0770413476665946 -0.07568432364078129 -0.001357024025813316 0.01985674737049322 0.0 0.0
0.0 0.07623895127879744 0.06546517539047109 -0.06414686625089636 -0.0013183091395746538 0.018202000562373512 0.0 0.0
0.0 0.0633208896792136 0.05442025861603921 -0.05315841236407296 -0.0012618462519662324 0.016064031653885313 0.0 0.0
0.0 0.05137298205483376 0.04423800803634576 -0.04304748468212173 -0.0011905233542240116 0.013829823548925403 0.0 0.0
0.0 0.040887316129963186 0.035051180142148884 -0.03394318291982403 -0.00110799722232481 0.011673831812365108 0.0 0.0
0.0 0.031237607446998168 0.026869661197915392 -0.025846968600771698 -0.0010226925971436726 0.00958810739614947 0.0 0.0
0.0 0.02276386122110746 0.019646262248650036 -0.018705104283082565 -0.0009411579655674734 0.007487272837198272 0.0 0.0
0.0 0.015438952496380045 0.013398940789986982 -0.012538770943473361 -0.0008601698465136175 0.005379315612338309 0.0 0.0
0.0 0.009400205664908649 0.008231830830605887 -0.007471915842941792 -0.0007599149876640908 0.0034158740546094903 0.0 0.0
0.0 0.004807842935146274 0.0042775918230709906 -0.003681872908065628 -0.000595718915005363 0.0017498688401411681 0.0 0.0
0.0 0.0020048725303290966 0.001630756273876606 -0.0012994458052426757 -0.00033131046863393285 0.0006009414959696113 0.0 0.0
0.0 0.000392040292200802 0.000306586458624544 -0.0002251272622263222 -8.145919639822118e-05 8.191114016999163e-05 0.0 0.0
0.0 -1.8434230101873255e-05 -8.296390778815235e-06 7.412687217666087e-06 8.837035611490941e-07 -1.4011115192631137e-05 0.0 0.0
0.0 -3.974296373618424e-07 3.235698202382572e-08 -2.444704167125556e-08 -7.909940352576622e-09 2.1896561388128363e-08 0.0 0.0
0.0 0.0 0.0 0.0 0.0 0.0 0.0 0.0
0.0 0.0014018175170433533 0.0006687534445744612 -0.0003370435935091343 -0.00033170985106532517 0.002210388831170282 0.0 0.0
0.0 0.0057822589563411115 0.004095061489877139 -0.005680025708852779 0.0015849642189756318 0.002573516966111584 0.0 0.0
0.0 0.00417634245776717 0.002854351806109486 -0.004022715277070698 0.0011683634709612118 -0.0020157325159922347 0.0 0.0
0.0 0.0008258266126032954 0.00040246969661691197 -0.00019342955506486043 -0.0002090401415520516 -0.0014682218575039936 0.0 0.0
0.0 0.0 0.0 0.0 0.0 0.0 0.0 0.0
0.0 -4.2563098566941136e-07 3.449264064699709e-08 -2.6353828155651344e-08 -8.138812491345782e-09 -6.912296019041676e-08 0.0 0.0
0.0 -1.2258581474194749e-05 -9.884966202021998e-06 7.878692972002722e-06 2.0062732300192868e-06 1.3837055674988714e-05 0.0 0.0
0.0 0.00011274480055207785 0.0001048899007445537 -7.442417311920223e-05 -3.0465727625351556e-05 -3.8573159948179326e-05 0.0 0.0
0.0 0.001109737257447011 0.0009811063759601894 -0.0007615000360248885 -0.00021960633993530209 -0.0005358459314711113 0.0 0.0
0.0 0.0036963928699191785 0.0029789405469725833 -0.0024969104871393243 -0.00048203005983325596 -0.0016211157719984287 0.0 0.0
0.0 0.007116429403991172 0.006244889899048556 -0.005567624537112243 -0.0006772653619363147 -0.0034216633123781695 0.0 0.0
0.0 0.012349199400069476 0.010566775695209215 -0.009778400797522274 -0.0007883748976869418 -0.005584942708572904 0.0 0.0
0.0 0.01851358760365563 0.015795430856877506 -0.014927580643904322 -0.0008678502129731792 -0.007877475432086816 0.0 0.0
0.0 0.02559797208459455 0.021813325645891803 -0.020870271101665432 -0.0009430545442263538 -0.010158853835226293 0.0 0.0
0.0 0.03357611309817763 0.028600486195795655 -0.0275791695244701 -0.0010213166713255804 -0.0124098570622504 0.0 0.0
0.0 0.04259154515332091 0.03621418788484698 -0.03511772434520239 -0.0010964635396445795 -0.014719175143024846 0.0 0.0
0.0 0.052464289647414564 0.04469622905475587 -0.043533041649712376 -0.001163187405043507 -0.017108611928334672 0.0 0.0
0.0 0.06314960959600797 0.05397379751374142 -0.05275629423466554 -0.0012175032790758798 -0.01939495674235626 0.0 0.0
0.0 0.07486882616678296 0.06380940383544811 -0.0625520423781064 -0.001257361457341672 -0.02121433222905703 0.0 0.0
0.0 0.08629606088440493 0.07377777048126283 -0.07249753887271791 -0.0012802316085449834 -0.021999982155450844 0.0 0.0
0.0 0.09685863044744056 0.08315018906295013 -0.08187776911806828 -0.00127241994488191 -0.020692442703036832 0.0 0.0
0.0 0.10563914018090893 0.09083808451486983 -0.08960432289275488 -0.0012337616221148916 -0.0157060457349461 0.0 0.0
0.0 0.11077266600792264 0.09465487189107272 -0.09394141602319783 -0.0007134558678748543 2.105867563662045e-14 0.0 0.0
0.0 0.10563914018089506 0.09083808451485481 -0.08960432289273981 -0.0012337616221151082 0.01570604573499235 0.0 0.0
0.0 0.09685863044741394 0.0831501890629244 -0.08187776911804256 -0.001272419944881863 0.020692442703082844 0.0 0.0
0.0 0.0862960608843684 0.07377777048123003 -0.07249753887268472 -0.0012802316085452348 0.021999982155478888 0.0 0.0
0.0 0.07486882616673746 0.0638094038354089 -0.06255204237806791 -0.0012573614573409759 0.02121433222906083 0.0 0.0
0.0 0.0631496095959578 0.05397379751369842 -0.052756294234622095 -0.0012175032790763037 0.019394956742347636 0.0 0.0
0.0 0.052464289647367914 0.044696229054715195 -0.043533041649672664 -0.0011631874050425277 0.017108611928325558 0.0 0.0
0.0 0.04259154515327466 0.03621418788480644 -0.03511772434516237 -0.0010964635396440994 0.014719175143017363 0.0 0.0
0.0 0.03357611309813072 0.028600486195755687 -0.027579169524430507 -0.0010213166713251636 0.012409857062238176 0.0 0.0
0.0 0.025597972084551668 0.021813325645855173 -0.020870271101629288 -0.0009430545442258887 0.010158853835210676 0.0 0.0
0.0 0.018513587603617657 0.01579543085684578 -0.014927580643873308 -0.0008678502129724783 0.007877475432068343 0.0 0.0
0.0 0.01234919940003776 0.010566775695182275 -0.009778400797495654 -0.0007883748976866095 0.005584942708556152 0.0 0.0
0.0 0.00711642940396897 0.00624488989902905 -0.005567624537093616 -0.0006772653619354374 0.0034216633123669007 0.0 0.0
0.0 0.0036963928699047218 0.002978940546961016 -0.002496910487128903 -0.0004820300598321134 0.0016211157719919838 0.0 0.0
0.0 0.0011097372574395306 0.0009811063759543417 -0.0007615000360201422 -0.00021960633993419943 0.0005358459314676291 0.0 0.0
0.0 0.00011274480055013857 0.00010488990074350263 -7.44241731184333e-05 -3.0465727625069267e-05 3.857315994774078e-05 0.0 0.0
0.0 -1.2258581474885183e-05 -9.884966201750896e-06 7.878692971791611e-06 2.0062732299592597e-06 -1.3837055674712851e-05 0.0 0.0
0.0 -4.256309855032739e-07 3.449264065015654e-08 -2.635382815799524e-08 -8.138812492158175e-09 6.91229601889362e-08 0.0 0.0
0.0 0.0 0.0 0.0 0.0 0.0 0.0 0.0
0.0 0.0008258266125980413 0.0004024696966145601 -0.00019342955506330658 -0.00020904014155125335 0.0014682218574970296 0.0 0.0
0.0 0.0041763424577549455 0.0028543518060999175 -0.004022715277057871 0.0011683634709579514 0.0020157325159856675 0.0 0.0
0.0 0.002727363406620647 0.00188082507270602 -0.002684800721129238 0.0008039756484232157 -0.0014932075190472196 0.0 0.0
0.0 0.0004915023784977076 0.00020309579421170945 -8.016973426313936e-05 -0.00012292605994856964 -0.0008681257422010945 0.0 0.0
0.0 4.5030000765742004e-07 -5.889399966331698e-09 5.402290337682763e-09 4.871096286490315e-10 9.028034844085993e-08 0.0 0.0
0.0 -3.9933846218285653e-07 2.3010864123224606e-08 -1.7665084308602554e-08 -5.345779814626124e-09 -7.114747973550936e-08 0.0 0.0
0.0 -3.4035075776045816e-06 -2.7446681316221655e-06 2.175726961401105e-06 5.689411702211055e-07 6.043716601384214e-06 0.0 0.0
0.0 -4.735090229461868e-06 -1.107296070558004e-06 3.3444257362591843e-06 -2.2371296657011418e-06 2.340046503245019e-05 0.0 0.0
0.0 0.0005863374785192151 0.0004675634908215359 -0.0003550707227301424 -0.00011249276809139334 -0.000371318218099086 0.0 0.0
0.0 0.002205110320739494 0.0018672455840533023 -0.0015197661968756482 -0.000347479387177654 -0.0013769308052884199 0.0 0.0
0.0 0.00547257523128899 0.004328846005562699 -0.003766459963734624 -0.0005623860418280727 -0.003033281130445804 0.0 0.0
0.0 0.009186745974771648 0.0077970711022155885 -0.007099355625187513 -0.0006977154770280793 -0.005241792361144532 0.0 0.0
0.0 0.014331784816534616 0.01199620983130657 -0.011213983442884901 -0.0007822263884216692 -0.007588350870310226 0.0 0.0
0.0 0.02006668447431194 0.016808064886242594 -0.015954782057622557 -0.0008532828286200408 -0.009914919959823375 0.0 0.0
0.0 0.026456349891104756 0.02220727388164773 -0.021282792105813342 -0.0009244817758343847 -0.012189347879189886 0.0 0.0
0.0 0.03361402327204478 0.028259626956623037 -0.027266632480077418 -0.0009929944765456388 -0.014500681342580542 0.0 0.0
0.0 0.041560167568896626 0.03503411969529752 -0.03398000530342337 -0.0010541143918741155 -0.016876562117057247 0.0 0.0
0.0 0.05060173912313015 0.04251895944086605 -0.04141502389726601 -0.001103935543600073 -0.019176516464318512 0.0 0.0
0.0 0.059661424632106955 0.05058161471750026 -0.049435060750054355 -0.001146553967445927 -0.02105144190548842 0.0 0.0
0.0 0.0695647843227789 0.058959073905253026 -0.057776062592041405 -0.0011830113132115549 -0.0220225499740923 0.0 0.0
0.0 0.07920317914326594 0.06724217423183301 -0.06604903309302025 -0.0011931411388127872 -0.02113441380570833 0.0 0.0
0.0 0.08747183773692432 0.07462150310149733 -0.07346205191365933 -0.0011594511878380072 -0.01655675437209938 0.0 0.0
0.0 0.09310673547746573 0.07866613894061525 -0.07817089212656611 -0.0004952468140491419 1.964053919500941e-14 0.0 0.0
0.0 0.08747183773691265 0.07462150310148362 -0.07346205191364541 -0.0011594511878381848 0.01655675437214514 0.0 0.0
0.0 0.07920317914324378 0.0672421742318109 -0.06604903309299734 -0.001193141138813545 0.021134413805755415 0.0 0.0
0.0 0.06956478432275215 0.05895907390522792 -0.057776062592016876 -0.001183011313211084 0.02202254997412005 0.0 0.0
0.0 0.05966142463206976 0.05058161471746837 -0.049435060750023206 -0.0011465539674451347 0.021051441905491425 0.0 0.0
0.0 0.050601739123088865 0.04251895944083106 -0.04141502389723064 -0.0011039355436004566 0.019176516464308117 0.0 0.0
0.0 0.041560167568857755 0.035034119695263606 -0.033980005303389973 -0.0010541143918736107 0.016876562117046544 0.0 0.0
0.0 0.03361402327200948 0.02825962695659232 -0.027266632480047272 -0.000992994476545025 0.014500681342572257 0.0 0.0
0.0 0.026456349891067384 0.022207273881616255 -0.021282792105782225 -0.0009244817758340264 0.012189347879177668 0.0 0.0
0.0 0.020066684474275825 0.01680806488621244 -0.015954782057592737 -0.0008532828286197182 0.009914919959807825 0.0 0.0
0.0 0.01433178481650237 0.011996209831280302 -0.011213983442859246 -0.0007822263884210484 0.007588350870290453 0.0 0.0
0.0 0.009186745974745208 0.007797071102193727 -0.0070993556251661835 -0.0006977154770275503 0.005241792361127763 0.0 0.0
0.0 0.005472575231270803 0.004328846005548576 -0.0037664599637215667 -0.0005623860418270049 0.0030332811304359026 0.0 0.0
0.0 0.002205110320728287 0.0018672455840442895 -0.0015197661968677804 -0.0003474793871765075 0.001376930805282071 0.0 0.0
0.0 0.0005863374785135178 0.0004675634908176559 -0.0003550707227271619 -0.00011249276809049409 0.000371318218095925 0.0 0.0
0.0 -4.735090229988304e-06 -1.107296070408512e-06 3.344425736120392e-06 -2.237129665711998e-06 -2.3400465031947293e-05 0.0 0.0
0.0 -3.403507578465377e-06 -2.744668131580826e-06 2.1757269613697706e-06 5.689411702110571e-07 -6.043716601287273e-06 0.0 0.0
0.0 -3.9933846203843063e-07 2.3010864114477826e-08 -1.766508430182229e-08 -5.345779812654833e-09 7.114747970917023e-08 0.0 0.0
0.0 4.503000071303827e-07 -5.889399959299267e-09 5.402290331223529e-09 4.871096280759266e-10 -9.028034833325816e-08 0.0 0.0
0.0 0.0004915023784935639 0.00020309579420994453 -8.01697342619452e-05 -0.0001229260599479993 0.000868125742195451 0.0 0.0
0.0 0.0027273634066112425 0.00188082507269873 -0.0026848007211191702 0.0008039756484204435 0.001493207519042424 0.0 0.0
0.0 0.002047314814556777 0.0010890410809017675 -0.0015706867882609055 0.00048164570735913746 -0.0009770415064662568 0.0 0.0
0.0 0.00015223016021773686 7.413760453106897e-05 -1.1133845524530562e-05 -6.300375900653832e-05 -0.0004251457877979293 0.0 0.0
0.0 -1.4021357222342677e-07 3.4907431961550847e-09 -4.319656701415351e-09 8.289135052607486e-10 -2.8153720087959586e-08 0.0 0.0
0.0 -7.398519191745401e-07 2.4508658812307933e-08 -1.8829097268388878e-08 -5.679561543919343e-09 -1.4785923128019126e-07 0.0 0.0
0.0 -2.1958374576426435e-06 -1.7271493265963437e-06 1.3646743982734323e-06 3.624749283229167e-07 5.9242386327379295e-06 0.0 0.0
0.0 -2.6542088869470754e-05 -1.6552886383946415e-05 1.350271444965276e-05 3.0501719342936334e-06 3.6987217308402416e-05 0.0 0.0
0.0 0.00019530744230900797 0.00013945059382301154 -0.00010381067337774924 -3.563992044526238e-05 -0.0001749785900522095 0.0 0.0
0.0 0.0011700120154283305 0.0009451072264574574 -0.0007489239430338007 -0.00019618328342365672 -0.0010019920846258321 0.0 0.0
0.0 0.00327356030792386 0.0026183763299052407 -0.0022093147374001943 -0.0004090615925050449 -0.0024095403837824094 0.0 0.0
0.0 0.006617611659227762 0.005127803126652971 -0.004559300449285301 -0.000568502677367667 -0.0043579250658086965 0.0 0.0
0.0 0.010242683243803612 0.00828377128527161 -0.0076137874458566054 -0.0006699838394149997 -0.0065943108441810895 0.0 0.0
0.0 0.014559025930742216 0.011892793671060206 -0.011148602252331144 -0.0007441914187290794 -0.008819677720359059 0.0 0.0
0.0 0.019434847547068305 0.0159134399340534 -0.015102400820812005 -0.0008110391132413686 -0.010985093634891427 0.0 0.0
0.0 0.02481920731041626 0.020413028394308086 -0.019540850614316815 -0.0008721777799912586 -0.013150507035976772 0.0 0.0
0.0 0.030953601086522915 0.025479242528502043 -0.024551731508197488 -0.0009275110203045539 -0.01536148408974022 0.0 0.0
0.0 0.03766912980261708 0.031161609600247688 -0.030187021584088845 -0.0009745880161587997 -0.01751963844703724 0.0 0.0
0.0 0.04520220302208372 0.0373991622262549 -0.03638386062558955 -0.0010153016006653546 -0.019333316601892487 0.0 0.0
0.0 0.05293023158388795 0.044094096835250535 -0.04303060833418303 -0.0010634885010674907 -0.020383326954945328 0.0 0.0
0.0 0.06086519380104054 0.05116156283624768 -0.05005963153761961 -0.001101931298628102 -0.020063407951529905 0.0 0.0
0.0 0.06890742990132184 0.058181900049521444 -0.057099983460921315 -0.0010819165886001628 -0.016605807472678185 0.0 0.0
0.0 0.07529917294414537 0.06251674913499079 -0.06227026636419447 -0.00024648277079635493 1.6964728233315185e-14 0.0 0.0
0.0 0.06890742990131438 0.058181900049510626 -0.0570999834609103 -0.0010819165886002714 0.01660580747272094 0.0 0.0
0.0 0.06086519380102835 0.051161562836233264 -0.05005963153760526 -0.0011019312986280706 0.020063407951575296 0.0 0.0
0.0 0.05293023158386632 0.044094096835229836 -0.043030608334162904 -0.001063488501066963 0.020383326954969524 0.0 0.0
0.0 0.045202203022054105 0.03739916222622966 -0.036383860625565256 -0.0010153016006643663 0.019333316601893247 0.0 0.0
0.0 0.03766912980258288 0.031161609600219332 -0.03018702158406038 -0.0009745880161589726 0.017519638447025337 0.0 0.0
0.0 0.030953601086492383 0.025479242528475925 -0.024551731508171578 -0.0009275110203043303 0.01536148408973002 0.0 0.0
0.0 0.024819207310389144 0.020413028394285097 -0.01954085061429408 -0.0008721777799910445 0.013150507035969263 0.0 0.0
0.0 0.019434847547042326 0.015913439934031978 -0.015102400820791045 -0.0008110391132409288 0.010985093634880694 0.0 0.0
0.0 0.014559025930714996 0.011892793671037908 -0.011148602252309044 -0.0007441914187288576 0.00881967772034377 0.0 0.0
0.0 0.010242683243778373 0.008283771285251852 -0.007613787445837441 -0.0006699838394144025 0.006594310844163007 0.0 0.0
0.0 0.006617611659206116 0.005127803126636383 -0.004559300449269121 -0.0005685026773672618 0.0043579250657926755 0.0 0.0
0.0 0.0032735603079107924 0.0026183763298950964 -0.0022093147373910727 -0.00040906159250402485 0.0024095403837739162 0.0 0.0
0.0 0.0011700120154210171 0.0009451072264519263 -0.0007489239430292285 -0.00019618328342269704 0.0010019920846205924 0.0 0.0
0.0 0.00019530744230627896 0.00013945059382129091 -0.00010381067337641086 -3.563992044488003e-05 0.00017497859004992285 0.0 0.0
0.0 -2.65420888695692e-05 -1.6552886383203462e-05 1.3502714449075314e-05 3.050171934128181e-06 -3.698721730670278e-05 0.0 0.0
0.0 -2.1958374580874235e-06 -1.7271493266262751e-06 1.3646743982975736e-06 3.624749283286927e-07 -5.924238632778858e-06 0.0 0.0
0.0 -7.398519195415277e-07 2.4508658814311785e-08 -1.882909726890552e-08 -5.679561545406168e-09 1.4785923135050773e-07 0.0 0.0
0.0 -1.4021357223894204e-07 3.490743193610669e-09 -4.319656700004212e-09 8.2891350639379e-10 2.8153720091089247e-08 0.0 0.0
0.0 0.0001522301602151238 7.413760453010268e-05 -1.1133845523905976e-05 -6.300375900619659e-05 0.0004251457877943215 0.0 0.0
0.0 0.0020473148145484423 0.0010890410808968049 -0.0015706867882538408 0.00048164570735703487 0.0009770415064628416 0.0 0.0
0.0 0.0009684484085603407 0.0005566853285113913 -0.0008107594411963149 0.0002540741126849241 -0.0006156103142041729 0.0 0.0
0.0 1.494164640850588e-05 -2.343160599959044e-06 3.211732716954427e-05 -2.9774166569585338e-05 -0.00011754127252813437 0.0 0.0
0.0 2.025024268009409e-06 -9.782345468447384e-10 9.274897273922973e-09 -8.296662727077319e-09 4.4355411906472834e-07 0.0 0.0
0.0 1.7511861102621881e-06 -1.1629715722904351e-08 7.150293490461872e-09 4.479422232442335e-09 3.6121932803134345e-07 0.0 0.0
0.0 -3.437368319170447e-06 -1.053202145495403e-06 8.140138392435712e-07 2.391883062518311e-07 6.263688646229945e-06 0.0 0.0
0.0 -1.9125256708760668e-05 -5.956454867661205e-06 4.8900955598595085e-06 1.0663593078016933e-06 1.81448225048286e-05 0.0 0.0
0.0 3.474756987463179e-05 3.226177176699177e-06 -1.5058019031610505e-06 -1.7203752735381707e-06 -2.302789567973327e-05 0.0 0.0
0.0 0.0005018115537705173 0.0002807727219893726 -0.00022133229295477361 -5.944042903459926e-05 -0.0005167162222502609 0.0 0.0
0.0 0.0016401428776000259 0.001162479562467814 -0.0009553911986945349 -0.0002070883637732785 -0.0015997722922823573 0.0 0.0
0.0 0.00370397844808157 0.002697154200837436 -0.002326715006743469 -0.0003704391940939678 -0.0030995569834429554 0.0 0.0
0.0 0.006180670834175768 0.004744323343240315 -0.004248126372443901 -0.0004961969707964082 -0.004940769147117112 0.0 0.0
0.0 0.009223223395950178 0.007125833746071694 -0.006542625728021764 -0.0005832080180499287 -0.0068568021364773385 0.0 0.0
0.0 0.012542436641610142 0.009776287929460335 -0.009121637193710454 -0.0006546507357498767 -0.008775220309207295 0.0 0.0
0.0 0.016213900507105604 0.012740085868022874 -0.012027396018370388 -0.0007126898496524844 -0.01067929988866619 0.0 0.0
0.0 0.02040108515847484 0.016104032225501403 -0.015340778311216987 -0.0007632539142844308 -0.012583178493315696 0.0 0.0
0.0 0.025195722502555987 0.01996154721908923 -0.01915292186318458 -0.0008086253559046387 -0.01447318183275779 0.0 0.0
0.0 0.03055835143691077 0.024352058840689497 -0.02350070874817849 -0.0008513500925109771 -0.01615717035855453 0.0 0.0
0.0 0.036254468552180986 0.02927310773573491 -0.02837290335597318 -0.0009002043797617874 -0.01722018402538009 0.0 0.0
0.0 0.04269864850904177 0.0348898107006558 -0.033922056198423145 -0.0009677545022326073 -0.01728008142528501 0.0 0.0
0.0 0.05029316382789648 0.0413601695974245 -0.040366024349843 -0.000994145247581516 -0.015506995798414025 0.0 0.0
0.0 0.057432713309853056 0.04603046253908099 -0.04606609945961415 3.563692053311102e-05 1.3525638942191165e-14 0.0 0.0
0.0 0.05029316382789303 0.04136016959741631 -0.040366024349834495 -0.0009941452475817844 0.015506995798450374 0.0 0.0
0.0 0.04269864850903655 0.03488981070064694 -0.03392205619841461 -0.0009677545022322952 0.01728008142532567 0.0 0.0
0.0 0.036254468552162564 0.029273107735718285 -0.028372903355956613 -0.0009002043797616353 0.017220184025399238 0.0 0.0
0.0 0.03055835143688734 0.024352058840671185 -0.02350070874816057 -0.0008513500925106199 0.01615717035855035 0.0 0.0
0.0 0.02519572250253 0.019961547219068464 -0.01915292186316367 -0.0008086253559047822 0.014473181832744854 0.0 0.0
0.0 0.02040108515845437 0.01610403222548451 -0.015340778311200424 -0.0007632539142840835 0.012583178493306642 0.0 0.0
0.0 0.01621390050709056 0.012740085868009959 -0.01202739601835818 -0.0007126898496517793 0.010679299888662504 0.0 0.0
0.0 0.012542436641593433 0.009776287929446919 -0.009121637193697461 -0.0006546507357494603 0.008775220309198636 0.0 0.0
0.0 0.009223223395930926 0.007125833746057387 -0.0065426257280080885 -0.0005832080180492939 0.006856802136464085 0.0 0.0
0.0 0.0061806708341596885 0.004744323343228124 -0.0042481263724322114 -0.0004961969707959092 0.0049407691471036325 0.0 0.0
0.0 0.0037039784480675346 0.0026971542008276312 -0.0023267150067343323 -0.0003704391940933002 0.003099556983431003 0.0 0.0
0.0 0.0016401428775924837 0.0011624795624624099 -0.0009553911986899337 -0.00020708836377247505 0.0015997722922765664 0.0 0.0
0.0 0.0005018115537661924 0.0002807727219868144 -0.00022133229295270463 -5.9440429034109685e-05 0.0005167162222460657 0.0 0.0
0.0 3.4747569873145456e-05 3.226177176890136e-06 -1.505801903321628e-06 -1.7203752735684778e-06 2.3027895679845957e-05 0.0 0.0
0.0 -1.9125256709296684e-05 -5.956454867447924e-06 4.8900955596936485e-06 1.0663593077542453e-06 -1.8144822503608727e-05 0.0 0.0
0.0 -3.4373683198066696e-06 -1.0532021455245762e-06 8.140138392668482e-07 2.3918830625773916e-07 -6.263688646329132e-06 0.0 0.0
0.0 1.751186109882542e-06 -1.162971572337093e-08 7.150293491276846e-09 4.479422232094953e-09 -3.6121932794506737e-07 0.0 0.0
0.0 2.025024267636722e-06 -9.782345478302604e-10 9.274897274301504e-09 -8.29666272647085e-09 -4.4355411898067233e-07 0.0 0.0
0.0 1.4941646406471769e-05 -2.3431606002704645e-06 3.211732716966956e-05 -2.977416656939896e-05 0.000117541272526623 0.0 0.0
0.0 0.0009684484085548558 0.0005566853285084652 -0.0008107594411920698 0.00025407411268360395 0.0006156103142017493 0.0 0.0
0.0 0.0004075110697369364 0.00019613083596190585 -0.00028763442044452 9.150358448261432e-05 -0.00026649793025453717 0.0 0.0
0.0 -3.88285463716799e-05 -2.1678980480287473e-05 3.3042956950191384e-05 -1.1363976469903914e-05 2.160603810717515e-05 0.0 0.0
0.0 3.9213385962015906e-07 -3.52312468095363e-10 5.336381692875927e-10 -1.8132570119113133e-10 4.673421068617836e-08 0.0 0.0
0.0 2.510069281574116e-07 8.443268679649727e-09 -1.115595082669116e-08 2.712682147039294e-09 3.554866817652535e-07 0.0 0.0
0.0 -2.673898571776603e-06 -3.1385051657233337e-07 2.4040027119405656e-07 7.345024537828526e-08 4.839709198633172e-06 0.0 0.0
0.0 -9.969161943744168e-06 -3.225414949686644e-06 2.628477011263228e-06 5.969379384233892e-07 2.2060189738478515e-05 0.0 0.0
0.0 2.382389617752524e-05 -2.6608451411065497e-06 2.3366480150212533e-06 3.2419712608532476e-07 -1.9737452411528607e-05 0.0 0.0
0.0 0.00013455933412125754 1.3903554607415603e-05 -1.1801930831542204e-05 -2.1016237758734878e-06 -0.00019816111430416732 0.0 0.0
0.0 0.0005002306435059263 0.00017428379517718482 -0.0001526639878827061 -2.1619807294478592e-05 -0.0007261269133744284 0.0 0.0
0.0 0.0013212728645909744 0.0006613312702179074 -0.0005891333402141279 -7.219793000378035e-05 -0.001682088779685529 0.0 0.0
0.0 0.0027644387453772457 0.0015435508248096595 -0.0013882380359110616 -0.00015531278889859755 -0.0029612420854641837 0.0 0.0
0.0 0.004280319245066045 0.0026791877310799778 -0.0024424067246468523 -0.00023678100643312748 -0.0044199388624292365 0.0 0.0
0.0 0.006116828844550438 0.003954439464191379 -0.0036422001804721567 -0.00031223928371921757 -0.005933131420771298 0.0 0.0
0.0 0.008206522154498198 0.00539714655234625 -0.005017752197687712 -0.00037939435465853504 -0.00750305339467804 0.0 0.0
0.0 0.0105670434192612 0.007074191719667409 -0.006632925053932163 -0.0004412666657352447 -0.009132800060605963 0.0 0.0
0.0 0.013340507921256644 0.00909214153798989 -0.008590728713180912 -0.0005014128248089759 -0.01082404659160721 0.0 0.0
0.0 0.016702436153490954 0.011593248281638779 -0.011029331809089996 -0.0005639164725487762 -0.012477579546304797 0.0 0.0
0.0 0.020722945328589322 0.01470986550874043 -0.01408299218906089 -0.0006268733196795399 -0.013676129992193267 0.0 0.0
0.0 0.025339105558477158 0.018647279991920635 -0.01794876986257636 -0.0006985101293442995 -0.013823705390726764 0.0 0.0
0.0 0.031372401174106196 0.024090078877300376 -0.02326220970328926 -0.0008278691740110922 -0.013021648373429654 0.0 0.0
0.0 0.04045408057057348 0.029016822883007963 -0.02938651252079418 0.00036968963778618295 1.1881121086965152e-14 0.0 0.0
0.0 0.03137240117411054 0.02409007887729836 -0.023262209703286768 -0.0008278691740116076 0.013021648373459507 0.0 0.0
0.0 0.025339105558474954 0.018647279991915403 -0.01794876986257119 -0.0006985101293442282 0.01382370539075792 0.0 0.0
0.0 0.020722945328576374 0.014709865508730652 -0.014082992189050847 -0.0006268733196798011 0.013676129992203167 0.0 0.0
0.0 0.01670243615347585 0.01159324828162972 -0.011029331809081435 -0.0005639164725482922 0.012477579546297891 0.0 0.0
0.0 0.013340507921243621 0.009092141537981447 -0.008590728713171975 -0.0005014128248094742 0.010824046591595849 0.0 0.0
0.0 0.010567043419252136 0.007074191719660629 -0.00663292505392538 -0.00044126666573524856 0.009132800060599282 0.0 0.0
0.0 0.00820652215448878 0.005397146552340115 -0.00501775219768205 -0.0003793943546580713 0.0075030533946726045 0.0 0.0
0.0 0.006116828844542127 0.003954439464186486 -0.0036422001804672847 -0.00031223928371919984 0.005933131420765082 0.0 0.0
0.0 0.00428031924505513 0.002679187731073745 -0.002442406724640717 -0.00023678100643302795 0.004419938862417752 0.0 0.0
0.0 0.002764438745368572 0.0015435508248045793 -0.001388238035906453 -0.00015531278889812386 0.0029612420854547433 0.0 0.0
0.0 0.0013212728645848285 0.0006613312702147866 -0.0005891333402112168 -7.219793000357018e-05 0.0016820887796796568 0.0 0.0
0.0 0.0005002306435030993 0.00017428379517582938 -0.00015266398788150448 -2.1619807294324496e-05 0.000726126913370581 0.0 0.0
0.0 0.0001345593341199784 1.3903554607239435e-05 -1.1801930831378482e-05 -2.101623775861036e-06 0.00019816111430272405 0.0 0.0
0.0 2.3823896176254657e-05 -2.6608451411094906e-06 2.3366480150189964e-06 3.24197126090505e-07 1.973745241094692e-05 0.0 0.0
0.0 -9.969161944602692e-06 -3.225414949590142e-06 2.628477011188041e-06 5.969379384020998e-07 -2.2060189737460104e-05 0.0 0.0
0.0 -2.673898572039141e-06 -3.1385051656918257e-07 2.4040027119846695e-07 7.345024537071215e-08 -4.8397091982888155e-06 0.0 0.0
0.0 2.510069275405447e-07 8.443268681085803e-09 -1.115595082936653e-08 2.7126821482815414e-09 -3.5548668192836944e-07 0.0 0.0
0.0 3.9213385937610574e-07 -3.523124704247279e-10 5.336381704873352e-10 -1.8132570006659105e-10 -4.673421058539357e-08 0.0 0.0
0.0 -3.882854637200212e-05 -2.1678980480047706e-05 3.304295694985774e-05 -1.1363976469810008e-05 -2.1606038106725802e-05 0.0 0.0
0.0 0.0004075110697334748 0.00019613083596045617 -0.00028763442044244127 9.150358448198478e-05 0.000266497930252659 0.0 0.0
0.0 5.124038988464678e-05 3.0320508733748143e-05 -4.596714968573616e-05 1.5646640951987996e-05 -4.873928479411259e-05 0.0 0.0
0.0 -8.704870077669948e-06 -5.202391156093843e-06 7.385201721734196e-06 -2.182810565640346e-06 1.0142839216596207e-05 0.0 0.0
0.0 3.927137920574667e-06 3.4103123249410017e-08 -1.18502003665002e-08 -2.2252922882915224e-08 1.2759666923671056e-06 0.0 0.0
0.0 8.213618577536911e-07 3.849883309027027e-08 -3.648377199987512e-08 -2.0150610903916787e-09 6.743397743282729e-07 0.0 0.0
0.0 -1.8365703224870974e-06 3.424089745034655e-08 -2.8835859375310226e-08 -5.405038075036134e-09 3.318842405191462e-06 0.0 0.0
0.0 -5.044815456555547e-06 -4.186646222262605e-07 4.430886219573205e-07 -2.4423999731059357e-08 1.421897137839672e-05 0.0 0.0
0.0 3.1995314651348096e-05 -9.61958263716462e-07 9.413986219066362e-07 2.0559641809812084e-08 -3.084430147679719e-05 0.0 0.0
0.0 0.00012680746892792987 -7.608988091850711e-07 7.445495808507777e-07 1.6349228334318037e-08 -0.00021582922550818814 0.0 0.0
0.0 0.000323524718122073 -9.907117100377751e-08 9.069210898127898e-08 8.379062022496095e-09 -0.00047731924682380426 0.0 0.0
0.0 0.0005278550555711844 8.232074958184962e-08 -4.097404251708712e-08 -4.134670706483026e-08 -0.0009458054382946167 0.0 0.0
0.0 0.0009450086455744424 4.544749606638361e-09 -3.249556843960125e-07 3.204109347894419e-07 -0.001669096208409449 0.0 0.0
0.0 0.0013534319151743079 -2.769845358807898e-06 4.190079711361588e-06 -1.4202343525534188e-06 -0.0027867730621050964 0.0 0.0
0.0 0.0021400988811734172 -1.0937388695674043e-05 1.386740359335075e-05 -2.930014897675962e-06 -0.004155885773175323 0.0 0.0
0.0 0.003137096808034329 -2.4497317917940135e-05 2.7752655550518195e-05 -3.255337632577341e-06 -0.005659168519468542 0.0 0.0
0.0 0.004296199822538647 -7.880905468330996e-08 -4.016296357933118e-06 4.095105412616265e-06 -0.0072848022270452515 0.0 0.0
0.0 0.0055825892995091785 0.0001720417693290349 -0.00019736199596696863 2.532022663793591e-05 -0.009043396607773164 0.0 0.0
0.0 0.007056040080917739 0.0007075322851970332 -0.0007760117177585084 6.847943256147528e-05 -0.01088311227969655 0.0 0.0
0.0 0.008661932164187999 0.0018131701170170352 -0.0019968537824873274 0.00018368366547028667 -0.012648019380257268 0.0 0.0
0.0 0.010965906226006138 0.0032268582701525197 -0.003576725060796007 0.0003498667906434898 -0.013950401882837712 0.0 0.0
0.0 0.016079467778426643 0.0067548305660363895 -0.006555428224545483 -0.00019940234149090204 -0.014066733919635315 0.0 0.0
0.0 0.02825685055342633 0.012294225753675956 -0.01318252022486287 0.0008882944711869083 9.585214566509848e-15 0.0 0.0
0.0 0.0160794677784352 0.006754830566037208 -0.006555428224547069 -0.00019940234149013015 0.014066733919658209 0.0 0.0
0.0 0.010965906226002646 0.003226858270150813 -0.003576725060794122 0.000349866790643307 0.01395040188284372 0.0 0.0
0.0 0.008661932164179048 0.0018131701170158456 -0.001996853782486029 0.00018368366547018397 0.012648019380252867 0.0 0.0
0.0 0.007056040080906098 0.0007075322851980647 -0.0007760117177599796 6.847943256191704e-05 0.010883112279684751 0.0 0.0
0.0 0.00558258929950478 0.00017204176933128298 -0.00019736199596967686 2.532022663839518e-05 0.009043396607764022 0.0 0.0
0.0 0.004296199822532044 -7.88090537616297e-08 -4.01629635853691e-06 4.095105412298567e-06 0.007284802227036752 0.0 0.0
0.0 0.0031370968080271216 -2.4497317915983747e-05 2.775265554856327e-05 -3.2553376325783576e-06 0.005659168519459836 0.0 0.0
0.0 0.0021400988811670183 -1.0937388693363229e-05 1.3867403590600834e-05 -2.930014897237985e-06 0.004155885773165387 0.0 0.0
0.0 0.0013534319151698071 -2.769845359055313e-06 4.190079711574959e-06 -1.4202343525196798e-06 0.0027867730620975916 0.0 0.0
0.0 0.0009450086455685997 4.544749841625629e-09 -3.2495568460273597e-07 3.204109347609816e-07 0.0016690962084021056 0.0 0.0
0.0 0.0005278550555716274 8.2320749458586e-08 -4.097404244103711e-08 -4.134670701736931e-08 0.000945805438294009 0.0 0.0
0.0 0.000323524718120833 -9.907117092498185e-08 9.069210891076836e-08 8.379062014145727e-09 0.00047731924682211367 0.0 0.0
0.0 0.00012680746892659636 -7.608988092001708e-07 7.44549580886841e-07 1.6349228313338256e-08 0.00021582922550585803 0.0 0.0
0.0 3.199531465048985e-05 -9.61958263741497e-07 9.413986219333875e-07 2.0559641808127018e-08 3.084430147724866e-05 0.0 0.0
0.0 -5.044815456787161e-06 -4.186646222488783e-07 4.430886219770531e-07 -2.4423999728182992e-08 -1.421897137750966e-05 0.0 0.0
0.0 -1.8365703225334572e-06 3.42408974133949e-08 -2.8835859341610107e-08 -5.40503807178142e-09 -3.3188424043351425e-06 0.0 0.0
0.0 8.213618578628158e-07 3.849883302017927e-08 -3.648377193736879e-08 -2.0150610828116052e-09 -6.743397732349017e-07 0.0 0.0
0.0 3.927137919801351e-06 3.410312327203492e-08 -1.1850200384900729e-08 -2.2252922887124233e-08 -1.2759666927506698e-06 0.0 0.0
0.0 -8.70487007846152e-06 -5.202391156080689e-06 7.385201721717747e-06 -2.1828105656370727e-06 -1.0142839216466062e-05 0.0 0.0
0.0 5.124038988399841e-05 3.0320508733861516e-05 -4.596714968589116e-05 1.5646640952029782e-05 4.8739284794560604e-05 0.0 0.0
0.0 8.492216156790068e-07 -1.5680705623058166e-06 2.278463442132481e-06 -7.103928798266826e-07 3.3295266538193164e-06 0.0 0.0
0.0 -3.4104870424050925e-07 2.2705543365475731e-07 -3.182475710106173e-07 9.119213735586285e-08 -1.7764530148628596e-07 0.0 0.0
0.0 1.790656783498367e-07 3.249984552674964e-08 -4.4508342329557584e-08 1.2008496802807625e-08 -3.659126803382315e-07 0.0 0.0
0.0 1.161585878495564e-06 1.0257598848998842e-07 -9.206740383716728e-08 -1.0508584652822869e-08 2.129877014627089e-07 0.0 0.0
0.0 -1.0951833775612648e-06 -5.985465503051943e-08 4.778538431828347e-08 1.2069270712236972e-08 -4.0622562756132304e-07 0.0 0.0
0.0 -4.748603341185438e-06 4.555210530711984e-07 -1.9586534129660032e-07 -2.596557117745568e-07 3.977999189345107e-06 0.0 0.0
0.0 4.361150475443216e-05 1.8364409872816895e-06 -1.2619172441389966e-06 -5.745237431427456e-07 -2.0033574049942177e-05 0.0 0.0
0.0 0.00014468457327995336 -1.6863856305874913e-05 1.4474494821159464e-05 2.389361484715393e-06 -0.00020561296565954366 0.0 0.0
0.0 0.0005019328031971646 -0.00017527196854512665 0.00015347409527338005 2.1797873271746475e-05 -0.0007302468604295226 0.0 0.0
0.0 0.0013189506730552068 -0.0006601145856985045 0.0005880205848823874 7.209400081611842e-05 -0.001681235857102262 0.0 0.0
0.0 0.00277299404174848 -0.0015415103467053234 0.001386834470072739 0.00015467587663258342 -0.0029568190326547325 0.0 0.0
0.0 0.004305991025050443 -0.002693082186186034 0.0024539635043865117 0.00023911868179952157 -0.00442193176469325 0.0 0.0
0.0 0.006163316118385132 -0.0039949021682388255 0.003678293819332051 0.0003166083489067732 -0.005936070326389947 0.0 0.0
0.0 0.008272521599164669 -0.00545850897536146 0.005077080159633949 0.00038142881572751023 -0.007501277680843691 0.0 0.0
0.0 0.0105179367336452 -0.0070527516718687224 0.006627377152911514 0.00042537451895721093 -0.009141801221759735 0.0 0.0
0.0 0.012813489643533202 -0.008628167813843875 0.00819001331966896 0.00043815449417491833 -0.010924412099376753 0.0 0.0
0.0 0.014829474144345416 -0.009883222159035532 0.009471741815799854 0.0004114803432356785 -0.012904977257722333 0.0 0.0
0.0 0.016366011837890992 -0.010380134740466687 0.010052531354922897 0.000327603385543781 -0.015131177100348964 0.0 0.0
0.0 0.01653413434043907 -0.009593459065870402 0.009444241340082253 0.0001492177257881518 -0.01756134411890881 0.0 0.0
0.0 0.013541824423747469 -0.006928807438069419 0.007149215461897894 -0.00022040802382847251 -0.01934581303648412 0.0 0.0
0.0 0.027114648200066788 -0.003771103220521443 0.001671570087761135 0.002099533132760308 1.4548258431279493e-14 0.0 0.0
0.0 0.013541824423753162 -0.006928807438069753 0.007149215461898416 -0.00022040802382865743 0.01934581303649829 0.0 0.0
0.0 0.016534134340436404 -0.009593459065867335 0.009444241340079148 0.0001492177257881939 0.017561344118920647 0.0 0.0
0.0 0.01636601183788134 -0.010380134740459679 0.010052531354916485 0.0003276033855431888 0.015131177100350616 0.0 0.0
0.0 0.01482947414432798 -0.009883222159023042 0.009471741815787818 0.000411480343235227 0.012904977257712148 0.0 0.0
0.0 0.012813489643518135 -0.00862816781383278 0.00819001331965815 0.00043815449417462413 0.010924412099365819 0.0 0.0
0.0 0.010517936733633765 -0.007052751671859271 0.006627377152902768 0.00042537451895650246 0.009141801221751011 0.0 0.0
0.0 0.00827252159915203 -0.005458508975351308 0.005077080159624459 0.0003814288157268476 0.007501277680836188 0.0 0.0
0.0 0.006163316118367699 -0.003994902168226408 0.0036782938193200302 0.0003166083489063791 0.005936070326377007 0.0 0.0
0.0 0.004305991025035343 -0.0026930821861753367 0.0024539635043767244 0.0002391186817986106 0.004421931764680816 0.0 0.0
0.0 0.002772994041735054 -0.001541510346697108 0.0013868344700650593 0.00015467587663204794 0.0029568190326422533 0.0 0.0
0.0 0.0013189506730462274 -0.0006601145856933138 0.0005880205848777496 7.209400081556499e-05 0.0016812358570953909 0.0 0.0
0.0 0.0005019328031939323 -0.00017527196854357928 0.00015347409527201008 2.179787327156909e-05 0.0007302468604261036 0.0 0.0
0.0 0.0001446845732780011 -1.6863856305557584e-05 1.4474494820907228e-05 2.3893614846503976e-06 0.000205612965657371 0.0 0.0
0.0 4.361150475332434e-05 1.8364409871281227e-06 -1.26191724402019e-06 -5.745237431079345e-07 2.0033574050191323e-05 0.0 0.0
0.0 -4.748603342377322e-06 4.5552105300254676e-07 -1.9586534124338672e-07 -2.5965571175916206e-07 -3.977999188858773e-06 0.0 0.0
0.0 -1.0951833775205723e-06 -5.985465513700794e-08 4.778538440965281e-08 1.2069270727350377e-08 4.0622562849378514e-07 0.0 0.0
0.0 1.1615858786448596e-06 1.0257598838517573e-07 -9.206740375037249e-08 -1.0508584634802326e-08 -2.1298770047306883e-07 0.0 0.0
0.0 1.790656780683032e-07 3.24998455036677e-08 -4.450834232367174e-08 1.2008496819999456e-08 3.6591268116855464e-07 0.0 0.0
0.0 -3.410487040095493e-07 2.270554336503137e-07 -3.182475710211861e-07 9.119213737087152e-08 1.7764530157486822e-07 0.0 0.0
0.0 8.492216134322572e-07 -1.5680705622552384e-06 2.278463442053905e-06 -7.103928797986539e-07 -3.329526653683157e-06 0.0 0.0
0.0 -5.791226492451871e-07 3.285152939261595e-08 -4.863961923435168e-08 1.5788089841737027e-08 -8.324711323925468e-08 0.0 0.0
0.0 1.3128055585309251e-06 8.852250293245444e-10 1.8720866558199784e-08 -1.9606091587530365e-08 2.3228227484325677e-07 0.0 0.0
0.0 4.876292131145169e-08 1.269620658312798e-07 -1.0002399039742833e-07 -2.6938075433860212e-08 1.0101228432656675e-06 0.0 0.0
0.0 1.3324639140218917e-06 -4.4736381398816173e-07 3.608191063460705e-07 8.654470764207944e-08 -3.0616444856402717e-06 0.0 0.0
0.0 1.7608872496237576e-06 2.544302701028489e-06 -2.1133989846133574e-06 -4.3090371641507236e-07 1.2293577102256412e-05 0.0 0.0
0.0 7.3173576690494e-06 6.84309993854683e-06 -5.393564165477367e-06 -1.4495357730694515e-06 2.0607439773585875e-05 0.0 0.0
0.0 4.380734500699629e-05 -1.7783054288326353e-05 1.3664748295134264e-05 4.118305993192155e-06 -7.50597404025492e-05 0.0 0.0
0.0 0.0005176779355008552 -0.0002875721393444686 0.00022727395482365835 6.0298184520809986e-05 -0.0005327728745718644 0.0 0.0
0.0 0.001639624618366279 -0.0011618354540818788 0.000954673011497187 0.00020716244258469236 -0.0016018978687718027 0.0 0.0
0.0 0.0036999331397449303 -0.0026951121500018603 0.002324693693859106 0.0003704184561427529 -0.003096114054288301 0.0 0.0
0.0 0.0061822761775021705 -0.0047464322072629924 0.004250145051532216 0.0004962871557307807 -0.004939707830038267 0.0 0.0
0.0 0.00923899672820012 -0.007139057280281605 0.006555256793135686 0.0005838004871459204 -0.006858039577196963 0.0 0.0
0.0 0.012580620357348032 -0.009812239423651014 0.0091566198032101 0.0006556196204409087 -0.008758109205254445 0.0 0.0
0.0 0.01626116238671811 -0.012794796237202184 0.012083135584517131 0.0007116606526850567 -0.01062072280614205 0.0 0.0
0.0 0.02035065790358768 -0.016082859418488193 0.015331246063333746 0.0007516133551544365 -0.01252983553882212 0.0 0.0
0.0 0.024702273917791912 -0.019532130468454947 0.018761814658109603 0.0007703158103453235 -0.014685271236138893 0.0 0.0
0.0 0.028892897529952805 -0.022789486418672403 0.02202226881336578 0.0007672176053066298 -0.017310608063237552 0.0 0.0
0.0 0.03216657639696787 -0.025308297463112354 0.02456282847116268 0.000745468991949666 -0.02051769182410561 0.0 0.0
0.0 0.03389117497821165 -0.0260872804360194 0.025420779124804362 0.0006665013112150332 -0.02367990544134565 0.0 0.0
0.0 0.03143922423681106 -0.02308335344765672 0.022557184116579032 0.0005261693310776853 -0.024326235703885576 0.0 0.0
0.0 0.03335157475780625 -0.01837726605797295 0.01547732888865605 0.002899937169316883 1.4438970852292954e-14 0.0 0.0
0.0 0.0314392242368177 -0.023083353447655094 0.02255718411657754 0.000526169331077541 0.024326235703917003 0.0 0.0
0.0 0.03389117497821088 -0.02608728043601339 0.025420779124798884 0.0006665013112144949 0.023679905441376783 0.0 0.0
0.0 0.03216657639695281 -0.025308297463098636 0.024562828471149132 0.0007454689919494974 0.020517691824117095 0.0 0.0
0.0 0.028892897529926305 -0.02278948641865129 0.02202226881334433 0.0007672176053069568 0.01731060806323019 0.0 0.0
0.0 0.024702273917764913 -0.019532130468433037 0.01876181465808789 0.0007703158103451527 0.01468527123612487 0.0 0.0
0.0 0.02035065790356418 -0.01608285941846907 0.015331246063315273 0.000751613355153797 0.012529835538810288 0.0 0.0
0.0 0.016261162386694835 -0.012794796237182547 0.012083135584497407 0.0007116606526851408 0.010620722806129879 0.0 0.0
0.0 0.012580620357321791 -0.009812239423629897 0.009156619803189377 0.0006556196204405189 0.008758109205241005 0.0 0.0
0.0 0.009238996728176107 -0.007139057280263177 0.006555256793118021 0.0005838004871451574 0.006858039577180455 0.0 0.0
0.0 0.006182276177480438 -0.00474643220724633 0.004250145051516057 0.0004962871557302732 0.004939707830021051 0.0 0.0
0.0 0.0036999331397284028 -0.0026951121499895698 0.0023246936938477857 0.0003704184561417843 0.003096114054276313 0.0 0.0
0.0 0.0016396246183577727 -0.001161835454075661 0.0009546730114920051 0.00020716244258365567 0.001601897868765653 0.0 0.0
0.0 0.0005176779354968745 -0.0002875721393420618 0.00022727395482181897 6.0298184520242494e-05 0.000532772874568128 0.0 0.0
0.0 4.3807345005006866e-05 -1.778305428810957e-05 1.3664748294944839e-05 4.118305993164699e-06 7.505974040175508e-05 0.0 0.0
0.0 7.31735766851655e-06 6.843099938222533e-06 -5.393564165212857e-06 -1.4495357730097738e-06 -2.060743977264775e-05 0.0 0.0
0.0 1.760887248732638e-06 2.544302700843655e-06 -2.113398984460651e-06 -4.3090371638299617e-07 -1.2293577101365247e-05 0.0 0.0
0.0 1.3324639132555613e-06 -4.4736381401936706e-07 3.6081910637024245e-07 8.654470764913079e-08 3.061644485915754e-06 0.0 0.0
0.0 4.876292044675448e-08 1.269620658298107e-07 -1.0002399039774835e-07 -2.693807543205771e-08 -1.0101228432838634e-06 0.0 0.0
0.0 1.3128055581594586e-06 8.85225031276378e-10 1.8720866554824113e-08 -1.9606091586101916e-08 -2.322822748426231e-07 0.0 0.0
0.0 -5.791226488939735e-07 3.285152937202806e-08 -4.863961920387383e-08 1.57880898318369e-08 8.324711318699175e-08 0.0 0.0
0.0 0.0 0.0 0.0 0.0 0.0 0.0 0.0
0.0 -4.597287996738521e-07 -6.853202956288844e-09 2.886835497529438e-09 3.966367458759904e-09 -9.336839224249032e-08 0.0 0.0
0.0 1.435300940365238e-06 9.369541775442101e-08 -6.738998965323668e-08 -2.630542810117912e-08 6.278528306039787e-07 0.0 0.0
0.0 1.056286866603045e-06 8.829443863306175e-07 -7.338657879796677e-07 -1.490785983509499e-07 3.0477091877180764e-06 0.0 0.0
0.0 1.115762663777701e-06 2.078206535270828e-06 -1.6444941342257343e-06 -4.3371240104513183e-07 4.274067195132855e-06 0.0 0.0
0.0 -6.59633259449698e-06 -2.8834145877218566e-06 2.0673878470316735e-06 8.160267406902267e-07 -1.4765125289169254e-05 0.0 0.0
0.0 0.00026536736597243077 -0.00015606720970338519 0.00011845828085900125 3.760892884438382e-05 -0.00020443817588665944 0.0 0.0
0.0 0.0011852508944044588 -0.000948672703879863 0.0007524193181448224 0.00019625338573503985 -0.0010146299675639638 0.0 0.0
0.0 0.0032695277097463775 -0.002615123795449699 0.002206005109319949 0.00040911868612974876 -0.0024067307540789912 0.0 0.0
0.0 0.00661544864154585 -0.005126389411573146 0.004557771852337669 0.000568617559235479 -0.004353292304779279 0.0 0.0
0.0 0.010242555669473586 -0.008287672542489329 0.007617830527261378 0.0006698420152279414 -0.0065949139822610026 0.0 0.0
0.0 0.014571820467146416 -0.011903309731421221 0.011159198508502045 0.000744111222919174 -0.008817189804266259 0.0 0.0
0.0 0.019453525252692675 -0.01593413680822195 0.01512291040892768 0.0008112263992942844 -0.010944526976401142 0.0 0.0
0.0 0.024827288272183647 -0.020439555318107795 0.019568021493656072 0.0008715338244516984 -0.013019207515695385 0.0 0.0
0.0 0.030875195195578638 -0.025447387166232755 0.02452813736193916 0.000919249804293617 -0.015194572224675698 0.0 0.0
0.0 0.03727601927869759 -0.030828602849637322 0.029883616595769245 0.0009449862538680443 -0.017774608536096928 0.0 0.0
0.0 0.04396497310043733 -0.0361636536210363 0.035219913078743746 0.0009437405422925554 -0.021189308923899225 0.0 0.0
0.0 0.049577929531729306 -0.04060899837295779 0.039710297852746795 0.0008987005202109621 -0.025494217358550918 0.0 0.0
0.0 0.05252832445048551 -0.04260283549097835 0.04180182895108719 0.0008010065398911326 -0.029508361663162178 0.0 0.0
0.0 0.04931871304483257 -0.03930159707790154 0.03872796475202156 0.0005736323258799799 -0.030757702508102034 0.0 0.0
0.0 0.04661332145831974 -0.03281759948655853 0.029184441286787273 0.003633158199771275 1.6725336393630386e-14 0.0 0.0
0.0 0.04931871304483572 -0.03930159707789693 0.038727964752017334 0.0005736323258796257 0.030757702508139882 0.0 0.0
0.0 0.05252832445048032 -0.042602835490967994 0.041801828951077175 0.0008010065398907562 0.029508361663200235 0.0 0.0
0.0 0.049577929531705894 -0.04060899837293581 0.039710297852725104 0.0008987005202107023 0.025494217358566947 0.0 0.0
0.0 0.04396497310040606 -0.03616365362100959 0.035219913078717316 0.0009437405422922895 0.021189308923896658 0.0 0.0
0.0 0.037276019278658624 -0.03082860284960485 0.02988361659573694 0.0009449862538678632 0.017774608536081975 0.0 0.0
0.0 0.030875195195545414 -0.025447387166205114 0.024528137361912075 0.0009192498042930619 0.015194572224661815 0.0 0.0
0.0 0.024827288272148765 -0.020439555318078215 0.01956802149362669 0.0008715338244515039 0.01301920751568204 0.0 0.0
0.0 0.01945352525265801 -0.015934136808193396 0.015122910408899192 0.000811226399294195 0.010944526976386638 0.0 0.0
0.0 0.014571820467112521 -0.011903309731394045 0.011159198508475467 0.0007441112229185774 0.008817189804246662 0.0 0.0
0.0 0.010242555669443812 -0.008287672542465627 0.007617830527238024 0.0006698420152275964 0.006594913982241662 0.0 0.0
0.0 0.006615448641521754 -0.005126389411554041 0.004557771852319473 0.000568617559234569 0.004353292304763351 0.0 0.0
0.0 0.0032695277097319177 -0.002615123795438611 0.002206005109309997 0.000409118686128611 0.0024067307540700917 0.0 0.0
0.0 0.0011852508943971554 -0.0009486727038743011 0.0007524193181403019 0.0001962533857339999 0.001014629967558964 0.0 0.0
0.0 0.0002653673659677144 -0.00015606720970064337 0.00011845828085683959 3.760892884380383e-05 0.00020443817588294185 0.0 0.0
0.0 -6.596332594872119e-06 -2.8834145882405093e-06 2.067387847439845e-06 8.16026740800695e-07 1.4765125290369896e-05 0.0 0.0
0.0 1.1157626633093501e-06 2.0782065350842556e-06 -1.6444941340732372e-06 -4.337124010110207e-07 -4.274067194476909e-06 0.0 0.0
0.0 1.0562868659377875e-06 8.829443861761655e-07 -7.338657878563817e-07 -1.4907859831978062e-07 -3.0477091868859487e-06 0.0 0.0
0.0 1.4353009397654338e-06 9.369541777761615e-08 -6.738998967397277e-08 -2.6305428103649232e-08 -6.278528307172976e-07 0.0 0.0
0.0 -4.59728799576089e-07 -6.853202954632321e-09 2.8868354967489913e-09 3.9663674578853385e-09 9.336839222251318e-08 0.0 0.0
0.0 0.0 0.0 0.0 0.0 0.0 0.0 0.0
0.0 0.0 0.0 0.0 0.0 0.0 0.0 0.0
0.0 1.5308091780677812e-08 3.0663233307284843e-10 -2.1432744662428963e-10 -9.23048864485231e-11 3.0115191088803258e-09 0.0 0.0
0.0 -3.8987873335745257e-07 -1.5969699273266845e-08 1.2635923068375027e-08 3.3337762048900677e-09 -7.384476671439359e-08 0.0 0.0
0.0 -1.7996704131164633e-06 1.2184285392135805e-08 -2.7619605315256076e-09 -9.422324860600007e-09 8.622247885077506e-08 0.0 0.0
0.0 -2.901422272408307e-06 7.893804722384664e-06 -6.3927752068263e-06 -1.501029515558357e-06 1.6764850992524723e-05 0.0 0.0
0.0 6.845854931156717e-05 -2.4308289745880797e-05 1.720230625582023e-05 7.105983490060495e-06 -1.753258820583001e-05 0.0 0.0
0.0 0.0006079542232385304 -0.0004951288937323873 0.00037952458419238675 0.0001156043095400004 -0.0004283465680355486 0.0 0.0
0.0 0.00221136498143632 -0.0018655572930806911 0.0015184324077986242 0.00034712488528206665 -0.0013843283670043958 0.0 0.0
0.0 0.005466522776856038 -0.004324564118177039 0.003761854469047042 0.0005627096491299969 -0.003026462205051995 0.0 0.0
0.0 0.009185623223399133 -0.007797564518850949 0.007099744331400687 0.0006978201874502727 -0.005237732367892296 0.0 0.0
0.0 0.014338863940097143 -0.012001415277749679 0.011219544605511689 0.0007818706722379806 -0.0075893917118828825 0.0 0.0
0.0 0.020072855859166974 -0.01681319459722497 0.01596071387683179 0.0008524807203931739 -0.009908090266890839 0.0 0.0
0.0 0.026447055854298348 -0.02220350231264778 0.02127983127607108 0.000923671036576723 -0.012130053058442024 0.0 0.0
0.0 0.033567270496525824 -0.02823897602633025 0.027245910934942053 0.0009930650913881696 -0.014313562176862155 0.0 0.0
0.0 0.041452027798163454 -0.03498190542006189 0.03392991494476664 0.0010519904752952125 -0.016607912256504796 0.0 0.0
0.0 0.05035430256398193 -0.042325714532204045 0.04123960309708666 0.001086111435117434 -0.019400720361741328 0.0 0.0
0.0 0.05888266575283675 -0.049760280451309605 0.04868177770823364 0.0010785027430758641 -0.023220760165494125 0.0 0.0
0.0 0.06685640585987813 -0.05606763807758964 0.05505848223000907 0.001009155847580617 -0.028121650507515975 0.0 0.0
0.0 0.07113335360080589 -0.05905146092415453 0.05819274704884436 0.000858713875310163 -0.032944371178859864 0.0 0.0
0.0 0.06708441694032664 -0.055047178540831035 0.054474766007317904 0.0005724125335131204 -0.034966619507198295 0.0 0.0
0.0 0.061122012383471175 -0.046949906304034277 0.04269213359316851 0.0042577727108657135 1.8076685981416318e-14 0.0 0.0
0.0 0.06708441694032659 -0.055047178540824256 0.054474766007311305 0.0005724125335129314 0.03496661950723969 0.0 0.0
0.0 0.07113335360079165 -0.0590514609241367 0.05819274704882711 0.0008587138753095699 0.03294437117890063 0.0 0.0
0.0 0.06685640585984706 -0.05606763807756072 0.055058482229980256 0.001009155847580389 0.02812165050753696 0.0 0.0
0.0 0.058882665752796055 -0.049760280451274626 0.04868177770819843 0.0010785027430761608 0.023220760165493223 0.0 0.0
0.0 0.05035430256393483 -0.04232571453216411 0.041239603097046586 0.0010861114351175026 0.019400720361728196 0.0 0.0
0.0 0.041452027798121585 -0.034981905420026056 0.03392991494473137 0.0010519904752946834 0.016607912256491487 0.0 0.0
0.0 0.03356727049648287 -0.028238976026293265 0.027245910934905436 0.000993065091387811 0.014313562176849016 0.0 0.0
0.0 0.026447055854253197 -0.022203502312609976 0.021279831276032977 0.0009236710365769967 0.012130053058426467 0.0 0.0
0.0 0.020072855859126194 -0.016813194597190783 0.015960713876798267 0.0008524807203925218 0.0099080902668713 0.0 0.0
0.0 0.014338863940059463 -0.01200141527771848 0.0112195446054807 0.0007818706722377994 0.0075893917118611135 0.0 0.0
0.0 0.009185623223369913 -0.00779756451882639 0.007099744331376882 0.0006978201874495127 0.0052377323678748375 0.0 0.0
0.0 0.005466522776834218 -0.004324564118159999 0.003761854469031059 0.0005627096491289437 0.003026462205040455 0.0 0.0
0.0 0.0022113649814228123 -0.0018655572930700792 0.0015184324077893844 0.0003471248852806949 0.0013843283669966655 0.0 0.0
0.0 0.0006079542232313574 -0.0004951288937273474 0.0003795245841884576 0.00011560430953888992 0.00042834656803127595 0.0 0.0
0.0 6.845854931022602e-05 -2.4308289745596987e-05 1.7202306255639127e-05 7.105983489957819e-06 1.7532588205883815e-05 0.0 0.0
0.0 -2.9014222732021627e-06 7.893804722056632e-06 -6.39277520656759e-06 -1.501029515489025e-06 -1.6764850991920026e-05 0.0 0.0
0.0 -1.79967041376006e-06 1.2184285366137388e-08 -2.761960511145401e-09 -9.42232485497549e-09 -8.622247876633562e-08 0.0 0.0
0.0 -3.8987873333234397e-07 -1.596969927340737e-08 1.2635923067850714e-08 3.333776205556918e-09 7.384476670689387e-08 0.0 0.0
0.0 1.5308091766584117e-08 3.0663233278746693e-10 -2.1432744642515877e-10 -9.23048863622756e-11 -3.0115191060776662e-09 0.0 0.0
0.0 0.0 0.0 0.0 0.0 0.0 0.0 0.0
0.0 0.0 0.0 0.0 0.0 0.0 0.0 0.0
0.0 0.0 0.0 0.0 0.0 0.0 0.0 0.0
0.0 -3.008317283811859e-07 -1.6894082401111415e-08 1.3667650964936457e-08 3.226431436173586e-09 -5.3084951058647605e-08 0.0 0.0
0.0 -1.0849916021216102e-07 6.187818310235549e-07 -4.980331173736667e-07 -1.2074871364986327e-07 1.4170472327072568e-06 0.0 0.0
0.0 -1.3545063912926597e-05 2.5204134162718374e-06 -2.3930725071456184e-06 -1.2734090912623172e-07 5.618490174685121e-06 0.0 0.0
0.0 0.00020835692946177326 -0.0001291192023375959 9.50585055984678e-05 3.406069673912814e-05 -7.298204944992362e-05 0.0 0.0
0.0 0.0011509438535717699 -0.0009929843073279204 0.0007742509795711639 0.0002187333277567557 -0.0005681725183200317 0.0 0.0
0.0 0.0036952428175852712 -0.002973705810006948 0.0024916994926998896 0.00048200631730705974 -0.0016221408122506246 0.0 0.0
0.0 0.007112460838974076 -0.006241591067990015 0.005563983517287567 0.000677607550702447 -0.0034134554781212246 0.0 0.0
0.0 0.012351362274396637 -0.010569547163650972 0.00978114125219105 0.0007884059114599252 -0.005582149942597293 0.0 0.0
0.0 0.018520238568951772 -0.01580104640101729 0.014933734370769156 0.0008673120302481374 -0.007878086979513811 0.0 0.0
0.0 0.02559504773593054 -0.02181080937810294 0.020869262091444206 0.0009415472866587399 -0.010146594402060328 0.0 0.0
0.0 0.03353398177172309 -0.028567628418190213 0.027548417697006562 0.0010192107211836187 -0.012338880901164279 0.0 0.0
0.0 0.042483194371235114 -0.036136741972938265 0.035039941876538236 0.001096800096400063 -0.014514938513655946 0.0 0.0
0.0 0.05232021658001221 -0.044608499885528986 0.04344072908100374 0.0011677708045252319 -0.01679998639836231 0.0 0.0
0.0 0.06302898566863602 -0.05389762561861036 0.052686262214031276 0.001211363404579101 -0.019498522111212547 0.0 0.0
0.0 0.0744777193609555 -0.06338063067070922 0.062185108305976906 0.0011955223647322787 -0.02318066392963366 0.0 0.0
0.0 0.08414708343344317 -0.0714881186900791 0.0703945664061855 0.0010935522838934988 -0.02818472155528381 0.0 0.0
0.0 0.08901073774771108 -0.07534385994677936 0.07445350639015971 0.0008903535566196291 -0.033670576582250394 0.0 0.0
0.0 0.08448238976780763 -0.07062662194100996 0.07006017572641271 0.0005664462145972348 -0.03759404196419443 0.0 0.0
0.0 0.07675716963999671 -0.061113854844116904 0.056300168527780144 0.004813686316336764 1.8653481537178607e-14 0.0 0.0
0.0 0.08448238976780324 -0.07062662194100004 0.07006017572640318 0.0005664462145969029 0.0375940419642367 0.0 0.0
0.0 0.0890107377476912 -0.0753438599467574 0.07445350639013844 0.0008903535566189152 0.0336705765822919 0.0 0.0
0.0 0.08414708343340654 -0.07148811869004568 0.07039456640615209 0.0010935522838935563 0.028184721555306103 0.0 0.0
0.0 0.07447771936090386 -0.06338063067066482 0.06218510830593181 0.0011955223647329041 0.02318066392963319 0.0 0.0
0.0 0.06302898566858353 -0.053897625618565204 0.05268626221398646 0.0012113634045788032 0.019498522111202787 0.0 0.0
0.0 0.05232021657995676 -0.044608499885481524 0.04344072908095637 0.0011677708045251974 0.01679998639835013 0.0 0.0
0.0 0.0424831943711852 -0.036136741972894605 0.03503994187649577 0.0010968000963988101 0.014514938513643178 0.0 0.0
0.0 0.033533981771668636 -0.02856762841814364 0.027548417696959763 0.0010192107211838403 0.012338880901149367 0.0 0.0
0.0 0.025595047735881032 -0.02181080937806106 0.020869262091402656 0.0009415472866583925 0.010146594402041763 0.0 0.0
0.0 0.018520238568905816 -0.015801046400978763 0.0149337343707308 0.0008673120302479475 0.00787808697949188 0.0 0.0
0.0 0.012351362274362482 -0.010569547163622003 0.00978114125216278 0.0007884059114592275 0.00558214994258112 0.0 0.0
0.0 0.0071124608389496 -0.006241591067968099 0.005563983517266622 0.0006776075507014805 0.0034134554781092507 0.0 0.0
0.0 0.00369524281756764 -0.0029737058099927995 0.002491699492687234 0.0004820063173055665 0.00162214081224288 0.0 0.0
0.0 0.0011509438535632056 -0.0009929843073211361 0.0007742509795657099 0.00021873332775542705 0.0005681725183157935 0.0 0.0
0.0 0.0002083569294592148 -0.00012911920233644273 9.505850559763284e-05 3.406069673880976e-05 7.29820494494938e-05 0.0 0.0
0.0 -1.3545063912967725e-05 2.5204134156022083e-06 -2.393072506612745e-06 -1.2734090898949686e-07 -5.6184901735748265e-06 0.0 0.0
0.0 -1.0849916101749062e-07 6.187818310576269e-07 -4.980331174022006e-07 -1.2074871365542153e-07 -1.4170472327479938e-06 0.0 0.0
0.0 -3.0083172820327663e-07 -1.6894082390560128e-08 1.3667650956397697e-08 3.226431434162971e-09 5.3084951026648725e-08 0.0 0.0
0.0 0.0 0.0 0.0 0.0 0.0 0.0 0.0
0.0 0.0 0.0 0.0 0.0 0.0 0.0 0.0
0.0 0.0 0.0 0.0 0.0 0.0 0.0 0.0
0.0 0.0 0.0 0.0 0.0 0.0 0.0 0.0
0.0 -1.680433764396781e-07 -1.0793184899027673e-08 8.54508648894806e-09 2.2480984100807976e-09 -2.827633481288059e-08 0.0 0.0
0.0 -1.6292444588205694e-06 2.905971927114308e-07 -2.3123234681017807e-07 -5.936484590128161e-08 6.601803413095119e-07 0.0 0.0
0.0 8.897985358417459e-06 5.905208341401104e-06 -5.99094162722934e-06 8.573328582830655e-08 1.5211132145742806e-05 0.0 0.0
0.0 0.0003697829772847887 -0.00035752364799073713 0.0002676248873417844 8.989876064895253e-05 -0.00015732002561333325 0.0 0.0
0.0 0.0020342140004187183 -0.0016306822410724728 0.001301741973330928 0.000328940267741545 -0.000623442158617793 0.0 0.0
0.0 0.004802797766893553 -0.0042725314252615556 0.0036767380876872218 0.0005957933375743327 -0.0017456449144400005 0.0 0.0
0.0 0.009399791264529559 -0.008231544375105026 0.0074713172315942905 0.0007602271435107394 -0.003408613219366557 0.0 0.0
0.0 0.015444206655365882 -0.013403677009786997 0.012543541959644458 0.0008601350501425486 -0.005378180756437389 0.0 0.0
0.0 0.02276926565631927 -0.01965059792302129 0.018710181420064465 0.0009404165029568015 -0.007487094886396381 0.0 0.0
0.0 0.031223493475445778 -0.026857432735611485 0.02583682289094791 0.00102060984466356 -0.009570111914712754 0.0 0.0
0.0 0.040814425323718095 -0.034990670398916845 0.03388583733194349 0.0011048330669733435 -0.01159974712502861 0.0 0.0
0.0 0.05121045371217037 -0.044107552263437516 0.042917462457585306 0.0011900898058522227 -0.01365167357523481 0.0 0.0
0.0 0.0631246446833291 -0.054274414406788554 0.053005131175607734 0.0012692832311808507 -0.015795293693293074 0.0 0.0
0.0 0.07614488161239497 -0.06541585786152941 0.06409273422842612 0.0013231236331031717 -0.018144532327080652 0.0 0.0
0.0 0.08932494020578496 -0.0768638747204093 0.07555689566002471 0.0013069790603845426 -0.021162943733832373 0.0 0.0
0.0 0.10096972888596094 -0.08672338077765201 0.08555005360729225 0.0011733271703597819 -0.02566450099155183 0.0 0.0
0.0 0.10705623550214927 -0.09152279336905876 0.09060577342506188 0.0009170199439967631 -0.03185539381522253 0.0 0.0
0.0 0.10197816403270783 -0.08634508488336164 0.08579465676214623 0.0005504281212153939 -0.038999902647342065 0.0 0.0
0.0 0.09274295742822662 -0.07564971937473133 0.07034122414193941 0.00530849523279195 1.8878128227317603e-14 0.0 0.0
0.0 0.10197816403269956 -0.08634508488334926 0.08579465676213444 0.000550428121214774 0.038999902647382984 0.0 0.0
0.0 0.10705623550212093 -0.0915227933690308 0.09060577342503402 0.0009170199439966632 0.03185539381526086 0.0 0.0
0.0 0.10096972888591649 -0.08672338077761252 0.0855500536072529 0.0011733271703596158 0.025664500991572633 0.0 0.0
0.0 0.08932494020572819 -0.07686387472036 0.07555689565997548 0.001306979060384507 0.021162943733834087 0.0 0.0
0.0 0.07614488161233535 -0.06541585786147754 0.06409273422837473 0.0013231236331027814 0.018144532327074768 0.0 0.0
0.0 0.06312464468326533 -0.05427441440673348 0.05300513117555314 0.0012692832311802878 0.015795293693283394 0.0 0.0
0.0 0.05121045371211111 -0.044107552263386085 0.04291746245753492 0.0011900898058511628 0.013651673575223549 0.0 0.0
0.0 0.040814425323658705 -0.034990670398865206 0.03388583733189226 0.0011048330669729777 0.011599747125015318 0.0 0.0
0.0 0.031223493475385975 -0.0268574327355601 0.025836822890897115 0.0010206098446629702 0.009570111914694802 0.0 0.0
0.0 0.022769265656265567 -0.01965059792297542 0.018710181420018818 0.0009404165029566107 0.007487094886376108 0.0 0.0
0.0 0.015444206655326122 -0.013403677009752516 0.012543541959610618 0.0008601350501418817 0.0053781807564222414 0.0 0.0
0.0 0.009399791264498804 -0.008231544375078077 0.007471317231568047 0.0007602271435100238 0.003408613219355043 0.0 0.0
0.0 0.004802797766873 -0.0042725314252436315 0.003676738087670511 0.000595793337573122 0.0017456449144321769 0.0 0.0
0.0 0.0020342140004059824 -0.0016306822410623977 0.0013017419733224315 0.000328940267739964 0.0006234421586131186 0.0 0.0
0.0 0.0003697829772804441 -0.00035752364798770494 0.00026762488733947615 8.989876064822838e-05 0.0001573200256121647 0.0 0.0
0.0 8.897985357809105e-06 5.905208340992612e-06 -5.990941626894424e-06 8.573328590194667e-08 -1.5211132145069927e-05 0.0 0.0
0.0 -1.6292444591602479e-06 2.905971928222196e-07 -2.312323468964904e-07 -5.936484592572793e-08 -6.601803414619885e-07 0.0 0.0
0.0 -1.6804337643450485e-07 -1.0793184898566844e-08 8.545086488621468e-09 2.248098409945835e-09 2.8276334812116163e-08 0.0 0.0
0.0 0.0 0.0 0.0 0.0 0.0 0.0 0.0
0.0 0.0 0.0 0.0 0.0 0.0 0.0 0.0
0.0 0.0 0.0 0.0 0.0 0.0 0.0 0.0
0.0 0.0 0.0 0.0 0.0 0.0 0.0 0.0
0.0 0.0 0.0 0.0 0.0 0.0 0.0 0.0
0.0 -2.37690466723036e-06 1.1992226369687614e-06 -9.59887334524603e-07 -2.3933530244415017e-07 1.625822488231425e-06 0.0 0.0
0.0 5.4339390445031655e-05 -2.7521013746088045e-05 1.7840558140307567e-05 9.680455605780746e-06 2.767408920488899e-06 0.0 0.0
0.0 0.0007671433025505481 -0.0006430265169482601 0.0004863592347689864 0.00015666728217927364 -0.00014046682710394453 0.0 0.0
0.0 0.0027843998892965217 -0.00243792576013772 0.0019971607790430085 0.000440764981094709 -0.0006164431943796577 0.0 0.0
0.0 0.006288911606518996 -0.005647658407089122 0.004967318368300485 0.0006803400387886409 -0.0016256814826562144 0.0 0.0
0.0 0.011621346850308857 -0.010269254041952636 0.009443739113140727 0.000825514928811893 -0.0029985918324808764 0.0 0.0
0.0 0.018617846251087342 -0.01626551052069365 0.015344332484147866 0.0009211780365457872 -0.004655397983973086 0.0 0.0
0.0 0.027030909066535977 -0.02351986466273389 0.022514010710960597 0.001005853951773277 -0.006435338614049465 0.0 0.0
0.0 0.03686538641586329 -0.03192555734653858 0.030832430417322202 0.001093126929216379 -0.008197360723779345 0.0 0.0
0.0 0.04777343632254571 -0.041450322644607934 0.040265661422488934 0.0011846612221190107 -0.009926933272423466 0.0 0.0
0.0 0.06036319371753187 -0.052114604485429684 0.05084056451822622 0.0012740399672033834 -0.011714111359191535 0.0 0.0
0.0 0.07395587604140323 -0.06394435971048543 0.06258765836425734 0.0013567013462281125 -0.01360212740187174 0.0 0.0
0.0 0.08864822944465905 -0.07680504870149592 0.07538504846182724 0.0014200002396687883 -0.015486682407220193 0.0 0.0
0.0 0.10402226190178142 -0.09002306252912418 0.08860491032392853 0.0014181522051956196 -0.017438165300144887 0.0 0.0
0.0 0.11756327663323633 -0.10161923974804464 0.10035007529374049 0.0012691644543041088 -0.020637380858776127 0.0 0.0
0.0 0.12497742953387764 -0.10766622892688316 0.10671278277728476 0.0009534461495983687 -0.027413426926905907 0.0 0.0
0.0 0.12007997506024787 -0.10250362618511416 0.1019882817957686 0.0005153443893457467 -0.03895598485063714 0.0 0.0
0.0 0.11011149882177462 -0.09090731816096521 0.08517233725186117 0.005734980909104029 1.578771835486492e-14 0.0 0.0
0.0 0.12007997506023299 -0.1025036261850974 0.10198828179575208 0.000515344389345353 0.03895598485067254 0.0 0.0
0.0 0.12497742953383861 -0.1076662289268475 0.10671278277724855 0.0009534461495989441 0.027413426926940206 0.0 0.0
0.0 0.1175632766331812 -0.10161923974799682 0.10035007529369237 0.0012691644543043725 0.02063738085879402 0.0 0.0
0.0 0.10402226190171573 -0.09002306252906732 0.08860491032387177 0.0014181522051955001 0.017438165300146816 0.0 0.0
0.0 0.08864822944459 -0.07680504870143592 0.0753850484617677 0.0014200002396682514 0.015486682407216618 0.0 0.0
0.0 0.07395587604133473 -0.06394435971042577 0.06258765836419876 0.0013567013462269884 0.013602127401865113 0.0 0.0
0.0 0.060363193717461565 -0.052114604485368664 0.05084056451816591 0.0012740399672027173 0.011714111359182091 0.0 0.0
0.0 0.04777343632247591 -0.04145032264454763 0.04026566142242896 0.0011846612221187158 0.00992693327241357 0.0 0.0
0.0 0.036865386415798396 -0.03192555734648189 0.030832430417266375 0.0010931269292155368 0.008197360723765671 0.0 0.0
0.0 0.027030909066475758 -0.023519864662681893 0.02251401071090877 0.0010058539517731207 0.0064353386140323056 0.0 0.0
0.0 0.018617846251040078 -0.016265510520652667 0.015344332484107458 0.0009211780365451979 0.004655397983959322 0.0 0.0
0.0 0.011621346850272593 -0.010269254041920754 0.009443739113109483 0.0008255149288112757 0.0029985918324708575 0.0 0.0
0.0 0.0062889116064944565 -0.005647658407066927 0.0049673183682794764 0.000680340038787452 0.0016256814826487928 0.0 0.0
0.0 0.002784399889282419 -0.0024379257601256886 0.0019971607790324865 0.0004407649810932022 0.0006164431943756783 0.0 0.0
0.0 0.0007671433025441308 -0.0006430265169433616 0.00048635923476519265 0.00015666728217816794 0.00014046682710272003 0.0 0.0
0.0 5.433939044348435e-05 -2.7521013745450212e-05 1.784055813986316e-05 9.680455605586973e-06 -2.767408920435776e-06 0.0 0.0
0.0 -2.376904667049023e-06 1.1992226363776209e-06 -9.59887334082838e-07 -2.393353022947774e-07 -1.625822487744381e-06 0.0 0.0
0.0 0.0 0.0 0.0 0.0 0.0 0.0 0.0
0.0 0.0 0.0 0.0 0.0 0.0 0.0 0.0
0.0 0.0 0.0 0.0 0.0 0.0 0.0 0.0
0.0 0.0 0.0 0.0 0.0 0.0 0.0 0.0
0.0 0.0 0.0 0.0 0.0 0.0 0.0 0.0
0.0 0.0 0.0 0.0 0.0 0.0 0.0 0.0
0.0 -2.601020678573535e-06 2.92537525082906e-06 -2.3374370517436163e-06 -5.87938199085459e-07 2.4027062516814624e-06 0.0 0.0
0.0 0.00011922611801775087 -0.0001183127066520529 8.309851051922274e-05 3.521419613283008e-05 2.280445618915348e-06 0.0 0.0
0.0 0.0012874071906933287 -0.0010518643403634748 0.000811151949061753 0.00024071239130172103 -7.506584661915502e-05 0.0 0.0
0.0 0.0035780079305452336 -0.0033512151893184267 0.0028148402046358836 0.0005363749846825471 -0.0004933467933474827 0.0 0.0
0.0 0.007861001366701913 -0.007066635153689608 0.006318328362121125 0.0007483067915684899 -0.0012091678190851384 0.0 0.0
0.0 0.013880977722847148 -0.01232695600806662 0.01144751486010098 0.0008794411479656276 -0.002211077569768659 0.0 0.0
0.0 0.021789278091759255 -0.01912884055200202 0.018153645336171503 0.0009751952158305156 -0.00342438489969482 0.0 0.0
0.0 0.031382301279960174 -0.027381332216633966 0.026315260379688142 0.0010660718369458124 -0.004734512502738833 0.0 0.0
0.0 0.042433368676614173 -0.036988910128342066 0.03582840773453001 0.0011605023938120397 -0.0060346625513436275 0.0 0.0
0.0 0.05524159107098363 -0.04790732199540847 0.0466491961415857 0.0012581258538227678 -0.0073268114906524864 0.0 0.0
0.0 0.06910682756468557 -0.06013790303266886 0.05878514228725435 0.0013527607454144734 -0.008712207518680853 0.0 0.0
0.0 0.08467434044577485 -0.07359875610125982 0.07216376348363995 0.00143499261761993 -0.01019158151899152 0.0 0.0
0.0 0.10134503249260858 -0.0880211579173142 0.08652704356491052 0.0014941143524036006 -0.0115491960763994 0.0 0.0
0.0 0.1183302847693802 -0.10271949472763216 0.1012071348517073 0.001512359875924932 -0.01248800651769094 0.0 0.0
0.0 0.1336298607307831 -0.11595272880145407 0.11453700795357113 0.0014157208478829506 -0.013778115152803038 0.0 0.0
0.0 0.1429107991907903 -0.1237456115837103 0.12270806439683009 0.0010375471868801463 -0.019594894643210813 0.0 0.0
0.0 0.13903446030894961 -0.11944303756509861 0.11900665229672093 0.0004363852683775455 -0.036492287127238156 0.0 0.0
0.0 0.1289740969621556 -0.10738729779434908 0.10132461327758518 0.00606268451676377 1.0845491171806998e-14 0.0 0.0
0.0 0.1390344603089287 -0.11944303756507794 0.11900665229670081 0.0004363852683771579 0.03649228712726534 0.0 0.0
0.0 0.14291079919074437 -0.12374561158366956 0.12270806439678925 0.0010375471868804178 0.019594894643238003 0.0 0.0
0.0 0.13362986073072014 -0.11595272880139973 0.1145370079535167 0.0014157208478829644 0.013778115152815842 0.0 0.0
0.0 0.11833028476930743 -0.10271949472756889 0.10120713485164456 0.0015123598759244987 0.012488006517693087 0.0 0.0
0.0 0.10134503249253016 -0.08802115791724588 0.08652704356484338 0.001494114352402548 0.011549196076397499 0.0 0.0
0.0 0.0846743404456947 -0.0735987561011903 0.07216376348357117 0.0014349926176191149 0.010191581518987858 0.0 0.0
0.0 0.06910682756460355 -0.06013790303259789 0.05878514228718403 0.0013527607454139172 0.008712207518673064 0.0 0.0
0.0 0.05524159107090219 -0.04790732199533777 0.0466491961415154 0.0012581258538223545 0.007326811490645005 0.0 0.0
0.0 0.042433368676538685 -0.03698891012827686 0.03582840773446537 0.001160502393811426 0.006034662551333776 0.0 0.0
0.0 0.0313823012798959 -0.027381332216577636 0.026315260379632263 0.0010660718369453846 0.004734512502726169 0.0 0.0
0.0 0.021789278091706547 -0.019128840551955583 0.01815364533612563 0.0009751952158299582 0.0034243848996842914 0.0 0.0
0.0 0.013880977722807837 -0.01232695600803157 0.011447514860066763 0.000879441147964815 0.0022110775697616386 0.0 0.0
0.0 0.007861001366673899 -0.007066635153664408 0.006318328362096895 0.0007483067915675071 0.0012091678190794032 0.0 0.0
0.0 0.003578007930529983 -0.003351215189304294 0.00281484020462312 0.0005363749846811783 0.0004933467933444461 0.0 0.0
0.0 0.001287407190685643 -0.001051864340357056 0.0008111519490565782 0.00024071239130047688 7.506584661817686e-05 0.0 0.0
0.0 0.00011922611801581046 -0.00011831270665115009 8.309851051861268e-05 3.521419613253728e-05 -2.2804456185476334e-06 0.0 0.0
0.0 -2.6010206787586476e-06 2.925375250656061e-06 -2.3374370516164055e-06 -5.879381990396758e-07 -2.4027062516784224e-06 0.0 0.0
0.0 0.0 0.0 0.0 0.0 0.0 0.0 0.0
0.0 0.0 0.0 0.0 0.0 0.0 0.0 0.0
0.0 0.0 0.0 0.0 0.0 0.0 0.0 0.0
0.0 0.0 0.0 0.0 0.0 0.0 0.0 0.0
0.0 0.0 0.0 0.0 0.0 0.0 0.0 0.0
0.0 0.0 0.0 0.0 0.0 0.0 0.0 0.0
0.0 -5.013355838521787e-06 3.773348322370193e-06 -3.266340019742149e-06 -5.070083026280401e-07 3.0773731343664465e-06 0.0 0.0
0.0 0.00032522241477858643 -0.00024892382791115106 0.00017767556252374936 7.124826538740197e-05 4.699124423299287e-05 0.0 0.0
0.0 0.0017906287103239796 -0.0015810109146704983 0.0012482771258341735 0.00033273378883632475 5.173504444172365e-05 0.0 0.0
0.0 0.004674727980985472 -0.004302090187812362 0.003691719124471846 0.0006103710633405154 -0.0001662893187656529 0.0 0.0
0.0 0.009450675646315144 -0.008506624653193505 0.007703830213363307 0.0008027944398301925 -0.0005349964258650672 0.0 0.0
0.0 0.0162200946352244 -0.014377983930208905 0.013452737370211196 0.0009252465599977133 -0.001052561702136526 0.0 0.0
0.0 0.024959795251472516 -0.021967331177636773 0.020942635020687054 0.001024696156949706 -0.0016923363129586872 0.0 0.0
0.0 0.035651859074027833 -0.031210611262122455 0.03008856888463594 0.0011220423774865324 -0.0023846039742798277 0.0 0.0
0.0 0.04828975334520023 -0.0420202927223773 0.040797369578667086 0.0012229231437102122 -0.003082193535273752 0.0 0.0
0.0 0.062227154585590506 -0.05434766260285631 0.053020577428468565 0.0013270851743876803 -0.0038217953865189547 0.0 0.0
0.0 0.07813447452757945 -0.06812865225490375 0.06670241081592163 0.0014262414389820742 -0.004633388349753449 0.0 0.0
0.0 0.09552014903345134 -0.08319454716772215 0.08168800614386779 0.00150654102385442 -0.005497166665757623 0.0 0.0
0.0 0.11390223052863141 -0.09910194307424203 0.09754669971855183 0.0015552433556901457 -0.006273142388526496 0.0 0.0
0.0 0.13229075133955104 -0.11498901649705515 0.11342193224008978 0.001567084256965425 -0.006620489700480833 0.0 0.0
0.0 0.1489530887365609 -0.12939118642210998 0.1278449945711898 0.0015461918509202435 -0.006514728526353297 0.0 0.0
0.0 0.1604149140688493 -0.13928841485374788 0.13794472189254517 0.001343692961202518 -0.009047175211264951 0.0 0.0
0.0 0.15921600617778306 -0.1375587895461734 0.1371840004349829 0.0003747891111904791 -0.02659120117778561 0.0 0.0
0.0 0.15051875104775161 -0.126177826161296 0.12018653519181473 0.005991290969481229 6.107961358914338e-15 0.0 0.0
0.0 0.15921600617775833 -0.13755878954615078 0.13718400043496018 0.00037478911119042925 0.02659120117780188 0.0 0.0
0.0 0.16041491406879968 -0.13928841485370438 0.13794472189250212 0.0013436929612021186 0.009047175211280546 0.0 0.0
0.0 0.14895308873648974 -0.12939118642204842 0.1278449945711286 0.0015461918509197276 0.006514728526359833 0.0 0.0
0.0 0.13229075133946766 -0.11498901649698338 0.11342193224001763 0.0015670842569657666 0.006620489700481917 0.0 0.0
0.0 0.11390223052853957 -0.09910194307416241 0.0975466997184725 0.0015552433556898528 0.0062731423885254295 0.0 0.0
0.0 0.09552014903336185 -0.08319454716764457 0.08168800614379079 0.0015065410238538353 0.0054971666657548796 0.0 0.0
0.0 0.07813447452748903 -0.0681286522548251 0.06670241081584402 0.0014262414389810023 0.004633388349749986 0.0 0.0
0.0 0.06222715458550162 -0.05434766260277931 0.05302057742839188 0.0013270851743873865 0.003821795386515092 0.0 0.0
0.0 0.04828975334511523 -0.04202029272230342 0.04079736957859375 0.001222923143709667 0.0030821935352674614 0.0 0.0
0.0 0.03565185907395639 -0.031210611262060515 0.030088568884574545 0.0011220423774859682 0.002384603974272878 0.0 0.0
0.0 0.0249597952514144 -0.021967331177585613 0.020942635020636573 0.001024696156949033 0.001692336312953127 0.0 0.0
0.0 0.01622009463518009 -0.014377983930169478 0.013452737370172371 0.00092524655999709 0.0010525617021329581 0.0 0.0
0.0 0.009450675646282538 -0.008506624653164149 0.007703830213334796 0.0008027944398293463 0.0005349964258621122 0.0 0.0
0.0 0.004674727980965472 -0.0043020901877938895 0.003691719124454647 0.0006103710633392392 0.0001662893187636429 0.0 0.0
0.0 0.0017906287103145713 -0.0015810109146622525 0.0012482771258273237 0.00033273378883492776 -5.1735044441884694e-05 0.0 0.0
0.0 0.00032522241477590287 -0.00024892382790955565 0.0001776755625226388 7.124826538691696e-05 -4.6991244232456244e-05 0.0 0.0
0.0 -5.013355838535277e-06 3.7733483218968023e-06 -3.266340019391208e-06 -5.070083025055389e-07 -3.07737313429989e-06 0.0 0.0
0.0 0.0 0.0 0.0 0.0 0.0 0.0 0.0
0.0 0.0 0.0 0.0 0.0 0.0 0.0 0.0
0.0 0.0 0.0 0.0 0.0 0.0 0.0 0.0
0.0 0.0 0.0 0.0 0.0 0.0 0.0 0.0
0.0 0.0 0.0 0.0 0.0 0.0 0.0 0.0
0.0 0.0 0.0 0.0 0.0 0.0 0.0 0.0
0.0 9.27476216599202e-06 -7.94879140131554e-06 4.773621045070822e-06 3.1751703562448426e-06 5.396617492706492e-06 0.0 0.0
0.0 0.0005920861982985355 -0.00042844730520456316 0.00030462136505317425 0.00012382594015138896 0.00011296002755148039 0.0 0.0
0.0 0.002330597495900412 -0.002062807123830476 0.00161290901509447 0.0004498981087360057 0.00026799393569316684 0.0 0.0
0.0 0.0055366952604286755 -0.005110657233666216 0.004335771676606075 0.000774885557060142 0.0003468940681731861 0.0 0.0
0.0 0.01071106438890384 -0.009696865430470662 0.008664224276427067 0.0010326411540435877 0.0003914329282219065 0.0 0.0
0.0 0.017941251782620363 -0.01606040109637846 0.014810393366803704 0.0012500077295747474 0.0003942234900776798 0.0 0.0
0.0 0.0273927238432865 -0.024290831168512703 0.022812017034367228 0.0014788141341454792 0.00032479367144154676 0.0 0.0
0.0 0.03901200536345697 -0.0343556827633367 0.03261196881890906 0.0017437139444276065 0.00022466670213589814 0.0 0.0
0.0 0.05237909919081247 -0.04617968279365008 0.04412951527729787 0.002050167516352194 9.134488351540335e-05 0.0 0.0
0.0 0.06775033595389629 -0.05967297682914441 0.05728453570150831 0.0023884411276360778 -0.00012612032531761266 0.0 0.0
0.0 0.08494790322119568 -0.07473176710371221 0.07198932007103527 0.002742447032677025 -0.00039485180354351807 0.0 0.0
0.0 0.10370728691418798 -0.09111859536047688 0.08803558610604134 0.0030830092544353507 -0.0007641196780994652 0.0 0.0
0.0 0.12340706551654065 -0.1082485401075561 0.10487895619126861 0.003369583916287501 -0.0011893824439628154 0.0 0.0
0.0 0.14277251777325628 -0.12503778663588977 0.12148569222712283 0.0035520944087667756 -0.0014877183975452561 0.0 0.0
0.0 0.15996820445603493 -0.1399128798478762 0.1363227598319266 0.003590120015949514 -0.001381871644806706 0.0 0.0
0.0 0.17252651271732988 -0.15093265739661932 0.14732719341309128 0.0036054639835282195 -0.002353728626533441 0.0 0.0
0.0 0.1749882595831857 -0.15357152386016804 0.14994612045748357 0.0036254034026844805 -0.019523145015579363 0.0 0.0
0.0 0.17077124808768698 -0.14533988196619543 0.13510217694236426 0.010237705023831008 1.7486012637846216e-15 0.0 0.0
0.0 0.17498825958315734 -0.15357152386014333 0.1499461204574587 0.0036254034026845603 0.019523145015585386 0.0 0.0
0.0 0.17252651271727576 -0.15093265739657213 0.14732719341304534 0.00360546398352686 0.0023537286265394395 0.0 0.0
0.0 0.1599682044559556 -0.13991287984780665 0.13632275983185957 0.0035901200159472553 0.0013818716448076168 0.0 0.0
0.0 0.14277251777316183 -0.12503778663580783 0.12148569222704121 0.003552094408766397 0.0014877183975450983 0.0 0.0
0.0 0.1234070655164376 -0.1082485401074667 0.10487895619117972 0.003369583916286914 0.0011893824439635978 0.0 0.0
0.0 0.10370728691409292 -0.09111859536039355 0.0880355861059601 0.0030830092544333262 0.0007641196780970912 0.0 0.0
0.0 0.0849479032211001 -0.07473176710362792 0.07198932007095438 0.002742447032673505 0.00039485180354243907 0.0 0.0
0.0 0.06775033595380076 -0.05967297682906126 0.0572845357014261 0.002388441127635194 0.0001261203253164981 0.0 0.0
0.0 0.052379099190722325 -0.046179682793571396 0.044129515277220865 0.0020501675163504688 -9.134488351882249e-05 0.0 0.0
0.0 0.039012005363379725 -0.034355682763269065 0.032611968818842874 0.0017437139444261974 -0.00022466670213821486 0.0 0.0
0.0 0.027392723843224054 -0.024290831168458146 0.022812017034314187 0.0014788141341439734 -0.00032479367144306335 0.0 0.0
0.0 0.017941251782571326 -0.016060401096335313 0.014810393366761578 0.0012500077295737513 -0.00039422349007824055 0.0 0.0
0.0 0.010711064388868003 -0.009696865430438316 0.008664224276396088 0.0010326411540422123 -0.00039143292822174246 0.0 0.0
0.0 0.005536695260405115 -0.005110657233644424 0.004335771676585853 0.0007748855570585671 -0.0003468940681729721 0.0 0.0
0.0 0.0023305974958905662 -0.002062807123821 0.0016129090150866546 0.00044989810873434727 -0.0002679939356919109 0.0 0.0
0.0 0.0005920861982948864 -0.0004284473052019939 0.0003046213650513471 0.00012382594015064783 -0.00011296002755080593 0.0 0.0
0.0 9.274762165773757e-06 -7.948791401310295e-06 4.7736210450765476e-06 3.175170356233733e-06 -5.3966174926542835e-06 0.0 0.0
0.0 0.0 0.0 0.0 0.0 0.0 0.0 0.0
0.0 0.0 0.0 0.0 0.0 0.0 0.0 0.0
0.0 0.0 0.0 0.0 0.0 0.0 0.0 0.0
SCALARS Wm float 4
LOOKUP_TABLE default
12.147911809608733 1.9934642473832285 5.021026042958058 5.133421519267449
5.955466171467801 2.8802660258468222 1.3695421959684373 1.7056579496525457
0.6649588815038574 0.629334419231637 0.003353590535882247 0.03227087173633782
0.5115839269752839 0.4894654561888473 0.006001064287656855 0.016117406498779942
1.0023862812861521 0.7445892375539339 0.09151723831990997 0.1662798054123079
2.125837791871314 1.0556702577798402 0.3865614490834822 0.6836060850079906
4.360129909594675 1.4937994810266049 1.2116453422742448 1.654685086293827
7.979126471552476 2.0279047100921272 2.7501223952637073 3.2010993661966385
13.3188273283909 2.694940435782084 5.249818278557898 5.3740686140509215
20.636780471029468 3.5300255189783614 8.912227605884842 8.194527346166273
30.075818837939654 4.564123793641312 13.863453034345532 11.648242009952819
41.59071966796944 5.811565215756591 20.068712184784424 15.710442267428437
55.3281532105772 7.260188431987559 27.71339563498431 20.35456914360533
71.26357242835901 8.897793703753274 36.81086219035668 25.554916534249074
89.19887559241519 10.604687916297742 47.3457611204011 31.248426555716296
108.59935486477848 12.167488898337838 59.13576930021358 37.29609666622708
128.42520040675117 13.323630944435497 71.6337905349736 43.46777892734205
147.23087816529406 13.865778072838197 83.99938333699511 49.36571675546076
163.41910538699514 13.822394364669538 95.08698912794227 54.509721894383375
174.78121911015884 13.07622287532451 103.35857728227215 58.34641895256199
178.512175294261 11.724952379318864 106.81183135040595 59.97539156453618
174.78121911013363 13.07622287532086 103.35857728225692 58.34641895255584
163.41910538693745 13.822394364661072 95.0869891279088 54.50972189436752
147.2308781652156 13.865778072831217 83.99938333694662 49.36571675543768
128.42520040666483 13.323630944432374 71.63379053491757 43.46777892731485
108.59935486469712 12.167488898341183 59.135769300157556 37.29609666619847
89.19887559232629 10.604687916288809 47.3457611203489 31.248426555688585
71.26357242827017 8.897793703741414 36.81086219030731 25.55491653422142
55.32815321048977 7.260188431974914 27.713395634937264 20.35456914357763
41.59071966789577 5.811565215748976 20.068712184743823 15.710442267402994
30.075818837877918 4.564123793631303 13.86345303431464 11.648242009931952
20.63678047098536 3.5300255189759575 8.912227605860808 8.1945273461486
13.318827328355447 2.6949404357757722 5.249818278541951 5.374068614037723
7.979126471529548 2.0279047100874807 2.75012239525435 3.2010993661877203
4.360129909581827 1.4937994810245923 1.2116453422691869 1.654685086288048
2.125837791864801 1.0556702577784287 0.38656144908165385 0.6836060850047183
1.002386281283413 0.7445892375525964 0.09151723831937092 0.16627980541144585
0.5115839269745142 0.4894654561882243 0.0060010642876042524 0.016117406498685743
0.664958881502988 0.6293344192309522 0.0033535905358392207 0.03227087173619603
5.955466171463501 2.880266025848236 1.3695421959656633 1.705657949649601
12.14791180958061 1.9934642473687805 5.021026042950562 5.133421519261275
14.418475757592027 6.333348577939016 3.8798557096549047 4.2052714699981015
2.3380754159555828 0.5119936562862347 0.760268293724367 1.0658134659449807
0.25917219790528156 0.29610638765096137 -0.011375812598422227 -0.02555837714725768
0.4010739939416826 0.39550991108582434 0.0009032531151685137 0.0046608297406895635
0.7600483023840163 0.6113490130881072 0.04478169737328931 0.1039175919226199
1.7018004837293177 0.8885853443437145 0.2976112714719683 0.5156038679136353
3.5784821956275885 1.1984414003564778 0.9788268455632629 1.4012139497078466
6.753579068618058 1.5718842280259917 2.3545010952039025 2.8271937453881644
11.46681540865974 1.9959338969732598 4.622893867580402 4.847987644106078
17.876854684263197 2.475695180622882 7.931153580130241 7.470005923510065
26.074388138319822 3.0116202072174643 12.392169193665131 10.67059873743722
36.148079101663434 3.6184122697703054 18.110679562801256 14.418987269091875
47.93374566449153 4.308136224663103 24.922588850778276 18.703020589050148
61.723940445663956 5.057836663771198 33.16298429997892 23.503119481913856
77.29212225446189 5.816162842626375 42.69745830870582 28.77850110312971
94.2368508827654 6.466150212194462 53.36810008555815 34.40260058501275
111.75450263276944 6.8636938706232185 64.76158174470679 40.129227017439405
128.63357178979572 6.905165824549654 76.10004952122934 45.62835644401672
143.24500669544955 6.522512311512128 86.28183003018341 50.440664353753974
153.56841879490239 5.763184349357839 93.86431433294908 53.94092011259548
157.43059357310497 4.912696072951243 97.10424398584169 55.4136535143121
153.56841879488434 5.7631843493606985 93.86431433293475 53.94092011258894
143.24500669540112 6.5225123115070645 86.28183003015396 50.44066435374018
128.63357178972703 6.905165824543362 76.10004952118709 45.62835644399656
111.7545026326928 6.863693870620727 64.7615817446573 40.12922701741473
94.23685088268877 6.466150212193988 53.36810008550782 34.40260058498696
77.29212225438073 5.816162842616273 42.69745830865972 28.77850110310473
61.723940445592376 5.0578366637715755 33.162984299932894 23.503119481887918
47.93374566441926 4.308136224659333 24.922588850735536 18.703020589024376
36.148079101599265 3.6184122697668037 18.11067956276432 14.418987269068117
26.07438813826865 3.011620207214817 12.392169193636434 10.670598737417395
17.87685468422294 2.4756951806200105 7.931153580109012 7.470005923493914
11.466815408630213 1.995933896970614 4.622893867565939 4.847987644093657
6.753579068598521 1.5718842280230836 2.35450109519554 2.8271937453798994
3.578482195616606 1.198441400355586 0.9788268455586776 1.4012139497023417
1.7018004837238414 0.8885853443424019 0.2976112714702232 0.5156038679112166
0.7600483023822104 0.6113490130870859 0.04478169737299755 0.10391759192212725
0.4010739939413129 0.3955099110854161 0.0009032531151695114 0.004660829740727201
0.2591721979053094 0.29610638765084385 -0.011375812598365717 -0.025558377147168753
2.338075415948888 0.5119936562850184 0.7602682937217132 1.0658134659421568
14.41847575756667 6.333348577928009 3.879855709647258 4.205271469991392
10.822681768920432 5.0109776745209 2.6728139191087754 3.1388901752907588
1.443347591245409 0.19840519961280692 0.5046003110386945 0.740342080593908
0.16305314326902545 0.16302627106117476 2.855319553003441e-06 2.4016888297696794e-05
0.299601678118729 0.30175830393685943 -0.00046620379964540224 -0.0016904220184850364
0.5790262578045251 0.5218454998245455 0.014017306468418513 0.0431634515115612
1.3234820727258543 0.7969209443803914 0.1857535242166061 0.340807604128857
2.891084348984368 1.0956517739840677 0.7064363220599674 1.088996252940333
5.659697608461165 1.447575609338595 1.8640439862945732 2.3480780128279974
9.80163528838271 1.8327401222028565 3.8070726914226816 4.161822474757173
15.461317955562533 2.253492934192082 6.688974845172756 6.518850176197696
22.658267770155867 2.7172307646183533 10.558003700368323 9.383033305169183
31.380556597566812 3.2379397160938423 15.418747600508881 12.72386928096408
41.8176306147432 3.8387673786330736 21.454146474384626 16.524716761725486
53.75636212812426 4.5100443276048745 28.450758821821896 20.795558978697482
67.40250480745333 5.195389128724943 36.710455092535966 25.496660586192405
82.32899641936683 5.814957841691794 45.98006954058174 30.53396903709331
97.8732958454646 6.25057016191203 55.90549597923466 35.71722970431792
112.94151912663635 6.366955110259506 65.866608054462 40.7079559619148
126.00021325524533 6.055892912400916 74.87158588800479 45.07273445483969
135.26628980003267 5.474890883953523 81.5623923440737 48.22900657200538
138.6101733544149 4.447549485846078 84.5324802492331 49.630143619335776
135.26628980001536 5.474890883955295 81.56239234406088 48.22900657199908
126.00021325521212 6.055892912406728 74.87158588797845 45.07273445482694
112.94151912657901 6.366955110254963 65.86660805442683 40.7079559618972
97.87329584540211 6.25057016191289 55.90549597919273 35.71722970429647
82.32899641929879 5.814957841689022 45.98006954053907 30.533969037070733
67.40250480738972 5.1953891287231775 36.71045509249612 25.4966605861704
53.75636212806006 4.510044327605385 28.45075882178111 20.795558978673544
41.817630614678826 3.8387673786261076 21.45414647434918 16.524716761703534
31.380556597508487 3.237939716087819 15.418747600477403 12.723869280943287
22.658267770110125 2.7172307646163056 10.558003700342962 9.383033305150857
15.461317955526994 2.2534929341879164 6.688974845155268 6.518850176183809
9.801635288355682 1.8327401221995843 3.8070726914101045 4.161822474745996
5.65969760844402 1.447575609336325 1.8640439862872262 2.3480780128204706
2.8910843489744407 1.095651773982169 0.706436322056531 1.0889962529357402
1.3234820727214478 0.7969209443790167 0.1857535242153985 0.34080760412703276
0.5790262578033528 0.5218454998236833 0.014017306468309296 0.043163451511360015
0.2996016781185572 0.30175830393655123 -0.0004662037996258195 -0.0016904220183682733
0.16305314326894005 0.16302627106108508 2.8553195532756737e-06 2.40168883017156e-05
1.4433475912405236 0.1984051996124659 0.5046003110366268 0.7403420805914306
10.822681768895984 5.010977674510351 2.6728139191016456 3.138890175283991
8.145739205478606 3.8973479777140074 1.8769890236137334 2.371402204150865
0.9617361098329567 0.09709776085727134 0.3304117892048004 0.5342265597708837
0.11466138826947442 0.11466138826947442 0.0 0.0
0.22545476459246444 0.22564465036400483 -1.4382159333132384e-05 -0.00017550361220723071
0.4415171216325789 0.4332083761327454 0.0011197826505666493 0.007188962849266792
0.9860597347452821 0.6882415324987633 0.0935323851354276 0.20428581711109145
2.2813248070592573 0.9962779162570611 0.4920974975597231 0.792949393242473
4.610376573723758 1.3181348456713906 1.4105980641966955 1.8816436638556704
8.19516112570916 1.6675201698985085 3.045253679719939 3.482387276090711
13.097896642460363 2.035915627871242 5.491486164016952 5.57049485057217
19.291606497961283 2.432128236507082 8.759876066274002 8.09960219518021
26.832284484469465 2.8805613224282856 12.91924117552699 11.032481986514194
35.66613569666132 3.396981873760135 17.90766321932949 14.361490603571712
46.07962214239513 3.9817830690517004 24.007174683616718 18.090664389726708
57.79108894401016 4.6064306710412435 30.965844055554342 22.21881421741459
70.66254960570132 5.199343787743817 38.794244708920495 26.668961109037006
84.30817166376085 5.663420805425952 47.372743527820006 31.272007330514857
97.64871145385663 5.860702658877884 56.022444824592434 35.76556397038633
109.31883313648999 5.67964205443137 63.89420765707527 39.744983424983296
117.73881488503848 5.216589581241725 69.83763271485722 42.68459258893957
120.78374408471599 3.9870087955690114 72.7288658317315 44.06786945741545
117.73881488502859 5.216589581249876 69.83763271484499 42.68459258893367
109.31883313645845 5.679642054436242 63.89420765705101 39.744983424971224
97.64871145381208 5.860702658878818 56.022444824562214 35.76556397037104
84.30817166370973 5.663420805429558 47.3727435277843 31.272007330495875
70.66254960564613 5.199343787746387 38.794244708883255 26.66896110901653
57.791088943952225 4.60643067103865 30.96584405551923 22.218814217394325
46.07962214234122 3.9817830690535776 24.00717468358203 18.090664389705605
35.66613569661241 3.3969818737615154 17.90766321929883 14.361490603552044
26.832284484420857 2.8805613224222313 12.91924117550186 11.03248198649677
19.29160649792083 2.432128236504002 8.759876066252644 8.09960219516419
13.097896642430701 2.035915627868984 5.491486164001903 5.570494850559809
8.195161125686157 1.6675201698957305 3.045253679709445 3.482387276080979
4.610376573709304 1.31813484566915 1.4105980641910005 1.8816436638491512
2.281324807051324 0.9962779162549499 0.4920974975571296 0.7929493932392447
0.9860597347421478 0.6882415324975786 0.09353238513467534 0.20428581710989427
0.44151712163181733 0.43320837613205876 0.0011197826505295744 0.007188962849229
0.22545476459234928 0.22564465036391965 -1.4382159336948092e-05 -0.0001755036122334231
0.11466138826924786 0.11466138826924786 0.0 0.0
0.9617361098287126 0.09709776085699275 0.3304117892030093 0.5342265597687109
8.145739205458783 3.8973479777059046 1.876989023608072 2.3714022041448075
6.040522738213699 3.0088414369330185 1.2722274050461775 1.7594538962345045
0.7037984289331627 0.10876532053664112 0.2324598497143355 0.36257325868218615
0.10439940816564428 0.10439940816564428 0.0 0.0
0.18038719523123553 0.18037659785857668 5.673536852320738e-07 1.0030018973637412e-05
0.3395236176908755 0.34514603562528556 -0.0020685485482182997 -0.003553869386191644
0.7243318429333324 0.5924488407404138 0.03626905477465185 0.09561394741826662
1.7263599277983481 0.8763639041012297 0.3180612291117095 0.5319347945854098
3.621880393387015 1.1850028306410525 1.0034276689044814 1.4334498938414812
6.644331872965167 1.4993505720298117 2.3316019222807203 2.8133793786546364
10.794892078505345 1.8208216152224055 4.3451828060394595 4.628887657243482
16.045370129922038 2.1603395965562724 7.0635756146468935 6.8214549187188664
22.37840895908387 2.538903010527579 10.490839078254286 9.348666870302011
29.86670958370932 2.982005045516849 14.681538003546992 12.203166534645487
38.44757782633717 3.491161343196663 19.551929828257578 15.40448665488293
48.377749880582236 4.041222352321409 25.38647945784451 18.950048070416305
59.4103844212613 4.603511934623801 32.01012162506905 22.796750861568476
71.05594859017876 5.097908999181043 39.1294486315543 26.828590959443414
82.7034899744756 5.391577526988905 46.50267787479823 30.80923457268845
93.12331416699443 5.350957383879038 53.371514828854416 34.40084195426098
100.90695864574117 4.9880411987369 58.76362420653108 37.15529324047314
103.77438031692753 3.5372549047075297 61.63516921988147 38.60195619233857
100.90695864572393 4.9880411987357975 58.7636242065204 37.1552932404677
93.12331416695793 5.350957383871263 53.37151482883551 34.400841954251156
82.70348997443715 5.391577526989973 46.50267787477245 30.809234572674715
71.05594859013121 5.097908999178728 39.12944863152497 26.828590959427512
59.410384421212555 4.603511934625165 32.01012162503714 22.79675086155025
48.37774988053183 4.041222352316421 25.386479457816087 18.95004807039934
38.447577826291926 3.4911613431987942 19.5519298282285 15.404486654864629
29.86670958366331 2.9820050455138154 14.681538003521307 12.203166534628172
22.378408959046286 2.538903010525869 10.49083907823347 9.348666870286952
16.045370129886997 2.160339596551725 7.06357561462979 6.8214549187054825
10.794892078479872 1.820821615221716 4.34518280602613 4.628887657232032
6.644331872946253 1.4993505720285867 2.331601922271869 2.813379378645796
3.6218803933748562 1.1850028306383666 1.003427668900108 1.4334498938363818
1.7263599277919448 0.8763639040997342 0.31806122910961404 0.5319347945825966
0.7243318429311825 0.5924488407394676 0.036269054774229294 0.09561394741748544
0.33952361769037226 0.3451460356246449 -0.002068548548198757 -0.0035538693860738308
0.1803871952310076 0.1803765978583808 5.67353682999229e-07 1.0030018943807805e-05
0.10439940816547116 0.10439940816547116 0.0 0.0
0.703798428929727 0.10876532053637332 0.2324598497128903 0.36257325868046375
6.040522738197846 3.0088414369267196 1.272227405041739 1.7594538962293877
4.394696986824651 2.304359779606475 0.83792495933066 1.2524122478875164
0.4981031900159834 0.14268129520153205 0.12233344670152807 0.2330884481129231
0.11746915052902852 0.11746915052902852 0.0 0.0
0.1587583095761643 0.15874206322925374 1.0862722813882162e-06 1.5160074629192278e-05
0.2731892604741231 0.2781397955912414 -0.0009831875633977284 -0.003967347553720558
0.5246106130147284 0.486844963682976 0.005724659120339865 0.03204099021141291
1.22005428611781 0.7387790731073716 0.15545653087052158 0.32581868213991705
2.749182989151024 1.0430510319528108 0.6944977613751044 1.0116341958231083
5.141567474692627 1.3255107320839559 1.6569853174350908 2.159071425173583
8.58515777513618 1.6084281389841752 3.2791307627335904 3.6975988734184124
12.899301197602902 1.8967509951207104 5.451283093559117 5.551267108923069
18.06822792871175 2.2155471674043365 8.178037409630388 7.6746433516770285
24.128279155016326 2.58934110889221 11.480921801436233 10.058016244687886
31.204567996298056 3.025125897369913 15.452493243076058 12.726948855852104
39.26981908553494 3.518015512002362 20.054837877696688 15.696965695835885
48.27992928287016 4.029859956774782 25.310126255098055 18.93994307099732
58.1856196121165 4.532413799138576 31.288384518922207 22.36482129405572
68.1444152806386 4.937226999517741 37.374592467728064 25.832595813392786
77.31763274047027 5.053621878609238 43.19727002506342 29.066740836797614
84.60920847930495 4.791006528091273 48.14339124672928 31.6748107044844
87.40623407949745 3.1068873807246518 51.08630025114907 33.213046447623746
84.60920847929542 4.791006528094024 48.1433912467213 31.674810704480045
77.31763274045498 5.053621878616852 43.197270025048574 29.06674083678956
68.14441528060148 4.937226999511277 37.37459246770817 25.832595813382003
58.185619612082704 4.5324137991421285 31.288384518898418 22.36482129404215
48.279929282827645 4.029859956772518 25.31012625507291 18.93994307098225
39.26981908549535 3.518015511999121 20.05483787767434 15.69696569582189
31.204567996254028 3.0251258973610047 15.45249324305497 12.726948855838057
24.128279154981456 2.589341108891546 11.48092180141616 10.058016244673757
18.068227928679207 2.215547167401983 8.178037409613218 7.674643351664012
12.899301197576317 1.8967509951196448 5.451283093545118 5.551267108911556
8.58515777511375 1.6084281389820052 3.2791307627230384 3.6975988734087006
5.141567474676746 1.3255107320815367 1.6569853174285767 2.159071425166635
2.7491829891420054 1.043051031951242 0.6944977613716741 1.0116341958190875
1.2200542861130987 0.7387790731059705 0.15545653086921848 0.3258186821379093
0.5246106130132037 0.4868449636819278 0.005724659120192981 0.032040990211082934
0.2731892604736031 0.27813979559060037 -0.0009831875633735823 -0.003967347553623659
0.15875830957592726 0.15874206322901568 1.0862722813901654e-06 1.5160074630161914e-05
0.11746915052883056 0.11746915052883056 0.0 0.0
0.4981031900134921 0.1426812952013316 0.12233344670053273 0.2330884481116281
4.394696986812689 2.3043597796016417 0.8379249593275114 1.2524122478835382
3.0818631932428335 1.7381029135134716 0.5005462970034725 0.8432139827258905
0.37436404507578536 0.18625067124795458 0.05928670908036031 0.12882666474747048
0.14080655770725808 0.1408223155392124 -8.23290305344124e-07 -1.4934541648948963e-05
0.1542554289910764 0.1542411429749593 9.176681420014073e-07 1.3368347975063384e-05
0.23209014879701256 0.23375730566822311 -0.00030520043032006657 -0.0013619564408904811
0.38978117980015775 0.39689324816978766 -0.00420048338906085 -0.0029115849805690275
0.8396941965642996 0.6146002292002706 0.06335486363011272 0.1617391037339161
1.8938832456318988 0.8701412145863209 0.3708130254175175 0.6529290056280606
3.828714015103204 1.15169306031647 1.1461458930862176 1.5308750617005171
6.444676887111083 1.392562036965989 2.2730141859757946 2.7791006641692984
9.882745588373702 1.6397485663533842 3.949967251228925 4.293029770791394
13.944625144342396 1.906425750721824 6.0258090221509075 6.012390371469661
18.664881591375746 2.218476680723903 8.517730929196302 7.9286739814555425
24.14986979761744 2.5877878316167253 11.493615779735732 10.068466186264983
30.468135600634877 3.0138700429649545 14.993105898431093 12.461159659238831
37.73376533612962 3.486127545244174 19.152389137748887 15.095248653136558
45.47230278665878 3.9759929535213754 23.57301263299049 17.923297200146934
53.83948135846861 4.46099906685503 28.552450818482278 20.826031473131295
62.012835413215754 4.7613277152510065 33.570509675913875 23.68099802205088
68.83231712341849 4.631950363399047 38.0156411753378 26.184725584681665
71.68181684939212 2.7086080844575284 41.1033333321944 27.8698754327402
68.8323171234113 4.631950363401726 38.01564117533141 26.18472558467815
62.012835413194246 4.761327715247934 33.57050967590204 23.680998022044278
53.839481358442676 4.460999066850993 28.552450818468493 20.82603147312319
45.472302786624596 3.9759929535167085 23.573012632972084 17.923297200135806
37.73376533609851 3.48612754524501 19.152389137729262 15.095248653124223
30.468135600605887 3.0138700429653644 14.993105898413507 12.461159659227015
24.149869797591776 2.5877878316168412 11.493615779720637 10.068466186254302
18.664881591346848 2.2184766807213716 8.517730929181202 7.928673981444277
13.944625144319996 1.9064257507238989 6.025809022137322 6.012390371458778
9.882745588351483 1.6397485663521458 3.949967251217776 4.293029770781562
6.444676887094857 1.392562036965934 2.2730141859676176 2.7791006641613065
3.82871401509157 1.1516930603147095 1.1461458930814339 1.5308750616954263
1.8938832456248382 0.870141214584845 0.3708130254151193 0.6529290056248744
0.8396941965611087 0.6146002291992566 0.06335486362931043 0.1617391037325416
0.38978117979931304 0.3968932481688127 -0.004200483389021449 -0.0029115849804780213
0.23209014879664483 0.2337573056678338 -0.0003052004303183123 -0.0013619564408707222
0.15425542899062142 0.15424114297450972 9.176681415783688e-07 1.336834797013782e-05
0.140806557706964 0.14082231553889946 -8.232903041218908e-07 -1.4934541631370911e-05
0.3743640450738486 0.1862506712477311 0.05928670907965989 0.12882666474645757
3.0818631932337737 1.7381029135096997 0.5005462970012912 0.8432139827227833
2.1372991332538755 1.3299110380115402 0.30504384214257196 0.5023442530997635
0.277083234186891 0.20910114946408087 0.012142740982931053 0.055839343739879
0.16557886544011757 0.16557384672094078 3.3784553698126277e-07 4.680873639828587e-06
0.16110057429043506 0.1610736200663334 1.9856943216208e-06 2.4968529779967134e-05
0.2084923091458156 0.20987071942276356 -0.0002191021829732701 -0.0011593080939746314
0.3091265217812851 0.32110370240082053 -0.003661212019188182 -0.00831596860034735
0.5566887507472025 0.49137374759176805 0.011292925643286657 0.05402207751214795
1.2173133389397486 0.69886331012612 0.16405454474773568 0.3543954840658932
2.51492721740244 0.9396538816585869 0.6086534569698213 0.966619878774032
4.528924006602467 1.1722784817096104 1.4667965911505416 1.8898489337423146
7.013052989684849 1.380035725108628 2.583205781297117 3.0498114832791026
10.002045189452804 1.6024687681563723 4.031400972533915 4.368175448762515
13.469445989915608 1.8613628937896944 5.786800201640774 5.821282894485145
17.46694049463224 2.1664922062817413 7.862458864527027 7.437989423823476
22.146956603173276 2.53416069475897 10.3606515653725 9.252144343041806
27.48623908491443 2.957442992729084 13.249441265542622 11.279354826642736
33.53580484851492 3.418117144462851 16.63728478369437 13.480402920357689
40.03498569362599 3.946190260803836 20.263253835934457 15.825541596887692
46.85664378028033 4.433051925592496 24.162244524283043 18.26134733040478
53.3621892302938 4.506295802371389 28.215733149303535 20.64016027861888
56.42008722186447 2.352339414401052 31.53447150686847 22.53327630059495
53.36218923028901 4.506295802372523 28.215733149299666 20.640160278616825
46.8566437802636 4.433051925585646 24.162244524276907 18.261347330401072
40.03498569361189 3.9461902608066985 20.263253835924047 15.825541596881157
33.53580484849735 3.418117144467937 16.637284783680663 13.480402920348753
27.486239084890727 2.9574429927306563 13.24944126552758 11.279354826632481
22.146956603150496 2.5341606947582487 10.36065156535966 9.252144343032592
17.4669404946075 2.166492206275919 7.862458864516245 7.437989423815327
13.46944598989555 1.8613628937871909 5.786800201631058 5.821282894477299
10.002045189431962 1.602468768153388 4.031400972524399 4.368175448754173
7.0130529896684655 1.3800357251079278 2.583205781289118 3.0498114832714167
4.528924006589553 1.172278481709114 1.4667965911444383 1.8898489337360007
2.514927217394263 0.9396538816572033 0.6086534569667719 0.9666198787702877
1.217313338935467 0.6988633101251981 0.16405454474643158 0.3543954840638368
0.5566887507453825 0.49137374759091496 0.01129292564300981 0.054022077511457496
0.30912652178075867 0.3211037023998486 -0.0036612120191183953 -0.008315968599971617
0.20849230914531144 0.20987071942226934 -0.00021910218297131447 -0.0011593080939865364
0.16110057429005065 0.16107362006593712 1.985694321836739e-06 2.4968529791673438e-05
0.16557886543984005 0.16557384672066278 3.37845536975015e-07 4.6808736402937e-06
0.27708323418566116 0.20910114946380093 0.01214274098259626 0.0558393437392637
2.137299133247231 1.3299110380086336 0.30504384214097335 0.5023442530976244
1.3822097632817996 0.9855925593799947 0.12788328757449277 0.26873391632731214
0.22140163286298833 0.21786330113810468 -0.0036799335055104484 0.007218265230394229
0.18695675383218233 0.18703389549808885 -6.744805868337088e-06 -7.039686003817468e-05
0.17440059616137743 0.17446343904616246 -4.153057242887411e-06 -5.8689827542243214e-05
0.19806170733811235 0.19941255153622547 -0.00021757543898930448 -0.001133268759123869
0.26347033331263575 0.26905725194792746 -0.001930214734605169 -0.00365670390068655
0.38870458507997907 0.3881690664221652 -0.003653285735461377 0.00418880439327511
0.7161664392477975 0.5390979230292422 0.04651458019240081 0.1305539360261549
1.4485396541979119 0.7169222782580641 0.24852551140559448 0.4830918645342529
2.6866002179552337 0.9086742038022672 0.7057096266212386 1.0722163875317283
4.317272808670527 1.0893317054903058 1.3736929374199522 1.8542481657602699
6.304820805104935 1.2781459928744123 2.2686537663178066 2.7580210459127135
8.589761506441429 1.492409241056168 3.3421547320722698 3.7551975333129928
11.213977543108285 1.7395650266674871 4.613852338896992 4.860560177543808
14.298854371700095 2.0435722393120095 6.1502270188841734 6.10505511350391
17.944608595035902 2.4191245491403346 8.005407013057747 7.520077032837823
22.15347472836429 2.8546590416649646 10.187598873323115 9.111216813376213
26.82525177965506 3.3349805906158916 12.6365670352832 10.85370415375597
32.27562216643355 3.9680891345258753 15.5069538353001 12.800579196607575
38.432374072624675 4.4070887078044105 19.01048476128947 15.014800603530798
41.814471916525434 2.0819952560502872 22.471976062878575 17.26050059759658
38.432374072630665 4.407088707813144 19.010484761287803 15.014800603529721
32.275622166429685 3.9680891345260068 15.506953835297693 12.800579196605991
26.825251779642706 3.3349805906170125 12.63656703527514 10.853704153750554
22.153474728343696 2.8546590416612703 10.187598873313242 9.111216813369172
17.944608595019925 2.4191245491425146 8.005407013047376 7.520077032830039
14.298854371684584 2.0435722393103157 6.1502270188764605 6.1050551134978015
11.213977543099132 1.7395650266681677 4.613852338891655 4.860560177539311
8.589761506428975 1.4924092410545988 3.3421547320666 3.75519753330777
6.3048208050938435 1.2781459928749135 2.2686537663118833 2.75802104590705
4.317272808659368 1.089331705488712 1.3736929374153748 1.854248165755281
2.6866002179474773 0.9086742038018611 0.7057096266178516 1.0722163875277637
1.4485396541934978 0.7169222782571869 0.24852551140415755 0.483091864532154
0.7161664392453779 0.5390979230285373 0.04651458019182004 0.13055393602502052
0.38870458507912364 0.3881690664212973 -0.003653285735489367 0.00418880439331569
0.2634703333122831 0.2690572519473162 -0.001930214734563074 -0.0036567039004699814
0.19806170733755118 0.19941255153568518 -0.00021757543899053112 -0.001133268759143475
0.1744005961612365 0.17446343904600664 -4.153057241293014e-06 -5.868982752885634e-05
0.18695675383186852 0.18703389549776045 -6.7448058671665525e-06 -7.03968600247362e-05
0.2214016328622131 0.21786330113766658 -0.00367993350562728 0.007218265230173736
1.3822097632777095 0.9855925593781161 0.12788328757361675 0.26873391632597676
0.8833600623678608 0.7442460639708446 0.03922290424626306 0.09989109415075337
0.19101008945473258 0.20642918857048564 -0.005060620541920697 -0.010358478573832389
0.20256190385903394 0.20256893899455944 -7.574406186424455e-08 -6.959391463619665e-06
0.19017767316823542 0.1902457668859972 -7.0425386513118915e-06 -6.105117911044933e-05
0.19916940438543215 0.20020554308694213 -0.000191674033515213 -0.000844464667994847
0.24027222168754145 0.24578543903169794 -0.0015818546779539564 -0.003931362666202427
0.31140236265518295 0.3092489172056711 -0.0009878017323771966 0.0031412471818890535
0.42135724773212585 0.3797783420395157 0.0078737988975392 0.03370510679507092
0.6700610096575408 0.47484129515926055 0.0532003536536671 0.14201936084461306
1.180321718099204 0.6007116837582578 0.19370660886655283 0.38590342547439394
1.9969496406951714 0.7285867018580949 0.4889826655033258 0.7793802733337505
2.9950254189429275 0.8539456236805358 0.8661156143733932 1.2749641808889998
4.196787381246703 1.007052534264 1.361872913087444 1.8278619338952597
5.610544974760871 1.1922968959986529 1.97032154425249 2.44792653450973
7.287190296676145 1.4237697489372318 2.706725683440089 3.156694864298826
9.349067829786131 1.73294416117389 3.623565383235803 3.9925582853764356
11.922622581987072 2.133960481929173 4.79399647445299 4.994665625604909
15.014316782241709 2.5750617460139056 6.27226120525184 6.16699383097596
18.681589318090865 3.0916751203606534 8.052810473720715 7.5371037240095
23.969402871464368 4.064497251877938 10.527995152977216 9.376910466609214
28.58445664808995 2.0004143993459094 14.479693167342722 12.104349081401317
23.969402871452147 4.064497251862731 10.527995152978948 9.37691046661047
18.681589318090346 3.091675120361638 8.052810473719825 7.537103724008874
15.014316782227345 2.5750617460084406 6.272261205246837 6.166993830972073
11.922622581976768 2.133960481928783 4.793996474447515 4.99466562560047
9.349067829767842 1.7329441611640912 3.623565383231287 3.9925582853724686
7.287190296670363 1.423769748937167 2.706725683437192 3.156694864296006
5.610544974755525 1.192296895998758 1.9703215442497042 2.447926534507063
4.196787381239492 1.0070525342616934 1.36187291308506 1.8278619338927364
2.9950254189344703 0.853945623678237 0.8661156143705042 1.2749641808857284
1.9969496406910785 0.7285867018585741 0.48898266550134467 0.7793802733311598
1.180321718095946 0.6007116837575801 0.1937066088655049 0.3859034254728612
0.6700610096560441 0.47484129515902823 0.053200353653241717 0.1420193608437739
0.4213572477313262 0.3797783420390901 0.007873798897419324 0.03370510679481709
0.31140236265427834 0.30924891720492353 -0.0009878017324325696 0.0031412471817873463
0.24027222168717677 0.24578543903111447 -0.0015818546779112616 -0.003931362666026387
0.19916940438501507 0.20020554308645871 -0.0001916740335069173 -0.0008444646679366813
0.1901776731677564 0.1902457668855519 -7.042538655709161e-06 -6.105117913980479e-05
0.20256190385858278 0.20256893899409004 -7.574406033272124e-08 -6.959391446918641e-06
0.1910100894544823 0.2064291885700575 -0.005060620541876478 -0.010358478573698668
0.8833600623653581 0.7442460639694433 0.03922290424588749 0.09989109415002725
0.5596771562579916 0.5400480249668835 0.0032241619233716384 0.016404969367736343
0.1794311258212275 0.18294643982800493 -0.0005760548612066692 -0.0029392591455707786
0.21210571365034728 0.2123356105419494 -2.041005724903987e-05 -0.00020948683435313855
0.20579681535221367 0.20592713007447025 -1.5354929030510053e-05 -0.00011495979322606844
0.20927125755301107 0.2100300111279309 -0.00018348123508611137 -0.0005752723398336533
0.23764370468656035 0.24134893863661752 -0.001256824440159427 -0.0024484095098977186
0.2902170197148885 0.28462534156381925 0.00018089734739315367 0.0054107808036762215
0.3421539125423882 0.2939782169342813 0.010802289389723989 0.03737340621838291
0.3825356471622876 0.2642967974090606 0.035874227668861475 0.08236462208436585
0.4587701612010964 0.22693904819945665 0.0757542467646232 0.15607686623701672
0.6509617416941557 0.24186163603766286 0.15708335210813396 0.25201675354835884
0.950403890650367 0.28695273361547957 0.2597612586504222 0.4036898983844651
1.3722652035199405 0.3011767918626673 0.4314045853789535 0.6396838262783192
1.9088860626903426 0.3053832413614589 0.6682659273618153 0.9352368939670692
2.578266873346083 0.3244908186502904 0.9723997562492467 1.2813762984465455
3.384056311025597 0.3780079553290732 1.3322064620883978 1.6738418936081247
4.379173526472396 0.4869226201840163 1.7813916469280136 2.110859259360368
5.5695450315960615 0.6503482547742204 2.3265860272965373 2.592610749525306
7.325534750751838 0.9716373062419972 3.0947163955753227 3.259181048934515
11.691535066425065 2.3511688787055074 4.547410979709926 4.792955208009634
19.513083416984838 2.0382593607878534 9.040186430763718 8.43463762543327
11.691535066443645 2.3511688787186253 4.547410979713052 4.792955208011971
7.325534750748552 0.9716373062404785 3.0947163955743466 3.259181048933727
5.569545031591655 0.6503482547749129 2.3265860272937764 2.592610749522967
4.379173526460968 0.4869226201793429 1.7813916469245834 2.110859259357039
3.384056311025132 0.3780079553315655 1.3322064620869496 1.6738418936066166
2.57826687334287 0.3244908186505593 0.9723997562474771 1.2813762984448336
1.908886062685677 0.305383241360537 0.6682659273601735 0.9352368939649676
1.3722652035170522 0.3011767918630541 0.43140458537747095 0.639683826276527
0.9504038906485431 0.28695273361532586 0.25976125864951854 0.403689898383699
0.65096174169164 0.24186163603701571 0.15708335210725638 0.25201675354736797
0.45877016120065134 0.2269390481989666 0.07575424676465048 0.1560768662370343
0.38253564716206606 0.2642967974092989 0.03587422766869069 0.08236462208407641
0.34215391254176447 0.29397821693425763 0.010802289389529488 0.03737340621797743
0.29021701971418595 0.28462534156306046 0.00018089734737330955 0.005410780803752125
0.23764370468623713 0.24134893863611154 -0.0012568244401272798 -0.002448409509747289
0.2092712575526085 0.21003001112736322 -0.00018348123506868797 -0.0005752723396859241
0.20579681535175723 0.20592713007379923 -1.535492900530676e-05 -0.00011495979303672005
0.2121057136500049 0.21233561054168343 -2.0410057256507017e-05 -0.00020948683442198772
0.17943112582104745 0.18294643982779102 -0.0005760548611959864 -0.0029392591455475623
0.5596771562566394 0.5400480249654994 0.0032241619233233797 0.016404969367816803
0.36600268238274397 0.36705406480339087 -0.00015196604911165855 -0.0008994163715351938
0.17013608339489905 0.17004628074996353 1.5418867939361624e-05 7.438377699613568e-05
0.21575919982185465 0.2156976929698447 1.0116152059135515e-06 6.04952368040474e-05
0.21924562222725172 0.2193023488053247 -1.731357153039616e-05 -3.94130065426105e-05
0.22515012048081748 0.22518646642998577 -0.00010458183182553591 6.823588265728988e-05
0.25603396881943896 0.2578109056845544 -0.0010646153999422203 -0.0007123214651733426
0.32044238503353173 0.3172851446761389 -0.00013739777042348574 0.0032946381278162904
0.4253615370046087 0.3812994279939928 0.008807829819487151 0.03525427919112857
0.6710946906022461 0.4746558735243458 0.053644953314238415 0.14279386376366193
1.1791607062202079 0.6002456743178315 0.19337713279386823 0.38553789910850833
1.9983644598647332 0.7303164038070461 0.4892300500413145 0.778818006016374
3.007455260397384 0.8559842655257208 0.8723536933489682 1.2791173015226958
4.226468827087316 1.0116252304498132 1.3740163552782847 1.840827241359218
5.649729970293737 1.1956075693743586 1.9890620373288088 2.4650603635905703
7.241690012344657 1.406281940270483 2.693715823306264 3.1416922487679075
8.932989234483104 1.6474544378393483 3.4551296939313434 3.8304051027124153
10.506307438539523 1.903949314154021 4.162165312323236 4.440192812062271
11.775888237944642 2.1990471913264176 4.73232652972469 4.844514516893533
12.224827684616184 2.399777048269204 4.904765658053613 4.920284978293367
9.785093897385202 1.463357745083412 4.253427146901103 4.0683090054006845
19.759338151663446 3.4062425453444396 8.293470018743589 8.059625587575429
9.785093897384021 1.4633577450772228 4.253427146903897 4.068309005402893
12.224827684612462 2.3997770482674143 4.904765658052494 4.9202849782925595
11.775888237937261 2.199047191325651 4.732326529721021 4.844514516890582
10.506307438529237 1.9039493141553192 4.162165312316986 4.440192812056937
8.932989234473048 1.6474544378389355 3.4551296939262697 3.8304051027078394
7.241690012334513 1.4062819402678586 2.693715823302478 3.1416922487641803
5.649729970286159 1.1956075693743482 1.9890620373249768 2.465060363586833
4.226468827076004 1.011625230448805 1.3740163552732603 1.8408272413539417
3.0074552603879963 0.8559842655246896 0.8723536933451318 1.279117301518175
1.9983644598562806 0.7303164038053782 0.4892300500382606 0.7788180060126416
1.1791607062158442 0.6002456743170153 0.19337713279247093 0.3855378991063579
0.6710946906003495 0.474655873523701 0.053644953313793424 0.14279386376285522
0.42536153700358237 0.38129942799353483 0.008807829819309342 0.03525427919073799
0.32044238503288636 0.31728514467544294 -0.00013739777042546782 0.003294638127868674
0.2560339688186074 0.25781090568363574 -0.0010646153999380862 -0.0007123214650902848
0.22515012048034155 0.22518646642932413 -0.00010458183180353106 6.823588282088599e-05
0.21924562222708335 0.21930234880496188 -1.7313571509405076e-05 -3.9413006369067326e-05
0.21575919982171957 0.21569769296955763 1.0116152154925033e-06 6.049523694647173e-05
0.17013608339460598 0.17004628074965772 1.5418867937496336e-05 7.438377701081555e-05
0.36600268238183675 0.3670540648024545 -0.0001519660491103059 -0.0008994163715074523
0.23708205914136388 0.2370613200112417 1.3476233019465938e-06 1.9391506820260498e-05
0.1565098907833247 0.15655075517017888 -2.2220631742793996e-06 -3.864232367987571e-05
0.212853170577619 0.21305335205734402 -2.112101211361005e-05 -0.00017906046761157488
0.22887197181693936 0.22825384720092026 7.287105550532687e-05 0.0005452535605138673
0.24509606463415926 0.24790935961757027 -0.0005595413773129739 -0.002253753606098095
0.2935197479109799 0.2991182654879898 -0.0015187038599090645 -0.004079813717100918
0.40299572018408264 0.3898364233234694 -0.0011155687952947944 0.014274865655908029
0.7227399021970036 0.5398659955808799 0.04876723125312091 0.13410667536300303
1.4484163334867959 0.7167242441398674 0.24852262001865244 0.4831694693282755
2.6846609344639694 0.9085141109264823 0.7047738207130602 1.0713730028244257
4.318764791536642 1.0896689550024197 1.3741517520574575 1.8549440844767637
6.315960203158571 1.2797538503798038 2.2734715809724912 2.762734771806273
8.616196100734292 1.494977334123227 3.3548127691371445 3.7664059974739215
11.242610773088789 1.7378771740156598 4.630675761422844 4.874057837650282
14.23651547827278 2.0166083390065617 6.131719837983766 6.08818730128245
17.505380414933477 2.323044393938293 7.812271582859603 7.37006443813558
20.77916092656312 2.655178646691426 9.507434061743634 8.616548218128056
23.612906235925678 3.035414987825269 10.914178354162894 9.663312893937501
25.02785521527976 3.1796540586562356 11.675637984055703 10.172563172567816
23.158352799920422 3.1165639525760893 10.711157283897258 9.33063156344707
28.35970830723864 6.99690952185604 11.347412013441689 10.015386771940895
23.158352799921293 3.1165639525720947 10.71115728390017 9.330631563449028
25.027855215285644 3.1796540586625905 11.675637984055438 10.172563172567605
23.612906235909833 3.035414987820391 10.914178354156402 9.66331289393304
20.77916092654261 2.655178646689834 9.507434061732644 8.616548218120125
17.505380414909993 2.3230443939336594 7.81227158284887 7.370064438127464
14.23651547825462 2.0166083390043874 6.1317198379748685 6.088187301275365
11.242610773068668 1.7378771740110723 4.630675761414434 4.874057837643161
8.616196100718875 1.4949773341244952 3.3548127691283565 3.766405997466027
6.315960203142263 1.2797538503780643 2.273471580965073 2.762734771799125
4.318764791522724 1.0896689550012406 1.3741517520513244 1.8549440844701568
2.68466093445378 0.9085141109249171 0.7047738207090903 1.071373002819774
1.4484163334816889 0.7167242441387316 0.24852262001702993 0.48316946932592675
0.7227399021945022 0.5398659955799415 0.04876723125259291 0.1341066753619682
0.40299572018274904 0.38983642332239554 -0.001115568795389397 0.014274865655742873
0.2935197479102549 0.2991182654870301 -0.0015187038598637244 -0.004079813716911438
0.2450960646336537 0.24790935961686988 -0.0005595413772791393 -0.002253753605936995
0.2288719718166475 0.22825384720058578 7.287105550135027e-05 0.0005452535605604068
0.21285317057731484 0.21305335205704506 -2.1121012113939714e-05 -0.00017906046761627473
0.15650989078300245 0.15655075516985606 -2.2220631733321873e-06 -3.864232368026519e-05
0.23708205914069994 0.23706132001059074 1.3476233008971399e-06 1.9391506808273514e-05
0.14641668210576986 0.14641668210576986 0.0 0.0
0.13762894596930106 0.13761259284233893 9.89853957466213e-07 1.5363273004669434e-05
0.20315435499853235 0.20327586855544208 -1.1582555219637739e-05 -0.00010993100169010089
0.23468711988166982 0.235387356736138 -0.00010864151593067963 -0.0005915953385375854
0.2689123606344621 0.27022727773606675 -0.00036390702051896626 -0.0009510100810856129
0.3447722359922149 0.34411230113582025 -0.0019263210569498217 0.0025862559133447032
0.5796116201514458 0.5006398844684004 0.017269124659542563 0.06170261102350298
1.2229021082877027 0.6996759228420314 0.16649631770696063 0.35672986773871074
2.5127799778360798 0.9396063872141498 0.6076679688750677 0.9655056217468603
4.527819149873687 1.1724662811059618 1.4664214542259528 1.8889314145417713
7.014959338116007 1.3802273344792693 2.582835708709421 3.0518962949273174
10.010912812171554 1.6031562505889352 4.03584553208184 4.371911029500786
13.48277411905019 1.8619819457107536 5.793900486548424 5.826891686791007
17.46795496547453 2.1617704044868242 7.865880919403499 7.440303641584212
22.060073164947475 2.503857895783173 10.328028918849594 9.228186350314703
27.108367190871178 2.8710364698719912 13.077055689970088 11.160275031029094
32.434552652701925 3.2544676544366715 16.07188466128483 13.108200336980426
37.03813303775322 3.5318287135096575 18.682769443353074 14.82353488089048
39.41255867768608 3.5639849608119043 20.121400054298807 15.727173662575384
36.58578777139667 3.1303554819326154 18.66868124690879 14.786751042555267
41.0909224798946 9.840830642242402 17.298608353670566 13.951483483981644
36.58578777140178 3.130355481935186 18.668681246910367 14.786751042556222
39.412558677669836 3.563984960799748 20.12140005429622 15.727173662573875
37.038133037731996 3.5318287135065756 18.682769443341996 14.823534880883434
32.434552652682186 3.254467654440598 16.07188466127051 13.108200336971075
27.10836719084289 2.8710364698726036 13.07705568995293 11.160275031017365
22.060073164921878 2.5038578957814503 10.328028918835676 9.228186350304751
17.467954965451984 2.1617704044885806 7.865880919389651 7.440303641573753
13.482774119025358 1.8619819457092763 5.793900486535478 5.826891686780606
10.010912812146552 1.603156250585838 4.035845532070075 4.371911029490634
7.014959338096623 1.3802273344782288 2.5828357086999896 3.0518962949184054
4.527819149858097 1.1724662811041837 1.4664214542191676 1.8889314145347447
2.5127799778264794 0.9396063872119718 0.6076679688717124 0.9655056217427963
1.2229021082824028 0.6996759228400831 0.16649631770565068 0.3567298677366688
0.5796116201491486 0.5006398844677165 0.017269124659034497 0.06170261102239738
0.34477223599145196 0.34411230113474955 -0.0019263210569050824 0.0025862559136074475
0.268912360633887 0.27022727773534816 -0.0003639070205013765 -0.0009510100809597701
0.23468711988129892 0.23538735673559702 -0.00010864151590988859 -0.0005915953383881771
0.20315435499808968 0.2032758685550255 -1.1582555223894733e-05 -0.00010993100171196933
0.13762894596906128 0.13761259284210267 9.898539572355688e-07 1.5363273001379168e-05
0.1464166821055042 0.1464166821055042 0.0 0.0
0.08564581973891484 0.08564581973891484 0.0 0.0
0.11468932452758891 0.1146898542232624 -2.2971052855553653e-08 -5.067246206468004e-07
0.18770291013433643 0.18768912467471738 8.405459901971835e-07 1.2944913628836993e-05
0.2371353080575544 0.23717277918919966 -1.3880870795123806e-05 -2.3590260850082517e-05
0.29447888381085713 0.29937148372601724 -0.0010605574527308712 -0.003832042462429341
0.4291641533270405 0.4209224409290654 0.00010342491050389663 0.0081382874874712
0.8558458574712884 0.6116452841048795 0.06930616795515107 0.17489440541125728
1.8955478159983694 0.87055611325238 0.37177444846326996 0.6532172542827195
3.825761057283606 1.152108984135575 1.1444936778842472 1.529158395263784
6.444659562240888 1.3929372564884415 2.272626036208886 2.7790962695435626
9.88692672172849 1.6396886520619511 3.952485574180663 4.294752495485878
13.947678190897388 1.9052525384654562 6.028194022119846 6.014231630312087
18.654734170362754 2.214756566027509 8.514166179429958 7.925811424905302
24.107393441689737 2.5792743115602024 11.47386574757107 10.054253382558457
30.36715624618246 2.9940717053962964 14.944440898726572 12.428643642059592
37.496826330057154 3.4399350249564753 19.035327613245716 15.021563691854963
44.69243409622319 3.813781954688565 23.188960485621905 17.68969165591274
51.14728354626766 3.9592511432650257 27.17332905185144 20.014703351151162
54.31276653432477 3.6867265689000543 29.372193682893226 21.25384628253149
50.63432692151125 3.211066344107315 27.34766595256241 20.075594624841525
55.20558617741017 12.581959108832212 24.293851562348543 18.329775506229414
50.63432692150821 3.2110663441042413 27.347665952562444 20.07559462484154
54.3127665343146 3.686726568901511 29.372193682885847 21.25384628252725
51.14728354624236 3.9592511432648587 27.173329051835545 20.014703351141947
44.692434096178765 3.8137819546765503 23.188960485601807 17.6896916559004
37.49682633002378 3.43993502495952 19.03532761322341 15.02156369184085
30.367156246147463 2.9940717053929484 14.944440898707638 12.428643642046877
24.107393441657667 2.5792743115594834 11.473865747552656 10.05425338254553
18.654734170328304 2.214756566024848 8.51416617941174 7.925811424891716
13.94767819086821 1.9052525384640515 6.028194022104491 6.014231630299671
9.886926721701137 1.6396886520591691 3.952485574167622 4.2947524954743415
6.44465956222166 1.3929372564871862 2.2726260361998163 2.7790962695346577
3.8257610572698852 1.1521089841337433 1.1444936778784793 1.5291583952576613
1.8955478159902819 0.8705561132509579 0.37177444846039753 0.6532172542789269
0.8558458574675665 0.611645284103986 0.06930616795411584 0.17489440540946383
0.429164153326071 0.42092244092817593 0.00010342491048981068 0.008138287487405206
0.29447888381032805 0.2993714837253163 -0.0010605574527038017 -0.0038320424622844936
0.23713530805704178 0.23717277918867125 -1.3880870795434508e-05 -2.3590260834094225e-05
0.1877029101340305 0.18768912467441273 8.405459898997047e-07 1.294491362786854e-05
0.1146893245274371 0.11468985422311012 -2.297105282889122e-08 -5.067246201801207e-07
0.08564581973884834 0.08564581973884834 0.0 0.0
0.04714829807008271 0.04714829807008271 0.0 0.0
0.09044981626961186 0.09044981626961186 0.0 0.0
0.16812951633344791 0.16811885773915353 6.366593226293898e-07 1.002193497175889e-05
0.2368420144926005 0.23721518129430436 -5.691578714346927e-05 -0.0003162510145603383
0.3244357893321853 0.32695387265660375 -0.0012216173373625636 -0.001296465987055895
0.55778075177799 0.5035222621239775 0.012202688736863943 0.04205580091714855
1.2328963562959017 0.7393242097430303 0.16131661176271217 0.3322555347901589
2.747857552991791 1.0439025253357348 0.693670355230834 1.0102846724252217
5.13967821844329 1.3262660315080332 1.6558227331997029 2.1575894537355533
8.587065404468692 1.6088114453459017 3.2798668158935183 3.698387143229272
12.903275360840222 1.8962128276598087 5.453759030307082 5.553303502873335
18.06231137457778 2.2115861182750836 8.176940465535587 7.673784790767108
24.087049464268546 2.578688603161681 11.4630520083777 10.045308852729168
31.110035353998004 3.0121632583271616 15.403535610183805 12.69433648548704
39.15977790749596 3.519598068691683 19.986274721926666 15.6539051168776
48.18321631796974 4.029574260017736 25.2494049359723 18.904237121979705
57.71263089351566 4.380914481013908 31.083555898117048 22.248160514384686
65.71308362973691 4.312352033416611 36.21390622602529 25.18682537029501
69.31208771853366 3.714022412936862 38.87772341214588 26.720341893450907
65.1357799516571 3.380287556655884 36.456131530273794 25.299360864727422
70.59307778594486 15.36205252896337 32.29103854812804 22.93998670885343
65.13577995165097 3.3802875566534247 36.456131530271485 25.299360864726065
69.31208771851684 3.7140224129369077 38.877723412135005 26.7203418934449
65.71308362971031 4.312352033420813 36.213906226005534 25.18682537028396
57.7126308934786 4.380914481019299 31.083555898090022 22.248160514369264
48.183216317927645 4.02957426001768 25.249404935946032 18.90423712196395
39.159777907448444 3.519598068687477 19.986274721900102 15.653905116860845
31.110035353959525 3.0121632583264497 15.40353561016112 12.694336485471963
24.087049464228556 2.578688603161487 11.46305200835437 10.045308852712704
18.062311374538044 2.211586118270146 8.17694046551577 7.673784790752121
12.903275360808337 1.8962128276588097 5.453759030290122 5.553303502859403
8.587065404444795 1.608811445343639 3.279866815882185 3.6983871432189708
5.139678218426549 1.3262660315062398 1.6558227331925204 2.1575894537277875
2.7478575529815394 1.0439025253345737 0.6936703552266419 1.0102846724203232
1.2328963562904176 0.7393242097413728 0.16131661176122042 0.3322555347878254
0.557780751776077 0.5035222621225978 0.012202688736687457 0.04205580091679155
0.3244357893317151 0.3269538726558029 -0.0012216173373184162 -0.0012964659867692845
0.23684201449218836 0.23721518129391056 -5.691578714792533e-05 -0.00031625101457427417
0.1681295163332722 0.1681188577389843 6.366593221431451e-07 1.0021934965748754e-05
0.09044981626944332 0.09044981626944332 0.0 0.0
0.04714829807000465 0.04714829807000465 0.0 0.0
0.024350711267325104 0.024350711267325104 0.0 0.0
0.06753800961819469 0.06753800961819469 0.0 0.0
0.14678444964630522 0.14677847550326156 3.662909033654852e-07 5.6078521402870744e-06
0.23591917823894015 0.23610242466468478 -3.3580487586836324e-05 -0.00014966593815779868
0.36912124615363273 0.37374069058569376 -0.0016502843671960987 -0.0029691600648650922
0.7332934405554175 0.5780191622661679 0.03990943428928959 0.11536484399995961
1.731719938720242 0.8766852584838997 0.3213661535052095 0.5336685267311314
3.6200597787085433 1.1860863525426983 1.0018982948766713 1.4320751312891726
6.64453934840633 1.5001606240150231 2.3315280692845044 2.812850655106804
10.798587096190982 1.8211243581590528 4.347037606298056 4.630425131733877
16.047696390876766 2.1589155870177863 7.065698078966335 6.8230827248926404
22.36101717264954 2.5316434157685443 10.484960850168836 9.34441290671216
29.794315577636958 2.9641995495926334 14.648870280750188 12.18124574729413
38.30308671545281 3.47259624137338 19.474809235420373 15.355681238659056
48.23567535624825 4.055944690824205 25.28839226279489 18.891338402629152
59.376707130900584 4.646050489115706 31.96115763565696 22.769499006127905
70.77004883888816 4.959754490912881 39.0333939450816 26.776900402893695
80.39251200995243 4.623522564965988 45.49480588743371 30.27418355755274
84.78208489220513 3.7343024700462157 48.949985066296826 32.09779735586212
80.2656944158898 3.577294548341534 46.10336598240676 30.585033885141513
86.90504828791977 18.15589416996931 40.92280280851709 27.826351309433356
80.26569441587604 3.5772945483347742 46.10336598240212 30.585033885139104
84.7820848921748 3.7343024700407605 48.94998506628045 32.097797355853565
80.39251200990903 4.623522564960941 45.49480588740861 30.27418355753946
70.77004883884409 4.959754490916883 39.03339394505055 26.776900402876652
59.37670713084751 4.646050489111958 31.961157635625565 22.769499006109974
48.23567535620336 4.055944690830361 25.288392262762983 18.891338402610014
38.30308671540004 3.4725962413666145 19.474809235392193 15.35568123864122
29.794315577590325 2.9641995495908264 14.648870280723436 12.181245747276062
22.361017172604132 2.531643415766446 10.48496085014366 9.344412906694027
16.047696390838297 2.158915587016536 7.065698078945455 6.823082724876295
10.79858709616132 1.8211243581555052 4.347037606284028 4.630425131721786
6.644539348385097 1.5001606240128589 2.3315280692749893 2.812850655097247
3.6200597786949977 1.1860863525407546 1.0018982948712327 1.4320751312830133
1.7317199387127278 0.8766852584822927 0.32136615350268233 0.5336685267277508
0.7332934405524777 0.5780191622647594 0.039909434288746146 0.1153648439989724
0.3691212461529139 0.3737406905847671 -0.0016502843671582664 -0.0029691600646948807
0.23591917823865408 0.2361024246644494 -3.3580487593422425e-05 -0.00014966593820179238
0.1467844496460257 0.1467784755029822 3.662909033509835e-07 5.607852140109466e-06
0.06753800961805036 0.06753800961805036 0.0 0.0
0.024350711267226387 0.024350711267226387 0.0 0.0
0.01194198645321762 0.01194198645321762 0.0 0.0
0.047979925595467716 0.047979925595467716 0.0 0.0
0.12627593868201473 0.12627593868201473 0.0 0.0
0.2378058878229478 0.23836464544342564 -8.370522108659545e-05 -0.0004750523993913684
0.4351643919282063 0.4261567583327495 0.0012164078738658877 0.007791225721590871
0.9822473551915591 0.6841604196791268 0.09432506972211406 0.20376186579031857
2.280304094801184 0.9959084242805988 0.4918539023893326 0.7925417681312527
4.61118480774835 1.318910304355654 1.410868222723162 1.8814062806695326
8.198362311858752 1.6682815772351978 3.0466391605140264 3.4834415741095253
13.102542155819272 2.035898438249904 5.494113267280996 5.5725304502883715
19.29017781947366 2.429377177741538 8.760666194295052 8.100134447437075
26.802160885199033 2.8701532646955843 12.9075699317563 11.024437688747158
35.569438700395374 3.3745048913721876 17.86248782370911 14.33244598531408
45.89482991287844 3.956407377824607 23.90786416577827 18.03055836927558
57.576025636545786 4.610435790711097 30.826757492355643 22.138832353479053
70.53302933065198 5.245109605981742 38.68133315013859 26.606586574531647
83.96401011791974 5.540977554695357 47.22771970231068 31.19531286091371
95.25048390932076 4.974974895344531 55.0218082422667 35.253700771709575
100.63803086967062 3.777963314545733 59.37378061416441 37.486286940960476
96.27630505994327 3.7467997230469847 56.52299962060292 36.006505716293375
104.64073585420341 20.911992600206716 50.71482729523502 33.013915958761686
96.27630505992028 3.746799723037154 56.522999620594135 36.006505716289
100.63803086963595 3.777963314546011 59.373780614141204 37.48628694094874
95.2504839092726 4.974974895344984 55.021808242234435 35.25370077169319
83.96401011786286 5.540977554695463 47.22771970227345 31.195312860893942
70.53302933059038 5.245109605978393 38.681333150100926 26.606586574511045
57.57602563648307 4.610435790704756 30.826757492319864 22.13883235345846
45.89482991281837 3.956407377820533 23.907864165743383 18.030558369254464
35.569438700333556 3.374504891363952 17.862487823676492 14.332445985293104
26.802160885147487 2.870153264692393 12.907569931727767 11.024437688727339
19.290177819428926 2.4293771777395463 8.760666194270613 8.100134447418778
13.102542155784764 2.0358984382471546 5.494113267263527 5.5725304502740824
8.198362311834538 1.6682815772340125 3.0466391605021053 3.4834415740984177
4.611184807732579 1.3189103043544188 1.410868222716435 1.881406280661726
2.2803040947924136 0.99590842427896 0.49185390238619625 0.7925417681272576
0.982247355187608 0.6841604196777131 0.09432506972114478 0.20376186578875
0.4351643919271056 0.4261567583319095 0.0012164078737855871 0.0077912257214101275
0.2378058878226835 0.2383646454429467 -8.370522107420769e-05 -0.0004750523991889147
0.1262759386817418 0.1262759386817418 0.0 0.0
0.047979925595414294 0.047979925595414294 0.0 0.0
0.011941986453166202 0.011941986453166202 0.0 0.0
0.005794152508815513 0.005794152508815513 0.0 0.0
0.03298389218968973 0.03298389218968973 0.0 0.0
0.10949253611564487 0.10949253611564487 0.0 0.0
0.2479561262557745 0.24916379977445624 -0.0001902725265629569 -0.0010174009921187206
0.531308026827775 0.48578710840339095 0.009859317807927792 0.035661600616456506
1.3015566926251345 0.7904946823111035 0.17951502902206642 0.3315469812919638
2.8883975658310246 1.0955034168231355 0.7045035735175562 1.0883905754903316
5.666572804556142 1.4479920316426997 1.8686846462634288 2.3498961266500156
9.807553593902469 1.8331995987462155 3.8099470403010134 4.164406954855243
15.46587128403019 2.2529263786969755 6.6919418426539785 6.521003062679236
22.651293070157735 2.712802102494109 10.556567109301332 9.38192385836229
31.338110863584408 3.225136018437195 15.400933504817163 12.712041340330048
41.70483616204308 3.814541472046405 21.399458901197793 16.490835788798865
53.54397452733109 4.47834107433396 28.336782106992935 20.728851346004177
67.08281581955251 5.165128152477848 36.524518738471095 25.393168928603558
81.8915926744497 5.778758633200228 45.718448481357 30.394385559892484
97.05371980682884 6.085051974822516 55.47674864378453 35.49191918822179
110.14412128594215 5.491255867107659 64.57296863536222 40.07989678347225
116.9138477125275 3.852528757137603 70.23868289206165 42.82263606332826
113.35939591924112 3.8155244645075688 67.88945899854089 41.65441245619263
123.95627322458489 23.496988611573418 61.77742359874937 38.6818610142621
113.3593959192209 3.8155244645063493 67.88945899852813 41.654412456186385
116.91384771249204 3.8525287571442792 70.23868289203335 42.822636063314434
110.1441212858897 5.49125586711213 64.57296863532422 40.07989678345333
97.0537198067696 6.085051974827992 55.47674864374177 35.49191918819988
81.89159267437851 5.778758633196794 45.71844848131279 30.394385559868915
67.08281581947978 5.165128152472357 36.52451873842785 25.393168928579573
53.543974527261916 4.478341074331554 28.336782106950864 20.728851345979514
41.7048361619784 3.814541472045701 21.399458901158336 16.490835788774373
31.338110863522026 3.225136018431777 15.400933504782898 12.712041340307366
22.651293070106572 2.7128021024897198 10.556567109274203 9.381923858342644
15.465871283991174 2.252926378694371 6.6919418426336685 6.521003062663134
9.807553593874472 1.8331995987438325 3.8099470402875077 4.164406954843133
5.666572804536792 1.4479920316403587 1.868684646255084 2.349896126641347
2.8883975658199335 1.0955034168204871 0.7045035735140293 1.0883905754854155
1.3015566926200441 0.7904946823094259 0.17951502902071598 0.33154698128990323
0.5313080268263329 0.48578710840237954 0.009859317807760963 0.03566160061619225
0.24795612625543786 0.2491637997740622 -0.00019027252655660383 -0.0010174009920677631
0.10949253611545098 0.10949253611545098 0.0 0.0
0.03298389218964709 0.03298389218964709 0.0 0.0
0.005794152508763238 0.005794152508763238 0.0 0.0
0.0027496387734228475 0.0027496387734228475 0.0 0.0
0.02269357944587519 0.02269357944587519 0.0 0.0
0.1002807861226574 0.1002807861226574 0.0 0.0
0.275125130569269 0.2768984022978506 -0.00046973418147460615 -0.001303537547107059
0.6796477474512795 0.5716912458473395 0.03159578521887865 0.07636071638506131
1.6657876311279747 0.8823535544439878 0.2828914707870595 0.5005426058969276
3.5759081032687035 1.1978397171767816 0.9768417531759107 1.4012266329160115
6.759778861323639 1.5713937521692931 2.3561985406690598 2.8321865684852847
11.476960270740724 1.9961049067594414 4.62908303988675 4.85177232409454
17.880400235937387 2.4743926797642537 7.934028165099804 7.471979391073334
26.06096837914681 3.0053830912875066 12.387975040505182 10.667610247354123
36.0946038049806 3.6040201493291195 18.086881870131815 14.403701785519653
47.810181211488555 4.283847084872349 24.860557458072226 18.665776668544005
61.48895588984003 5.01936741295988 33.03760268141324 23.431985795466908
76.85163558684125 5.739562817037289 42.46142941045184 28.650643359352152
93.34854527670345 6.28133253120186 52.90376400859973 34.16344873690184
109.90364043516277 6.455302472459103 63.79323088485323 39.655107077850445
124.68113959101976 6.069178530888191 73.99166744684409 44.620293613287465
133.47472687220946 4.278564657185724 81.16123552718051 48.03492668784317
131.64221218525083 3.5927885567716284 80.40877594659985 47.640647681879386
145.01494027173237 24.94806768796894 74.97186755423122 45.09500502953219
131.64221218522292 3.592788556766741 80.40877594658414 47.64064768187198
133.4747268721656 4.278564657188562 81.16123552714907 48.03492668782803
124.68113959095555 6.069178530889463 73.99166744679992 44.6202936132662
109.90364043507891 6.455302472450377 63.793230884802995 39.655107077825456
93.34854527661938 6.281332531198774 52.90376400854636 34.163448736874244
76.85163558676638 5.739562817038955 42.46142941040209 28.650643359325343
61.48895588976484 5.019367412959655 33.03760268136544 23.431985795439754
47.810181211413884 4.283847084868749 24.860557458027777 18.665776668517324
36.094603804913234 3.604020149327276 18.086881870091972 14.403701785493984
26.06096837908899 3.0053830912821504 12.387975040474148 10.667610247332696
17.880400235894086 2.4743926797617624 7.93402816507663 7.4719793910556955
11.47696027070798 1.9961049067561993 4.629083039870859 4.851772324080918
6.759778861302301 1.5713937521681942 2.3561985406588932 2.8321865684752177
3.575908103255449 1.197839717174936 0.9768417531707524 1.4012266329097627
1.6657876311219182 0.8823535544423998 0.2828914707852007 0.5005426058943173
0.6796477474492628 0.5716912458460965 0.031595785218588524 0.07636071638457788
0.27512513056889537 0.27689840229731194 -0.00046973418145640727 -0.0013035375469602575
0.10028078612250574 0.10028078612250574 0.0 0.0
0.022693579445822343 0.022693579445822343 0.0 0.0
0.0027496387733937987 0.0027496387733937987 0.0 0.0
0.0008185988803624691 0.0008185988803624691 0.0 0.0
0.016484676289511703 0.016484676289511703 0.0 0.0
0.10440101402641645 0.10440101402641645 0.0 0.0
0.3352246611483441 0.3328303327253792 0.00011061870018272413 0.002283709722782197
0.8940239477896765 0.696318327015466 0.06510478395029753 0.13260083682391272
2.1208744282703096 1.0744103655810864 0.39440588962929163 0.6520581730599317
4.359236262789639 1.4928049316859966 1.2088966259601892 1.6575347051434526
7.994222180783697 2.028210112737392 2.7585148672569417 3.207497200789365
13.3292648717403 2.6948318702667224 5.255826171041846 5.378606830431733
20.637758460576137 3.5266432146031104 8.914851833338858 8.196263412634162
30.05354070743089 4.552634583336088 13.857061126994019 11.64384499710078
41.52268641897626 5.789243115906948 20.040612184437315 15.692831118632004
55.18451955509259 7.223618937079637 27.645947257380854 20.3149533606321
70.9687397110112 8.814401844305408 36.674915650620896 25.47942221608487
88.5151648924422 10.352914963245349 47.061629904340165 31.100620024856706
106.93987274430921 11.469845681799784 58.49496449170614 36.975062570803296
124.67043022660864 11.736566443700042 70.17311258196513 42.760751200943474
139.80189326344228 11.021435135140383 80.88197403532976 47.8984840929722
150.46812044419318 9.927449461136087 88.88695406752491 51.653716915532215
146.57820172417686 3.64538761563826 90.46660761164337 52.4662064968952
206.7664643646092 67.99219173193455 87.73994022600576 51.03433240666891
146.5782017241501 3.6453876156381924 90.46660761162516 52.466206496886755
150.46812044413383 9.927449461127425 88.88695406749005 51.65371691551626
139.801893263368 11.02143513514022 80.8819740352797 47.898484092948145
124.67043022652612 11.736566443704037 70.17311258190708 42.76075120091505
106.93987274423984 11.469845681822367 58.49496449164509 36.97506257077228
88.51516489234842 10.352914963234188 47.06162990428619 31.100620024828103
70.968739710916 8.814401844290419 36.674915650569254 25.47942221605634
55.18451955500778 7.2236189370722865 27.645947257332125 20.31495336060341
41.522686418896825 5.789243115897694 20.04061218439417 15.692831118604955
30.05354070736729 4.552634583330107 13.85706112695966 11.643844997077547
20.637758460527944 3.5266432145989715 8.914851833313485 8.196263412615487
13.32926487170325 2.6948318702624645 5.2558261710238625 5.378606830416923
7.994222180760181 2.0282101127364145 2.7585148672453803 3.207497200778385
4.359236262774923 1.4928049316849445 1.2088966259538239 1.6575347051361562
2.1208744282630017 1.0744103655789226 0.39440588962726475 0.6520581730568142
0.89402394778669 0.6963183270137463 0.06510478394982604 0.13260083682311785
0.3352246611476058 0.33283033272463786 0.00011061870018663463 0.0022837097227812655
0.10440101402628837 0.10440101402628837 0.0 0.0
0.016484676289467988 0.016484676289467988 0.0 0.0
0.0008185988803582936 0.0008185988803582936 0.0 0.0
CELL_DATA 800
SCALARS Stress float 6
LOOKUP_TABLE default
161.83699910851232 -513.8875672792317 -182.08091133213796 -108.65296310763168 0.0 0.0
399.89192888122614 -58.312210873309475 116.27530345175246 56.79742902977712 0.0 0.0
400.92690785442255 9.317782135975186 122.87722099221457 -3.5189855436081814 0.0 0.0
460.6812639632846 -11.575835898797585 140.85669309046727 -14.421268128500483 0.0 0.0
536.1402407167619 -16.75659435721919 191.57698788377382 -11.514279500958398 0.0 0.0
608.0235188220189 -11.19103336627763 262.5014191949416 -9.977007063863267 0.0 0.0
677.7070548525425 -4.203392117325976 322.05803769751435 -10.252807027092253 0.0 0.0
747.6859693596265 10.565032720146448 372.90506184788524 -11.612821848555132 0.0 0.0
819.5321332519659 32.63960198592535 422.38366017859926 -13.13892615074722 0.0 0.0
893.4245273412239 61.25202334877201 474.48016238229684 -14.217340729579306 0.0 0.0
968.1779879375115 94.4372965102713 528.900604662967 -14.705834942088556 0.0 0.0
1042.6111464247874 131.1027488834661 584.77678507625 -14.641321781336078 0.0 0.0
1116.691475427178 169.81992659570275 641.4071857412008 -14.414183235139536 0.0 0.0
1191.2304807081132 211.16279889715346 699.4991295485223 -14.129361118945704 0.0 0.0
1266.9247084124236 255.96266206598725 759.8506455514503 -13.672345723244801 0.0 0.0
1343.1919366740394 303.92614926619694 822.0461109369896 -12.851199540763027 0.0 0.0
1417.7264781242586 353.43065554353495 884.1343463184799 -11.496359140702783 0.0 0.0
1487.575133478633 402.36271218058636 943.5695245697957 -9.73270637533814 0.0 0.0
1550.467767213916 449.4620111609791 998.5330311152957 -8.62535793578513 0.0 0.0
1630.6918579671565 521.0083460951382 1073.882658189649 -12.478358487435578 0.0 0.0
1630.6918579672192 521.0083460952085 1073.882658189626 12.478358487404485 0.0 0.0
1550.4677672128419 449.46201115994336 998.5330311144442 8.625357935867996 0.0 0.0
1487.57513347767 402.362712179696 943.5695245690586 9.732706375390414 0.0 0.0
1417.726478123954 353.43065554332276 884.1343463182255 11.496359140739779 0.0 0.0
1343.191936674606 303.9261492669017 822.0461109373218 12.851199540843606 0.0 0.0
1266.92470841214 255.96266206583624 759.8506455511723 13.672345723227686 0.0 0.0
1191.2304807071412 211.16279889632915 699.4991295478223 14.129361118823024 0.0 0.0
1116.6914754257084 169.8199265944066 641.4071857402648 14.41418323505171 0.0 0.0
1042.611146424103 131.1027488829868 584.7767850757635 14.641321781338913 0.0 0.0
968.1779879369716 94.4372965099553 528.9006046625207 14.705834942051185 0.0 0.0
893.4245273409832 61.25202334878642 474.48016238204457 14.21734072955666 0.0 0.0
819.5321332512194 32.639601985408376 422.3836601780865 13.13892615066651 0.0 0.0
747.6859693590848 10.565032719864377 372.90506184751933 11.612821848557246 0.0 0.0
677.7070548523012 -4.203392117290463 322.0580376972883 10.252807027083055 0.0 0.0
608.023518821736 -11.191033366275633 262.5014191946616 9.977007063752128 0.0 0.0
536.1402407164409 -16.75659435726741 191.57698788352286 11.514279500912386 0.0 0.0
460.6812639631343 -11.575835898628796 140.8566930904409 14.421268128573058 0.0 0.0
400.92690785434417 9.317782136163832 122.87722099225078 3.5189855437569038 0.0 0.0
399.8919288812662 -58.31221087314745 116.27530345177766 -56.79742902973989 0.0 0.0
161.8369991091055 -513.8875672786758 -182.08091133159124 108.65296310719243 0.0 0.0
62.38123261209586 -542.9491707676652 -241.96610949251323 -154.7351263859747 0.0 0.0
259.561178345847 -45.37669373770271 64.27062707999396 10.678630294185687 0.0 0.0
351.34053810614256 28.830456114094343 114.05080813974311 -10.036527424167609 0.0 0.0
424.219151320713 -9.215416796719957 126.14852465219917 -34.294747299943836 0.0 0.0
507.4188505683661 -17.46170750845675 169.80419507774877 -32.68820813052461 0.0 0.0
583.9663895014876 -12.29163188816944 241.12641570023953 -29.4965417358679 0.0 0.0
657.4805424274748 -5.242139936862976 306.6024799346351 -30.13142631805157 0.0 0.0
728.4656920108335 9.053824218782253 360.67290963816913 -32.1898628727958 0.0 0.0
799.1545089410928 29.774963882449697 410.0369254954469 -34.533254067035195 0.0 0.0
870.2176104782679 55.9371018960351 459.8582051839426 -35.919295793084835 0.0 0.0
940.7901324901788 85.666301770581 510.60286583868816 -36.10083092120276 0.0 0.0
1010.4508170775568 117.61789073903127 561.7926169480492 -35.47265497255084 0.0 0.0
1079.4376577250043 152.09954995155726 613.7844166244743 -34.57332006690188 0.0 0.0
1148.822576701048 189.0184866541759 667.1136387933728 -33.60262365679822 0.0 0.0
1218.913745765605 228.67637494855484 722.1196124750611 -32.33976788505357 0.0 0.0
1289.2001986999298 270.991061691082 778.5223124112167 -30.372059714293194 0.0 0.0
1358.3767582591681 315.2391937844896 835.3033627893537 -27.477491643829232 0.0 0.0
1424.9722087910118 360.8624663063116 891.4243092349358 -24.146728921390974 0.0 0.0
1492.854955955494 413.0733529807203 951.3146061609833 -21.645297984963516 0.0 0.0
1543.0039546149821 454.22811782648444 996.8056202648195 -19.52538377240589 0.0 0.0
1543.0039546149528 454.2281178264693 996.8056202648164 19.52538377244175 0.0 0.0
1492.854955954454 413.0733529797209 951.3146061602093 21.645297985026335 0.0 0.0
1424.9722087894388 360.86246630480014 891.424309233764 24.14672892142435 0.0 0.0
1358.3767582585594 315.239193783971 835.3033627888444 27.4774916438273 0.0 0.0
1289.20019869945 270.9910616907276 778.5223124108459 30.372059714390133 0.0 0.0
1218.9137457644936 228.67637494756076 722.1196124742215 32.33976788499997 0.0 0.0
1148.8225767002778 189.01848665354967 667.1136387927658 33.60262365667225 0.0 0.0
1079.437657724942 152.09954995166513 613.7844166243107 34.573320066849064 0.0 0.0
1010.4508170772768 117.61789073897711 561.7926169478573 35.47265497264018 0.0 0.0
940.7901324903321 85.66630177096928 510.6028658387826 36.100830921227114 0.0 0.0
870.2176104779745 55.93710189599301 459.85820518374675 35.91929579315804 0.0 0.0
799.1545089406037 29.77496388221104 410.0369254951081 34.533254066915916 0.0 0.0
728.4656920105065 9.053824218720308 360.67290963790816 32.18986287275761 0.0 0.0
657.4805424273383 -5.242139936701932 306.6024799344705 30.131426318115135 0.0 0.0
583.9663895014133 -12.291631887921334 241.12641570009538 29.496541735803646 0.0 0.0
507.41885056799515 -17.461707508599034 169.804195077492 32.68820813042517 0.0 0.0
424.21915132045046 -9.215416796745268 126.14852465211739 34.29474729997943 0.0 0.0
351.3405381061066 28.830456114092584 114.0508081397322 10.036527424201559 0.0 0.0
259.56117834598376 -45.376693737305125 64.27062708015691 -10.67863029429227 0.0 0.0
62.38123261233278 -542.9491707673641 -241.96610949220346 154.7351263857781 0.0 0.0
12.56944170154162 -548.8765644681471 -262.501833676345 -169.17271242689432 0.0 0.0
148.23252044462623 -38.236235249267445 32.998885558607626 -42.93461186942566 0.0 0.0
285.7601443940645 32.57558560470863 95.50071899963194 -33.183833332226605 0.0 0.0
377.34822179905905 -0.8665745044310302 113.29279281249813 -53.65376945043332 0.0 0.0
469.37533649235445 -16.10597846739067 148.49921596816938 -56.02646328439258 0.0 0.0
556.5948491751187 -15.210380492414822 215.44979208304622 -50.95760612375151 0.0 0.0
633.0819770213849 -5.42509751516155 287.77958023324055 -50.329177189802074 0.0 0.0
704.8651328540104 7.602724824283015 345.3576028297819 -52.70521853720831 0.0 0.0
774.8450914612243 27.002620717798713 395.4513255279774 -55.479525786218616 0.0 0.0
843.0359297803112 50.417494366454974 443.04060943026076 -56.90183518719103 0.0 0.0
909.533995179243 76.41302617193995 490.07066630373356 -56.724297486659395 0.0 0.0
974.3705261292876 104.38200566306479 536.9358515196191 -55.53306622692772 0.0 0.0
1038.6095215272937 134.14819989939474 584.2355993621352 -54.137547503701725 0.0 0.0
1102.6711693524699 166.4095829276646 632.6090558853163 -52.548447244343805 0.0 0.0
1166.9658384797522 200.75071915192478 682.091545483253 -50.51134944229304 0.0 0.0
1231.3009813739056 237.2324173045762 732.62371862497 -47.59183181932761 0.0 0.0
1295.3098640798614 276.21308042321994 784.181688957136 -43.58684435594389 0.0 0.0
1359.9966923140746 319.7273800395166 838.2519894634578 -39.00568372011767 0.0 0.0
1420.534197225656 364.13065534205623 890.6347709588646 -33.671165100345895 0.0 0.0
1463.0341776367477 396.6653729484124 928.0467312456968 -25.646880719669465 0.0 0.0
1463.0341776366788 396.66537294835496 928.0467312455745 25.646880719732284 0.0 0.0
1420.5341972254446 364.1306553419033 890.6347709586615 33.67116510049655 0.0 0.0
1359.9966923134843 319.7273800389962 838.2519894630352 39.00568372015639 0.0 0.0
1295.309864079836 276.2130804232878 784.1816889570873 43.586844356029374 0.0 0.0
1231.30098137325 237.2324173040563 732.6237186245177 47.59183181949879 0.0 0.0
1166.9658384795582 200.75071915187323 682.0915454830672 50.51134944232065 0.0 0.0
1102.6711693523657 166.40958292775383 632.6090558851474 52.5484472445072 0.0 0.0
1038.6095215261557 134.14819989840902 584.2355993613002 54.13754750363687 0.0 0.0
974.3705261278217 104.38200566178179 536.9358515186609 55.53306622690122 0.0 0.0
909.533995178641 76.41302617154344 490.07066630337766 56.724297486588625 0.0 0.0
843.0359297798793 50.4174943662385 443.0406094299588 56.901835187142765 0.0 0.0
774.8450914602148 27.002620717033537 395.45132552733776 55.479525786214296 0.0 0.0
704.8651328533804 7.602724823940392 345.357602829381 52.705218537256414 0.0 0.0
633.0819770208997 -5.425097515386504 287.77958023285083 50.3291771897359 0.0 0.0
556.5948491745103 -15.21038049278928 215.44979208256171 50.9576061236483 0.0 0.0
469.37533649196826 -16.105978467487347 148.49921596795824 56.026463284415556 0.0 0.0
377.3482217987845 -0.8665745045616049 113.2927928123932 53.65376945043474 0.0 0.0
285.76014439393833 32.57558560441052 95.50071899950463 33.18383333215615 0.0 0.0
148.23252044479756 -38.23623524888901 32.998885558772564 42.93461186913744 0.0 0.0
12.569441701685491 -548.876564467865 -262.5018336760766 169.1727124267771 0.0 0.0
-5.994168922189175 -535.3444888590175 -256.66313780476725 -171.39587221238975 0.0 0.0
86.743739409809 -38.725875380135236 14.40535920890212 -88.31723902799841 0.0 0.0
223.60669275701957 30.23630870555334 76.15290043877187 -63.76966677115949 0.0 0.0
325.5670912521041 6.413291298228214 99.58350925599024 -74.67922837137826 0.0 0.0
421.643284893006 -13.557159363156904 127.76428735823654 -81.36494436268984 0.0 0.0
518.209089757251 -16.212148751668863 187.21371236011186 -74.4455652875852 0.0 0.0
601.7571320904902 -7.000011816740642 262.6264290993425 -71.32918794754185 0.0 0.0
676.6608070760611 6.769053088561705 326.6470737984182 -73.2837819153659 0.0 0.0
745.7401658757303 24.088290247324196 377.8073633188397 -75.95009883511068 0.0 0.0
811.2861790586271 44.66914039169184 423.60840426845266 -77.17112884111944 0.0 0.0
873.9186368705498 67.03299553999065 467.2073925533038 -76.58300312646845 0.0 0.0
934.392761226897 90.88772528671393 509.94964437993656 -74.9132913080864 0.0 0.0
993.4757357823887 116.23575908599389 552.5184725212093 -73.02530047008268 0.0 0.0
1052.4887824296184 143.5913033352021 595.9601427576231 -70.94652728984519 0.0 0.0
1111.0837272799029 172.36910127857888 639.8503002307788 -68.2497357458628 0.0 0.0
1169.1611373014998 203.00229850412637 684.3537414513677 -64.55435133824338 0.0 0.0
1228.2063413805347 236.7918019284926 730.8345744510918 -59.799262849382956 0.0 0.0
1287.9303369211261 274.74791327133585 779.6544882784125 -53.90405551894414 0.0 0.0
1343.3764991958415 312.9299445788114 826.4034413395977 -45.52934645452302 0.0 0.0
1383.174361555135 341.05903597191445 860.2741489787381 -32.1246823902577 0.0 0.0
1383.174361555737 341.05903597255747 860.2741489791786 32.12468239038998 0.0 0.0
1343.3764991963828 312.9299445793995 826.403441340062 45.52934645456192 0.0 0.0
1287.9303369216411 274.7479132719421 779.6544882787524 53.90405551903734 0.0 0.0
1228.2063413808955 236.79180192894415 730.8345744513131 59.7992628494266 0.0 0.0
1169.1611373016765 203.00229850443867 684.3537414514805 64.55435133831583 0.0 0.0
1111.0837272802355 172.36910127905216 639.8503002309618 68.2497357458761 0.0 0.0
1052.4887824296356 143.59130333536376 595.9601427576254 70.94652728979965 0.0 0.0
993.4757357829393 116.23575908672822 552.5184725215431 73.02530047011201 0.0 0.0
934.3927612267673 90.88772528677677 509.9496443796958 74.9132913080768 0.0 0.0
873.9186368696614 67.03299553935233 467.2073925526101 76.58300312656374 0.0 0.0
811.2861790585233 44.66914039180537 423.60840426830515 77.17112884104523 0.0 0.0
745.740165875032 24.088290246855266 377.80736331834015 75.95009883506954 0.0 0.0
676.6608070757163 6.769053088528082 326.64707379815997 73.28378191542257 0.0 0.0
601.7571320898224 -7.000011817137867 262.6264290988246 71.32918794750174 0.0 0.0
518.2090897567728 -16.212148751849476 187.21371235975406 74.44556528752656 0.0 0.0
421.64328489278535 -13.557159362963912 127.76428735819833 81.36494436268897 0.0 0.0
325.56709125211364 6.413291298608751 99.58350925611015 74.67922837127217 0.0 0.0
223.60669275710603 30.236308705797807 76.15290043887116 63.76966677099296 0.0 0.0
86.7437394099822 -38.72587537979871 14.405359209055042 88.31723902769095 0.0 0.0
-5.994168922086445 -535.3444888587995 -256.6631378045212 171.3958722122265 0.0 0.0
-9.86696525616496 -510.56026657546454 -236.44006470516717 -169.2048813277821 0.0 0.0
51.72310138552582 -40.29411143154776 3.4286969861934162 -123.6307765378667 0.0 0.0
169.99605099132305 25.040901131595817 58.51108563687565 -94.6310478528338 0.0 0.0
270.7842540060478 10.694528224851666 84.44320126280186 -97.18387629250721 0.0 0.0
364.25394264200565 -8.669897037607571 108.39029748412358 -106.14135995709904 0.0 0.0
468.54083714999507 -16.367576580843966 157.4367521555901 -101.10805942615052 0.0 0.0
562.8419294619596 -9.112658046883746 231.6056681141689 -94.2790962554812 0.0 0.0
642.1133639805996 5.4772748590347184 302.3743667766057 -93.9480748075282 0.0 0.0
711.1466969615449 21.273496100849627 356.38892437738133 -95.99309384933044 0.0 0.0
774.2963215224052 38.71410620653644 401.0405735770124 -96.7787066063251 0.0 0.0
833.4315967589237 57.502607451196766 441.65309209127213 -95.71456661495536 0.0 0.0
889.4312758295362 77.25705824267669 480.3078275671735 -93.56249022213846 0.0 0.0
943.7257575744699 98.17998307756561 518.3749084361219 -91.33552635741027 0.0 0.0
997.1041584693867 120.61858924825194 556.5945261947456 -88.76919671212072 0.0 0.0
1050.1050159867102 144.07540752821689 595.0674878026399 -85.50342283982236 0.0 0.0
1102.7739755676223 168.78982778569838 633.9481628218089 -81.31045481267486 0.0 0.0
1155.3516844259625 196.10726950642527 673.9903023498526 -75.96345411565991 0.0 0.0
1209.1514038271398 227.3558205276525 716.5100863754719 -68.92736061586008 0.0 0.0
1260.7253686880701 259.85132002724055 758.4802268375224 -57.829617088821024 0.0 0.0
1300.6291407664517 285.5087187397468 791.147621827992 -39.50818089890206 0.0 0.0
1300.6291407661047 285.5087187394446 791.1476218277178 39.508180899087805 0.0 0.0
1260.7253686872314 259.851320026463 758.4802268368728 57.82961708899529 0.0 0.0
1209.1514038261923 227.35582052679848 716.5100863747892 68.92736061600321 0.0 0.0
1155.3516844261771 196.1072695067182 673.9903023499231 75.9634541156697 0.0 0.0
1102.7739755676903 168.78982778592464 633.948162821804 81.31045481280961 0.0 0.0
1050.105015986639 144.0754075283355 595.0674878025491 85.50342283997212 0.0 0.0
997.1041584693385 120.61858924834385 556.5945261946687 88.76919671212676 0.0 0.0
943.7257575740718 98.17998307740069 518.3749084358826 91.33552635758734 0.0 0.0
889.4312758291112 77.25705824240458 480.3078275668778 93.56249022203852 0.0 0.0
833.4315967583091 57.50260745083385 441.65309209085285 95.71456661506673 0.0 0.0
774.2963215222097 38.714106206537494 401.04057357685394 96.77870660620674 0.0 0.0
711.1466969615782 21.2734961011068 356.3889243773533 95.99309384923234 0.0 0.0
642.1133639802307 5.477274858929363 302.37436677630257 93.94807480750399 0.0 0.0
562.8419294614217 -9.112658047110166 231.60566811372587 94.27909625547643 0.0 0.0
468.54083714975854 -16.3675765806772 157.4367521554309 101.10805942611994 0.0 0.0
364.25394264199133 -8.669897037001316 108.39029748429499 106.14135995695499 0.0 0.0
270.7842540060691 10.694528225300513 84.44320126294924 97.18387629231862 0.0 0.0
169.9960509914538 25.040901131737265 58.51108563695731 94.63104785269076 0.0 0.0
51.723101385646984 -40.294111431257924 3.428696986316714 123.63077653769162 0.0 0.0
-9.866965256206925 -510.56026657527724 -236.44006470495992 169.20488132769606 0.0 0.0
-7.122118787196015 -478.2619933057422 -208.21942388189635 -165.75429896390455 0.0 0.0
30.25319327978786 -41.25161099986785 -3.2995253160239946 -149.87993298042815 0.0 0.0
124.12833424462401 18.927399360005833 42.916720081388945 -121.9585077578219 0.0 0.0
215.28236446231995 12.518715102203732 68.33634741077354 -119.63128398076722 0.0 0.0
301.5568099561303 -3.1471407514013703 89.99002267086709 -128.95077919730798 0.0 0.0
402.9145019458573 -14.968950357114498 127.05767243196175 -129.60537121808142 0.0 0.0
508.4929413552569 -10.079832255615312 194.67917306425377 -120.20699571880549 0.0 0.0
596.8086835286906 2.7603682781498904 269.16345712387306 -115.78571676711074 0.0 0.0
669.3753172171928 18.10557528791255 329.24472996837324 -115.8780931431767 0.0 0.0
730.9312318585254 32.728721223870764 374.36992779307093 -115.74002173565106 0.0 0.0
786.5322435525492 47.71652120005545 412.3812723658177 -114.14240062435628 0.0 0.0
838.4472060787502 63.54764761486053 447.44076208768087 -111.54602293173122 0.0 0.0
887.7843748623784 80.18756380144238 481.0680954281595 -108.95034672433158 0.0 0.0
935.734983690643 97.5168922302431 514.1208053624196 -106.12682075502002 0.0 0.0
983.3562835808916 115.74433394302109 547.3351606566924 -102.44533292141863 0.0 0.0
1029.983462198055 134.98598830275947 580.505345365989 -97.66421568119671 0.0 0.0
1075.9880463601755 154.96163494356026 613.6600098887304 -91.95118669535765 0.0 0.0
1122.7999215175514 177.96396079106307 648.599011065742 -84.24172773350992 0.0 0.0
1170.577534780926 204.48919204753898 685.664296395881 -71.0487534029125 0.0 0.0
1212.7732752356976 228.74457631658373 718.717081486692 -48.38317412397762 0.0 0.0
1212.7732752356856 228.74457631661974 718.7170814867387 48.383174124073896 0.0 0.0
1170.5775347811314 204.4891920478132 685.6642963961132 71.04875340304365 0.0 0.0
1122.7999215175832 177.96396079119725 648.5990110658499 84.241727733677 0.0 0.0
1075.9880463603317 154.96163494382023 613.660009888824 91.951186695411 0.0 0.0
1029.9834621976893 134.98598830246812 580.5053453657109 97.66421568110682 0.0 0.0
983.3562835803568 115.74433394258517 547.3351606562817 102.44533292140137 0.0 0.0
935.7349836893142 97.51689222902624 514.1208053614606 106.1268207550153 0.0 0.0
887.7843748617289 80.18756380095178 481.0680954276461 108.95034672436718 0.0 0.0
838.4472060789009 63.54764761521835 447.44076208771753 111.54602293173286 0.0 0.0
786.5322435522569 47.716521199972576 412.38127236556346 114.14240062437187 0.0 0.0
730.9312318578584 32.728721223364815 374.36992779257906 115.74002173552691 0.0 0.0
669.3753172163838 18.10557528729295 329.24472996779565 115.87809314311122 0.0 0.0
596.8086835281264 2.7603682778630727 269.1634571234051 115.7857167670727 0.0 0.0
508.4929413546294 -10.079832255911548 194.6791730637899 120.20699571879291 0.0 0.0
402.9145019451167 -14.968950357737205 127.05767243149327 129.60537121790162 0.0 0.0
301.5568099559255 -3.147140751275055 89.99002267084843 128.95077919721382 0.0 0.0
215.28236446224838 12.518715102300888 68.33634741078265 119.63128398066756 0.0 0.0
124.1283342446128 18.927399359915626 42.91672008135852 121.95850775759558 0.0 0.0
30.25319327982843 -41.25161099971626 -3.299525315966349 149.8799329802552 0.0 0.0
-7.12211878715047 -478.2619933053663 -208.21942388161162 165.75429896389764 0.0 0.0
-1.5067967174788421 -439.9689333620636 -175.6407688396627 -162.31123999315585 0.0 0.0
14.875834149251759 -42.20103887262282 -8.197613625263964 -168.2305721082863 0.0 0.0
83.67929916841437 13.055907367104584 29.020561960655677 -144.17560736856848 0.0 0.0
160.26412418576814 13.766502835536897 52.206064528704324 -140.1673559387505 0.0 0.0
235.39879706604484 1.0009143136083227 71.16538750071862 -149.33334131386627 0.0 0.0
325.5451725750198 -10.80219714183475 98.39441384951911 -156.95534286399504 0.0 0.0
435.5441771311257 -10.603811954645984 152.86438015828736 -149.5784057085009 0.0 0.0
535.749682386556 0.3012898849867254 226.067769859854 -140.09359760954592 0.0 0.0
615.1674114209674 13.735863077097248 291.85450804104505 -136.30653846073284 0.0 0.0
678.3239761223011 26.52144071608038 340.9517215684886 -134.29870242868353 0.0 0.0
730.9028146277782 37.701948881915605 377.65835560662 -131.9062489055589 0.0 0.0
778.9637549162073 49.81704279571857 409.8519485326596 -128.86844312131046 0.0 0.0
823.4613830943435 62.155343509281444 439.3181542979152 -125.96460559143941 0.0 0.0
865.7464794832363 74.66510187816152 467.35769137256324 -122.93631786503843 0.0 0.0
907.2302914525519 87.33585456569031 494.81192087954247 -119.08064295393491 0.0 0.0
949.1731506245216 101.42187328512838 523.1065912774374 -113.86637004371715 0.0 0.0
988.3624643989511 114.45542765590704 549.4929686167904 -107.54104006489713 0.0 0.0
1026.3524890257838 127.61643018075048 575.1929833023712 -99.69902405213406 0.0 0.0
1069.5328711865106 145.95562734953864 605.827246141286 -85.6743641518785 0.0 0.0
1116.2162428762092 169.30114193958906 640.5458251048291 -59.623227938656 0.0 0.0
1116.2162428762601 169.3011419397034 640.5458251049095 59.623227938836806 0.0 0.0
1069.5328711863745 145.9556273494978 605.8272461412557 85.67436415208728 0.0 0.0
1026.3524890248048 127.6164301798556 575.1929833016391 99.69902405225952 0.0 0.0
988.3624643986334 114.45542765577761 549.4929686164974 107.5410400651781 0.0 0.0
949.1731506242185 101.42187328497084 523.1065912771875 113.86637004379347 0.0 0.0
907.2302914525759 87.33585456593192 494.81192087957305 119.08064295409474 0.0 0.0
865.7464794831344 74.66510187826921 467.35769137256364 122.93631786514649 0.0 0.0
823.4613830948798 62.155343510034754 439.3181542983091 125.96460559153559 0.0 0.0
778.9637549164149 49.81704279613909 409.8519485327783 128.86844312136904 0.0 0.0
730.9028146279907 37.70194888248486 377.6583556067724 131.90624890565866 0.0 0.0
678.3239761224512 26.52144071644007 340.9517215685339 134.29870242860932 0.0 0.0
615.1674114212922 13.73586307785618 291.8545080412391 136.30653846080932 0.0 0.0
535.7496823862812 0.3012898849551817 226.06776985955642 140.09359760943798 0.0 0.0
435.54417713072917 -10.603811954612915 152.86438015802617 149.57840570849478 0.0 0.0
325.5451725747687 -10.802197141672362 98.39441384946197 156.9553428638289 0.0 0.0
235.39879706597094 1.0009143137736833 71.16538750075208 149.33334131372962 0.0 0.0
160.26412418556794 13.766502835357393 52.2060645285914 140.16735593851172 0.0 0.0
83.67929916832148 13.055907366930578 29.020561960575613 144.17560736826533 0.0 0.0
14.875834149172183 -42.201038872692735 -8.197613625308751 168.23057210810677 0.0 0.0
-1.506796717440352 -439.9689333618639 -175.64076883943773 162.3112399929885 0.0 0.0
3.2333551256636213 -397.1704396802717 -143.35557663772357 -159.59790878821175 0.0 0.0
0.3426999345860664 -43.656835515083436 -12.993477073373198 -178.94856026233742 0.0 0.0
46.71496984977253 8.34243354279538 16.516817946522828 -161.2675628195991 0.0 0.0
106.57749799095616 15.055872620022432 36.48835442054643 -157.31137255153286 0.0 0.0
166.91157326041414 3.7456311395178328 51.34426382023841 -167.2830840792785 0.0 0.0
236.90653504968026 -5.03201883924523 71.2151314001614 -178.7306130978622 0.0 0.0
336.5271641899212 -8.559715134074393 108.88431541840279 -180.50528977209987 0.0 0.0
448.749688804567 -1.7798608234948623 171.66896208941358 -168.86398617088327 0.0 0.0
540.3977628593361 8.732049496497002 239.14170928468099 -158.93285939267773 0.0 0.0
608.3253795723037 19.40682858703285 293.82679535393777 -153.0428251082295 0.0 0.0
661.0247511795976 27.37754536989449 332.8676341532922 -149.35829296102855 0.0 0.0
705.1833839670824 35.79960980609415 363.48682627966315 -145.61699746482793 0.0 0.0
744.9804781233598 44.35316128626819 389.86148710919497 -142.35315994862754 0.0 0.0
781.5624934602035 52.05840040421332 413.2643528886804 -139.20483370464692 0.0 0.0
816.9108978605352 59.27983712895466 435.2534838816881 -135.48001870366303 0.0 0.0
852.9781573638079 67.44334650246412 457.7180835488689 -130.06015491822885 0.0 0.0
888.5378528478914 75.59180062672567 479.92166985763464 -122.86913450395835 0.0 0.0
917.2331104302186 78.31684553078662 496.024300875451 -114.82916842388533 0.0 0.0
950.4004543399928 83.40744723998951 515.0204987294627 -101.72841311375639 0.0 0.0
1002.8089135366052 104.80922416573436 551.3514230247283 -74.4658532690524 0.0 0.0
1002.8089135366602 104.80922416581328 551.3514230247857 74.46585326919316 0.0 0.0
950.4004543391857 83.40744723929657 515.0204987289198 101.7284131139984 0.0 0.0
917.2331104297058 78.31684553038849 496.02430087504274 114.82916842409014 0.0 0.0
888.537852848889 75.59180062800505 479.9216698582473 122.86913450423515 0.0 0.0
852.9781573644894 67.44334650337157 457.71808354928953 130.06015491833386 0.0 0.0
816.9108978611599 59.279837129737075 435.25348388209176 135.4800187036508 0.0 0.0
781.5624934597082 52.05840040379809 413.26435288832704 139.20483370464032 0.0 0.0
744.9804781221673 44.353161285051755 389.86148710832447 142.35315994849012 0.0 0.0
705.18338396648 35.79960980552097 363.4868262792013 145.61699746468588 0.0 0.0
661.0247511791973 27.377545369602913 332.8676341529551 149.3582929609463 0.0 0.0
608.3253795721552 19.406828587053006 293.826795353761 153.04282510812405 0.0 0.0
540.3977628590998 8.732049496633437 239.14170928449056 158.93285939273133 0.0 0.0
448.7496888042734 -1.7798608233885318 171.66896208919832 168.86398617088997 0.0 0.0
336.5271641893665 -8.559715134253839 108.88431541812403 180.50528977206397 0.0 0.0
236.90653504941048 -5.032018839177391 71.21513140009966 178.73061309767996 0.0 0.0
166.91157326032095 3.7456311394476423 51.34426382019363 167.2830840790804 0.0 0.0
106.57749799082607 15.055872619847637 36.48835442045578 157.31137255134533 0.0 0.0
46.714969849849226 8.342433542963821 16.51681794659688 161.26756281947024 0.0 0.0
0.34269993456702563 -43.65683551493035 -12.99347707333376 178.9485602622003 0.0 0.0
3.2333551256446853 -397.1704396799446 -143.3555766375209 159.5979087881731 0.0 0.0
2.5320391937416744 -350.6454908397377 -115.98041835054278 -155.60865213749705 0.0 0.0
-16.71632144075607 -46.683986774563095 -19.018367310025585 -184.6382139005574 0.0 0.0
12.198922915522711 5.612647071158373 5.343175154147347 -173.41845463836347 0.0 0.0
54.40969957527329 16.073766700718952 21.14392615929724 -170.53226361562008 0.0 0.0
96.76030622113346 7.276080814507754 31.30868377405219 -180.4677344835592 0.0 0.0
143.08436902530502 -1.1354633743115863 43.3754464187971 -195.54154760770604 0.0 0.0
210.99895258581108 -3.413650462042872 65.7287779238497 -205.06292198992927 0.0 0.0
313.55857520822906 -1.2018040080458565 106.94281271952569 -201.21809565287919 0.0 0.0
421.0200836929197 4.542987993885523 164.09517268081098 -187.12732023660314 0.0 0.0
501.255532883098 10.960763266035833 219.59423303255625 -174.25680012564194 0.0 0.0
557.5159891026669 17.098157817067744 263.5146244122283 -167.01900399965604 0.0 0.0
599.7118104633605 21.348710749183866 295.4057413405283 -162.18322474946254 0.0 0.0
635.4523111158222 26.453703514704394 321.3041503652081 -158.32444987044636 0.0 0.0
666.3893035051982 29.9901517367027 342.04968795305183 -154.87932746251013 0.0 0.0
694.8061435558552 31.78971275545736 359.2497709199467 -151.28120181121534 0.0 0.0
723.9303491909711 33.1755328718572 375.54301021624536 -146.39354984279095 0.0 0.0
756.9571272799568 36.06634854144248 393.8961820070985 -138.5672053590344 0.0 0.0
786.1615471943351 35.13433770616217 408.72832071923546 -128.89451433190607 0.0 0.0
801.7686466978878 17.990130980730925 408.41077657133667 -118.10712953450226 0.0 0.0
856.513558167804 29.533119512777688 440.23695680787495 -94.9088021312023 0.0 0.0
856.5135581683667 29.53311951339765 440.23695680825733 94.90880213145651 0.0 0.0
801.7686466981461 17.990130981286086 408.4107765716239 118.10712953493658 0.0 0.0
786.1615471944768 35.134337706585995 408.7283207193677 128.894514332398 0.0 0.0
756.9571272800329 36.06634854181556 393.89618200715364 138.56720535928332 0.0 0.0
723.9303491912424 33.17553287231607 375.54301021642874 146.39354984287328 0.0 0.0
694.8061435565145 31.789712756554337 359.2497709204601 151.28120181146767 0.0 0.0
666.389303505523 29.990151737278993 342.04968795324515 154.8793274627161 0.0 0.0
635.4523111156835 26.453703514845614 321.30415036515274 158.32444987062482 0.0 0.0
599.7118104633944 21.348710749325747 295.40574134045835 162.1832247493799 0.0 0.0
557.5159891023948 17.09815781689774 263.5146244119772 167.0190039996054 0.0 0.0
501.25553288282026 10.960763265946888 219.59423303230545 174.25680012556856 0.0 0.0
421.02008369283675 4.54298799443076 164.09517268082055 187.12732023673385 0.0 0.0
313.5585752078629 -1.2018040079305656 106.9428127193811 201.218095652885 0.0 0.0
210.99895258555352 -3.413650461901022 65.7287779237989 205.06292198979347 0.0 0.0
143.08436902543684 -1.135463373701291 43.37544641901256 195.5415476075559 0.0 0.0
96.76030622116022 7.276080814750863 31.308683774136217 180.4677344833536 0.0 0.0
54.40969957523921 16.073766700656634 21.14392615926873 170.5322636154497 0.0 0.0
12.198922915445305 5.612647071112924 5.343175154110608 173.4184546381855 0.0 0.0
-16.716321440861122 -46.6839867746496 -19.018367310083818 184.63821390041142 0.0 0.0
2.532039193690167 -350.6454908394081 -115.98041835039827 155.60865213741454 0.0 0.0
-4.282236285838451 -301.3801112105501 -94.64181733060083 -148.03431900495073 0.0 0.0
-35.34621076041764 -51.10040071995399 -25.931235204056094 -187.6846898105644 0.0 0.0
-20.58013106682491 4.59818938577543 -4.794788158320134 -181.12321633269443 0.0 0.0
3.7306548013309917 16.900332746460656 6.189866282003724 -179.18634068564882 0.0 0.0
26.346370292580293 11.122147688879144 11.271266597406743 -188.40166571275023 0.0 0.0
46.09544484452963 3.1086500670707724 15.021870831941351 -204.74220052376373 0.0 0.0
70.42224632553594 -0.26527241537086166 22.023891760991926 -219.30732428896437 0.0 0.0
110.28536320216848 0.2674612348722558 35.6811419527702 -224.66577484544518 0.0 0.0
174.91640209544818 3.8693957346470835 59.72503270099034 -215.79905671372302 0.0 0.0
248.13301855319713 5.312127226112029 89.71639336910576 -201.4100881475666 0.0 0.0
311.406545407462 8.567140618898733 123.41510666330579 -187.824062510011 0.0 0.0
362.08125526127253 8.50206705313198 154.22062346268117 -180.21986770252678 0.0 0.0
398.7386999946352 9.505240245927837 180.36460016894958 -174.19944428986955 0.0 0.0
425.78404760370074 8.545886858250896 200.77148611410774 -169.4276882701994 0.0 0.0
449.12475493139124 5.142944076358162 216.92396460877467 -165.45801327005546 0.0 0.0
476.0383447052374 -0.7465520186461561 231.5684720967036 -161.43058929105834 0.0 0.0
512.1443274185951 -6.111038382808744 248.789361561276 -154.934446714677 0.0 0.0
558.9850355313217 -7.501563061069561 272.28153071177337 -143.87348313862333 0.0 0.0
588.9929143674902 -30.032668526657403 278.5941149869408 -130.09808352236544 0.0 0.0
617.0541359857259 -75.57527743815655 267.9998674867928 -119.88993347769345 0.0 0.0
617.0541359849333 -75.57527743898174 267.9998674863096 119.88993347783455 0.0 0.0
588.9929143667762 -30.032668527627123 278.59411498637746 130.09808352267018 0.0 0.0
558.9850355308585 -7.50156306138399 272.28153071151064 143.8734831390165 0.0 0.0
512.144327418136 -6.111038383393662 248.78936156096057 154.93444671480964 0.0 0.0
476.0383447046503 -0.7465520189961978 231.56847209639233 161.43058929112925 0.0 0.0
449.12475493099817 5.142944075728181 216.92396460842357 165.45801326992859 0.0 0.0
425.7840476042681 8.545886858878788 200.77148611445233 169.4276882701464 0.0 0.0
398.73869999429 9.50524024540465 180.36460016865254 174.1994442899375 0.0 0.0
362.0812552606523 8.502067052279322 154.2206234621833 180.2198677025339 0.0 0.0
311.4065454074793 8.567140618957175 123.41510666324388 187.82406250993492 0.0 0.0
248.13301855330366 5.312127226462724 89.71639336920373 201.41008814748267 0.0 0.0
174.91640209510305 3.8693957342816034 59.725032700757254 215.79905671379484 0.0 0.0
110.2853632022214 0.267461235393041 35.68114195293205 224.6657748454277 0.0 0.0
70.42224632534895 -0.2652724156203945 22.023891760859453 219.30732428878693 0.0 0.0
46.09544484434576 3.1086500665939267 15.021870831741653 204.74220052356128 0.0 0.0
26.346370292503146 11.122147688774309 11.271266597352799 188.4016657125851 0.0 0.0
3.7306548013533156 16.900332746491344 6.189866282020101 179.18634068534118 0.0 0.0
-20.58013106685574 4.598189385721364 -4.794788158346268 181.12321633238633 0.0 0.0
-35.34621076039744 -51.10040071992007 -25.931235204040828 187.6846898104572 0.0 0.0
-4.282236285938856 -301.3801112103382 -94.64181733054666 148.03431900479958 0.0 0.0
-16.147150938403605 -252.71861800738398 -80.77065180255167 -137.10825346680662 0.0 0.0
-52.063268479555504 -53.36924076935969 -31.629182259568026 -187.68362303368488 0.0 0.0
-52.05394941985276 3.940417812882582 -14.43858703682642 -184.8217701877976 0.0 0.0
-45.40828266194769 17.613592433552114 -8.34979194214586 -183.07997223463957 0.0 0.0
-43.30782308233333 14.767470198501636 -8.604443766319768 -190.61451064788713 0.0 0.0
-51.696977089649764 7.613655622893379 -13.505238427108281 -205.69412550637298 0.0 0.0
-72.26455649882055 2.6532830360451163 -21.881702968589437 -219.48290696096026 0.0 0.0
-110.72044719457149 0.13063952215831165 -35.701985762036635 -224.80725606234887 0.0 0.0
-174.697635358579 -3.756846294228179 -59.61814383479083 -215.85805364321865 0.0 0.0
-247.87440629290342 -5.230795155894871 -89.60432180676209 -201.39116952479566 0.0 0.0
-311.49462791526344 -7.563472981651003 -122.97638641153674 -187.74850779191374 0.0 0.0
-363.28056273089084 -7.051773443045242 -154.18720865507987 -179.80358303868556 0.0 0.0
-402.51060975529936 -8.492875959704463 -181.5828997886165 -173.6238596478104 0.0 0.0
-432.1405535273141 -12.45691170831958 -205.25507319585142 -169.42082270953 0.0 0.0
-453.0152948358599 -20.221869235316703 -225.95580119531581 -167.61333568089074 0.0 0.0
-463.32782105598386 -31.34644081336654 -243.03392315765785 -167.96227773864257 0.0 0.0
-453.49066382347064 -43.84742086643266 -252.55590893082552 -168.95597983799885 0.0 0.0
-394.2506569273233 -40.61115568493449 -239.60966509176657 -169.31958030519263 0.0 0.0
-212.32425822371818 -34.45441614629598 -173.7694656924404 -171.74855141883918 0.0 0.0
4.225537595208692 -174.26563157449795 -66.68870071810673 -150.3429026959854 0.0 0.0
4.225537595772607 -174.26563157351717 -66.6887007176689 150.3429026963505 0.0 0.0
-212.32425822313206 -34.45441614513922 -173.7694656919203 171.74855141930084 0.0 0.0
-394.25065692740327 -40.611155685289276 -239.60966509181725 169.3195803054952 0.0 0.0
-453.4906638237135 -43.84742086680117 -252.55590893094808 168.9559798380485 0.0 0.0
-463.3278210561041 -31.346440813911187 -243.0339231577856 167.9622777386222 0.0 0.0
-453.0152948360526 -20.221869235921176 -225.95580119547577 167.61333568091823 0.0 0.0
-432.14055352703406 -12.456911708205041 -205.25507319560776 169.42082270951346 0.0 0.0
-402.5106097548795 -8.492875959636876 -181.58289978835484 173.62385964787148 0.0 0.0
-363.28056273026135 -7.051773443260679 -154.18720865482788 179.80358303871935 0.0 0.0
-311.4946279146119 -7.563472981678963 -122.97638641122394 187.74850779191016 0.0 0.0
-247.8744062922139 -5.230795156017098 -89.6043218065036 201.39116952476786 0.0 0.0
-174.697635358129 -3.7568462944751424 -59.61814383470248 215.85805364332384 0.0 0.0
-110.72044719434646 0.13063952208080742 -35.70198576198294 224.80725606236766 0.0 0.0
-72.26455649864107 2.6532830360444546 -21.881702968525396 219.4829069607551 0.0 0.0
-51.696977089409984 7.613655623100307 -13.505238426972134 205.69412550619123 0.0 0.0
-43.30782308220209 14.767470198626928 -8.604443766243218 190.6145106476198 0.0 0.0
-45.40828266200145 17.613592433420205 -8.349791942203066 183.07997223442618 0.0 0.0
-52.053949419638386 3.940417813236307 -14.438587036659008 184.82177018762962 0.0 0.0
-52.06326847952069 -53.369240769376226 -31.629182259565496 187.68362303354382 0.0 0.0
-16.14715093848832 -252.71861800715644 -80.7706518025193 137.1082534666893 0.0 0.0
-24.423985512594506 -206.2817622634824 -69.20856671485471 -124.09048867012831 0.0 0.0
-65.91566342704702 -52.61450792079021 -35.558729337435764 -183.85488212105054 0.0 0.0
-81.98565326378055 3.2276772992674294 -23.638791134028914 -184.52380247737952 0.0 0.0
-92.99227024785759 18.08996884042627 -22.484895882618407 -182.32954812253155 0.0 0.0
-111.49812114346896 17.634827289858816 -28.340663507747955 -186.80600643919638 0.0 0.0
-147.5925764336048 11.361864535676881 -41.81695879376929 -197.85897322194307 0.0 0.0
-212.4544234178608 5.714663822948556 -65.5564867799023 -206.0466854635413 0.0 0.0
-313.4646797055342 1.4996645694822135 -106.89780820917922 -201.5409403986039 0.0 0.0
-420.70989435044623 -4.478997233548828 -163.96197124955603 -187.24129865290146 0.0 0.0
-501.0020750959744 -10.741345881705328 -219.40089651074743 -174.22171945254524 0.0 0.0
-557.1754945154177 -16.358345167647805 -263.07688915770035 -166.81175506692796 0.0 0.0
-599.6104500907243 -20.01848840640453 -294.80548528989755 -161.5487336292864 0.0 0.0
-636.5568287912838 -25.574118890249636 -321.38258879536113 -157.22060109636018 0.0 0.0
-670.5789465314715 -33.24961082234856 -345.44092997264386 -154.37748117794058 0.0 0.0
-703.0600265386272 -44.70903770285865 -369.3173839461828 -153.9607849273774 0.0 0.0
-732.7316769931356 -59.8666284612016 -393.01331496517173 -156.25368556479577 0.0 0.0
-754.961595518037 -76.13654607653194 -413.560474633719 -161.6184803214383 0.0 0.0
-765.0240043445087 -90.23599506063366 -427.05264105534576 -170.06640515480967 0.0 0.0
-801.1550335671866 -144.79104311069457 -473.2786561534879 -179.0535211493857 0.0 0.0
-795.4321715868292 -225.74260170318988 -512.1423755215037 -197.03091574617122 0.0 0.0
-795.4321715871085 -225.74260170385352 -512.142375521867 197.0309157466155 0.0 0.0
-801.1550335673496 -144.79104311114992 -473.2786561537017 179.05352114973948 0.0 0.0
-765.0240043439918 -90.23599506029402 -427.0526410550679 170.06640515503028 0.0 0.0
-754.9615955175359 -76.13654607615865 -413.56047463335585 161.61848032161953 0.0 0.0
-732.7316769928489 -59.86662846102789 -393.01331496496977 156.25368556472824 0.0 0.0
-703.060026538373 -44.70903770260854 -369.3173839459605 153.96078492733756 0.0 0.0
-670.578946530747 -33.2496108217466 -345.44092997218485 154.37748117788234 0.0 0.0
-636.5568287910341 -25.57411889013548 -321.3825887951979 157.22060109642524 0.0 0.0
-599.6104500906193 -20.01848840677515 -294.8054852898516 161.54873362936513 0.0 0.0
-557.1754945153122 -16.35834516794528 -263.076889157579 166.81175506696556 0.0 0.0
-501.0020750952633 -10.741345881253242 -219.40089651019633 174.221719452395 0.0 0.0
-420.70989434995926 -4.478997233549599 -163.96197124925143 187.24129865295572 0.0 0.0
-313.46467970514993 1.4996645691026647 -106.89780820909374 201.54094039871367 0.0 0.0
-212.4544234172457 5.714663823397613 -65.55648677956486 206.04668546336566 0.0 0.0
-147.59257643340416 11.361864535498507 -41.816958793756854 197.8589732216899 0.0 0.0
-111.49812114318021 17.634827290082065 -28.34066350759381 186.80600643895403 0.0 0.0
-92.99227024759273 18.089968840766716 -22.484895882439588 182.32954812237296 0.0 0.0
-81.98565326362957 3.227677299455999 -23.63879113393131 184.52380247725876 0.0 0.0
-65.91566342700065 -52.61450792079555 -35.558729337428225 183.85488212092858 0.0 0.0
-24.423985512536152 -206.2817622631989 -69.20856671475414 124.09048866991293 0.0 0.0
-27.1994334015584 -162.90356268487466 -57.03089882592991 -109.95248466847492 0.0 0.0
-77.36544348402116 -49.40012344984954 -38.02773588633902 -175.97519134602842 0.0 0.0
-110.15444529081739 2.6020294613893125 -32.265699855894205 -180.09275421781058 0.0 0.0
-138.82437712454285 18.10984058794952 -36.23947853933409 -176.7420155644871 0.0 0.0
-177.82733647950198 19.12082486076397 -47.991091439260046 -177.440941806914 0.0 0.0
-239.59985293410574 14.38031982835699 -69.57271737715152 -182.44781431431434 0.0 0.0
-336.31703654874997 10.514244117548927 -108.53379757412868 -181.68842834715235 0.0 0.0
-448.13327804378844 2.032760690792248 -171.41774004125995 -169.36491791303382 0.0 0.0
-540.2012135718877 -8.690181442935526 -239.03061486995992 -158.96429328465757 0.0 0.0
-608.1722849498387 -19.24814410909938 -293.70655110943244 -153.00793061646894 0.0 0.0
-660.7656421099057 -26.84542952520782 -332.52787563613873 -149.16900444294689 0.0 0.0
-704.9532946169808 -34.72453190791212 -362.87501226086357 -144.90909297821997 0.0 0.0
-745.5403944035897 -43.45492560828393 -389.6401294641772 -140.92280462902673 0.0 0.0
-784.7058792001735 -54.27423477152534 -415.7207382485056 -138.02977667664717 0.0 0.0
-824.2719450434929 -69.31790173073047 -443.60770752845747 -137.5445926233714 0.0 0.0
-862.8930615461431 -88.72962338114235 -473.08605024033625 -140.40356825183335 0.0 0.0
-897.6046591891479 -110.30333483637682 -501.7339292782558 -146.56965734816754 0.0 0.0
-936.7542168566533 -143.71871470443395 -538.486192197463 -153.39253638870014 0.0 0.0
-979.5755698530068 -192.87801222353633 -584.9803205254186 -159.8310659387004 0.0 0.0
-1067.0140781615303 -321.8744284992011 -691.8344500774753 -169.704242312545 0.0 0.0
-1067.014078161739 -321.874428499525 -691.8344500776527 169.70424231276874 0.0 0.0
-979.5755698524017 -192.87801222315446 -584.9803205250538 159.8310659390151 0.0 0.0
-936.7542168554714 -143.7187147033008 -538.4861921966954 153.3925363887852 0.0 0.0
-897.604659188876 -110.30333483620788 -501.7339292780875 146.56965734819116 0.0 0.0
-862.8930615467137 -88.72962338184355 -473.0860502406385 140.4035682519061 0.0 0.0
-824.2719450436738 -69.31790173115358 -443.6077075285957 137.544592623423 0.0 0.0
-784.7058792006555 -54.2742347721431 -415.72073824881693 138.0297766766551 0.0 0.0
-745.5403944038392 -43.45492560890057 -389.6401294643415 140.92280462920684 0.0 0.0
-704.9532946161805 -34.72453190716485 -362.8750122602935 144.90909297804438 0.0 0.0
-660.7656421095538 -26.84542952505335 -332.5278756358727 149.16900444289195 0.0 0.0
-608.1722849493963 -19.248144109005942 -293.7065511091365 153.00793061644958 0.0 0.0
-540.2012135712646 -8.690181442573973 -239.03061486948783 158.96429328461375 0.0 0.0
-448.1332780428204 2.032760691461136 -171.41774004059295 169.36491791302387 0.0 0.0
-336.31703654792153 10.5142441181787 -108.53379757360926 181.6884283469767 0.0 0.0
-239.5998529335527 14.380319828665131 -69.5727173768885 182.4478143140883 0.0 0.0
-177.82733647933688 19.12082486052649 -47.991091439284816 177.44094180679312 0.0 0.0
-138.82437712430817 18.10984058792662 -36.23947853927524 176.74201556424129 0.0 0.0
-110.15444529064429 2.6020294616144426 -32.265699855778955 180.09275421761203 0.0 0.0
-77.36544348392059 -49.40012344979493 -38.02773588629299 175.9751913458242 0.0 0.0
-27.199433401587758 -162.9035626847866 -57.0308988259123 109.95248466830199 0.0 0.0
-28.271276329362806 -123.47192549289811 -45.52296054667827 -95.3830879554892 0.0 0.0
-87.0435332872624 -44.01714761849681 -39.318066477117355 -163.87380845132924 0.0 0.0
-136.48576287595824 2.0409274024670685 -40.32989827647489 -171.34237799254691 0.0 0.0
-182.81551629859567 17.17095146131458 -49.754995137346086 -166.48112101198222 0.0 0.0
-241.02995892385383 19.57655254787078 -67.02907433575781 -162.8493616709846 0.0 0.0
-324.7495508066959 18.246946511726705 -96.8742809514733 -161.18472051314907 0.0 0.0
-434.0323010372682 12.46571191170672 -151.99055016206387 -151.20916996267286 0.0 0.0
-535.3106939588223 -0.1529300142761585 -225.79179959896982 -140.35633122614422 0.0 0.0
-615.136726013105 -13.7780734530727 -291.85244110598467 -136.2809747696895 0.0 0.0
-678.2342659127341 -26.421666734102658 -340.8837320714962 -134.27380782442765 0.0 0.0
-730.772084708152 -37.37011053425235 -377.44846561467455 -131.73523962523316 0.0 0.0
-778.8648465098324 -49.12493217702779 -409.4681685464825 -128.15088879676307 0.0 0.0
-823.6724583225482 -61.283658341048096 -438.96411582148926 -124.36862174885945 0.0 0.0
-867.2934881584556 -75.39214651739783 -468.3825966345797 -121.31243001655035 0.0 0.0
-911.64312706853 -93.4111258238521 -499.84791193352675 -120.6320008629458 0.0 0.0
-957.9976632258923 -117.67906785277015 -535.3733542140146 -123.53457273924454 0.0 0.0
-1007.2636378740483 -150.2136531984551 -576.5138724148801 -129.20559399656102 0.0 0.0
-1060.8281031510367 -193.75285790558777 -625.339266669773 -134.93143158348244 0.0 0.0
-1129.3432550788166 -262.9911286407727 -694.1260990597136 -137.6116098128824 0.0 0.0
-1221.7940987631116 -386.64589050645804 -801.7205952388717 -142.8003739493897 0.0 0.0
-1221.7940987629474 -386.6458905064661 -801.7205952388341 142.8003739496985 0.0 0.0
-1129.3432550786245 -262.99112864079837 -694.1260990596297 137.6116098132303 0.0 0.0
-1060.8281031513714 -193.75285790615536 -625.3392666699115 134.93143158376643 0.0 0.0
-1007.2636378732612 -150.21365319783672 -576.513872414226 129.20559399667243 0.0 0.0
-957.9976632252213 -117.6790678521167 -535.3733542135056 123.53457273917894 0.0 0.0
-911.6431270687392 -93.4111258242439 -499.8479119336689 120.63200086299574 0.0 0.0
-867.2934881581124 -75.39214651710024 -468.3825966342871 121.31243001638123 0.0 0.0
-823.6724583220602 -61.283658340779574 -438.96411582124557 124.36862174894165 0.0 0.0
-778.8648465093294 -49.124932176591216 -409.4681685461229 128.15088879653754 0.0 0.0
-730.7720847078735 -37.37011053423509 -377.4484656144616 131.73523962523439 0.0 0.0
-678.2342659122976 -26.42166673387226 -340.8837320711499 134.27380782427562 0.0 0.0
-615.1367260127687 -13.778073453007352 -291.85244110567226 136.28097476962841 0.0 0.0
-535.3106939585016 -0.1529300143867891 -225.7917995986664 140.35633122617165 0.0 0.0
-434.0323010369535 12.46571191151521 -151.99055016183303 151.20916996263958 0.0 0.0
-324.7495508066081 18.246946511026977 -96.8742809516038 161.18472051305818 0.0 0.0
-241.0299589237593 19.576552547494273 -67.02907433584346 162.84936167089776 0.0 0.0
-182.81551629831262 17.170951461260177 -49.75499513728329 166.48112101183506 0.0 0.0
-136.48576287584729 2.040927402581472 -40.32989827640884 171.3423779924155 0.0 0.0
-87.04353328714787 -44.017147618515196 -39.318066477088635 163.87380845115257 0.0 0.0
-28.271276329415315 -123.47192549285695 -45.522960546681674 95.3830879554401 0.0 0.0
-29.0100631795804 -88.5486095204034 -35.26760180999514 -80.47614341688974 0.0 0.0
-95.75159710060369 -37.07941105884583 -39.84930244783485 -147.94652065289608 0.0 0.0
-161.157349131352 1.67942382190724 -47.842145336818774 -158.17726987193862 0.0 0.0
-225.262012100084 15.40074739689987 -62.96934602481341 -151.8526595863025 0.0 0.0
-301.1008958306338 20.144779897717083 -85.2946476057445 -144.2612725999594 0.0 0.0
-400.3778958939715 20.559773316538156 -125.45550486140397 -134.45786553495557 0.0 0.0
-506.8828602279541 11.62688064621744 -193.55572813361903 -121.25394689919034 0.0 0.0
-596.7035735411148 -2.809541578418724 -269.05831837403906 -115.81510063923179 0.0 0.0
-669.4400436863586 -18.195670415656338 -329.32579285162717 -115.84658258052376 0.0 0.0
-730.916902101202 -32.67073713934852 -374.3474239128269 -115.72482807879474 0.0 0.0
-786.5572969714178 -47.58934746004542 -412.33014387942023 -113.97160731648356 0.0 0.0
-838.5672454934665 -63.29385704933334 -447.3711618704917 -110.8712241915208 0.0 0.0
-887.6929382294538 -79.43841978056315 -480.6547797078856 -107.42371963436109 0.0 0.0
-935.2133676379897 -96.4697598097977 -513.320420765297 -104.40623504800905 0.0 0.0
-984.192484778167 -117.46666680141647 -548.4768465019071 -103.33209792112494 0.0 0.0
-1038.3215178289006 -147.6984466392994 -590.7184830133706 -105.52889313616568 0.0 0.0
-1100.3272435788103 -190.2004639357962 -643.0830404216935 -110.56304495841357 0.0 0.0
-1171.336315713559 -248.68309129531096 -707.9037559994645 -115.08761032685723 0.0 0.0
-1252.861137269761 -329.8703017322419 -789.2181457381425 -116.82808021218808 0.0 0.0
-1336.6438262307481 -442.4542899617096 -887.3408144910247 -123.33109509651896 0.0 0.0
-1336.6438262306688 -442.45428996171677 -887.340814491046 123.33109509669136 0.0 0.0
-1252.8611372693967 -329.8703017320174 -789.2181457378927 116.8280802124822 0.0 0.0
-1171.3363157137983 -248.68309129569639 -707.9037559995963 115.0876103270553 0.0 0.0
-1100.3272435793676 -190.20046393656037 -643.0830404221731 110.56304495867988 0.0 0.0
-1038.3215178292323 -147.6984466397642 -590.71848301364 105.52889313616612 0.0 0.0
-984.1924847783214 -117.46666680174887 -548.4768465020235 103.33209792121835 0.0 0.0
-935.2133676377584 -96.4697598096918 -513.3204207651322 104.4062350479551 0.0 0.0
-887.6929382292329 -79.43841978057321 -480.6547797077502 107.42371963446254 0.0 0.0
-838.5672454931057 -63.293857049176125 -447.3711618702809 110.87122419149233 0.0 0.0
-786.5572969704342 -47.58934745920795 -412.33014387879103 113.97160731633339 0.0 0.0
-730.9169021010913 -32.6707371394489 -374.34742391271135 115.72482807867868 0.0 0.0
-669.4400436859959 -18.195670415609648 -329.3257928513654 115.8465825805251 0.0 0.0
-596.7035735410725 -2.8095415787766687 -269.0583183739114 115.81510063924682 0.0 0.0
-506.8828602277606 11.626880645861831 -193.55572813342923 121.25394689924019 0.0 0.0
-400.3778958932875 20.55977331687405 -125.45550486100854 134.4578655348454 0.0 0.0
-301.1008958301517 20.144779897982964 -85.29464760553492 144.26127259983977 0.0 0.0
-225.26201209981053 15.400747396822505 -62.96934602475973 151.85265958616407 0.0 0.0
-161.15734913124027 1.6794238219400923 -47.842145336775985 158.1772698718128 0.0 0.0
-95.75159710044409 -37.07941105876523 -39.849302447762796 147.94652065280002 0.0 0.0
-29.01006317959501 -88.54860952035212 -35.26760180998413 80.4761434168812 0.0 0.0
-29.739807577346646 -58.62083207780156 -26.50819189654446 -65.15247997753416 0.0 0.0
-103.79489668681346 -29.162016190622857 -39.887073863230896 -128.60911769422364 0.0 0.0
-184.44817192387603 1.3879740824072515 -54.91587224662014 -140.7380418067936 0.0 0.0
-265.0415762797258 12.772548353505622 -75.74986179232795 -132.79238522547604 0.0 0.0
-356.5961922834613 21.18133415316991 -103.20211968494287 -121.6870866453473 0.0 0.0
-463.9498057634892 20.419471688381464 -155.3439481238779 -105.7400378237605 0.0 0.0
-561.7800849929746 10.106193884475992 -230.67237691753633 -94.70248152721427 0.0 0.0
-642.2259692290212 -5.643562781226706 -302.454905127733 -93.83201075620876 0.0 0.0
-711.2536927074522 -21.37739938416658 -356.5017270023063 -95.98056194466923 0.0 0.0
-774.3359142595317 -38.70134087970057 -401.0551546452424 -96.760341209557 0.0 0.0
-833.5930867385405 -57.551844681020214 -441.7466755045694 -95.53240058811934 0.0 0.0
-889.7141024028774 -77.36155793112918 -480.4934647969251 -92.97547257642869 0.0 0.0
-943.3771289910002 -97.60286505228316 -517.9387757312629 -90.11384881845248 0.0 0.0
-994.88787102303 -118.23810103446573 -554.3371442396117 -87.25724916663971 0.0 0.0
-1047.7973458228753 -142.120747956077 -592.8516450222764 -85.55776079097123 0.0 0.0
-1109.1682330212643 -177.33390019713877 -641.1089716957912 -86.66159496954961 0.0 0.0
-1183.0960423864608 -230.36756037817713 -704.5663543529819 -90.59937293367963 0.0 0.0
-1269.0185407962567 -302.82284136991836 -783.7756042062467 -94.92882830020785 0.0 0.0
-1358.0210078908024 -391.58724526354575 -872.7003587243044 -98.46179163405333 0.0 0.0
-1436.5157124611019 -497.44474634405714 -965.01157274232 -108.68717681129198 0.0 0.0
-1436.515712460216 -497.4447463432519 -965.0115727417058 108.68717681146424 0.0 0.0
-1358.021007889657 -391.5872452624613 -872.7003587235487 98.46179163414773 0.0 0.0
-1269.018540795433 -302.82284136919304 -783.7756042056379 94.92882830036663 0.0 0.0
-1183.0960423861359 -230.36756037794845 -704.5663543527362 90.59937293371675 0.0 0.0
-1109.1682330208446 -177.33390019679666 -641.1089716953745 86.66159496947209 0.0 0.0
-1047.7973458232857 -142.120747956685 -592.8516450224724 85.55776079115267 0.0 0.0
-994.8878710232439 -118.23810103494276 -554.3371442397204 87.25724916685152 0.0 0.0
-943.3771289899487 -97.60286505140117 -517.93877573048 90.11384881844067 0.0 0.0
-889.7141024027127 -77.36155793118654 -480.4934647968097 92.97547257643258 0.0 0.0
-833.5930867387508 -57.551844681541056 -441.74667550472833 95.53240058820685 0.0 0.0
-774.3359142590525 -38.70134087951108 -401.0551546449234 96.76034120956335 0.0 0.0
-711.2536927066235 -21.377399383603738 -356.5017270017221 95.9805619446504 0.0 0.0
-642.2259692282275 -5.643562780696126 -302.45490512712036 93.83201075614201 0.0 0.0
-561.7800849921709 10.106193884958035 -230.67237691690715 94.70248152718355 0.0 0.0
-463.9498057628317 20.419471688676815 -155.34394812344277 105.74003782368457 0.0 0.0
-356.5961922829738 21.181334153309233 -103.20211968474742 121.68708664523103 0.0 0.0
-265.0415762793673 12.77254835368337 -75.74986179217724 132.79238522541687 0.0 0.0
-184.44817192361666 1.3879740825995692 -54.915872246485485 140.73804180673756 0.0 0.0
-103.79489668671926 -29.162016190570284 -39.887073863186856 128.60911769409125 0.0 0.0
-29.73980757724476 -58.620832077713295 -26.50819189648741 65.15247997737829 0.0 0.0
-30.272425329018784 -34.13584829054495 -19.32248208586912 -49.34682076775216 0.0 0.0
-110.9564530049377 -20.80151719461489 -39.52739105986577 -106.23722022903206 0.0 0.0
-206.5052784420963 1.05484105239902 -61.63513121690917 -119.00730309619988 0.0 0.0
-303.70686756127145 10.069566685652195 -88.1797471632934 -110.16664621484409 0.0 0.0
-409.80688040126665 21.618650154610833 -122.07915322742471 -95.5024187135756 0.0 0.0
-514.6760542331845 19.276753583547748 -184.83303572534953 -77.83693836894899 0.0 0.0
-601.4864155152684 7.2400580899619555 -262.2822753824263 -71.19010530091646 0.0 0.0
-676.8475001732527 -6.929789194720456 -326.81267865838606 -73.14067392694227 0.0 0.0
-745.862787344967 -24.182031423584164 -377.91656949330195 -75.95081604549704 0.0 0.0
-811.38456064258 -44.7147144755057 -423.67361595502206 -77.14489611218633 0.0 0.0
-874.1584859407711 -67.20628366989011 -467.39902172693405 -76.39221474245443 0.0 0.0
-934.6753134478674 -91.15392727218916 -510.21847425495673 -74.44967140788783 0.0 0.0
-992.9367929610132 -115.79760205713764 -552.0585186215656 -72.2174326057092 0.0 0.0
-1049.7295684158562 -141.00350844577164 -593.3398369584274 -69.8603365623218 0.0 0.0
-1106.7827433179523 -168.2492007713725 -635.6147555727282 -67.61154193980103 0.0 0.0
-1171.7099004056276 -206.3366798935993 -687.0293773249579 -66.99163668929909 0.0 0.0
-1255.649018551284 -267.7711886794609 -759.5712491105696 -69.70518792106958 0.0 0.0
-1354.5042403057328 -352.28155930515504 -851.2596426874338 -74.8536548750237 0.0 0.0
-1452.9968749445852 -450.55847501420436 -949.7415578206981 -81.78982834459255 0.0 0.0
-1531.4144057605777 -555.3473638919355 -1041.580801234645 -96.7601881813384 0.0 0.0
-1531.414405760282 -555.3473638917169 -1041.5808012345428 96.76018818154463 0.0 0.0
-1452.9968749443642 -450.5584750140554 -949.741557820568 81.7898283447339 0.0 0.0
-1354.5042403058255 -352.28155930537525 -851.2596426874809 74.85365487523833 0.0 0.0
-1255.6490185513142 -267.77118867959973 -759.5712491105098 69.70518792110654 0.0 0.0
-1171.709900404806 -206.33667989288136 -687.0293773243716 66.99163668931489 0.0 0.0
-1106.782743316998 -168.24920077054506 -635.6147555720902 67.61154193977367 0.0 0.0
-1049.7295684144176 -141.00350844446774 -593.3398369573724 69.86033656230649 0.0 0.0
-992.9367929595927 -115.79760205588636 -552.0585186205867 72.21743260570435 0.0 0.0
-934.6753134466439 -91.15392727109962 -510.21847425408816 74.44967140770152 0.0 0.0
-874.1584859404489 -67.20628366978463 -467.3990217266567 76.39221474234463 0.0 0.0
-811.3845606424744 -44.714714475655896 -423.67361595495146 77.14489611215436 0.0 0.0
-745.8627873449234 -24.18203142386175 -377.9165694932659 75.95081604555315 0.0 0.0
-676.8475001736357 -6.929789195475912 -326.81267865856546 73.14067392695974 0.0 0.0
-601.4864155152738 7.240058089593891 -262.28227538229163 71.19010530082318 0.0 0.0
-514.6760542330487 19.27675358325622 -184.83303572517258 77.83693836885142 0.0 0.0
-409.80688040101364 21.618650154294436 -122.07915322738899 95.50241871354046 0.0 0.0
-303.70686756118766 10.069566685209505 -88.17974716341665 110.16664621476555 0.0 0.0
-206.50527844196657 1.0548410522960068 -61.63513121690116 119.00730309607818 0.0 0.0
-110.95645300490166 -20.80151719464825 -39.52739105986497 106.2372202289061 0.0 0.0
-30.27242532892097 -34.135848290409236 -19.322482085799063 49.346820767711606 0.0 0.0
-29.973562123001365 -15.521621570505708 -13.648555108052122 -33.18402305812613 0.0 0.0
-116.36897256841279 -12.436261959765051 -38.64157035845335 -81.03323239556391 0.0 0.0
-227.65103798038126 0.32327939795430893 -68.19832757472808 -92.9202125971072 0.0 0.0
-341.83157269072683 8.589524186674415 -100.14200587591525 -84.02398757277231 0.0 0.0
-457.1627169813703 21.28017308589593 -142.2023920299802 -67.03099293935774 0.0 0.0
-554.549961414837 16.359664864760973 -213.7559769779886 -52.67091346662936 0.0 0.0
-633.3162470286582 5.220884275866574 -287.9658070433947 -50.032763364188256 0.0 0.0
-705.0701382377255 -7.723871574120793 -345.5316875453938 -52.57183526429112 0.0 0.0
-774.9629777632271 -27.074078198692106 -395.5408011169326 -55.48567094085037 0.0 0.0
-843.1869339024199 -50.52522292069378 -443.1597246335186 -56.86877871181476 0.0 0.0
-909.7771524664017 -76.64405888235757 -490.29603113241353 -56.54819445733368 0.0 0.0
-974.4965411668595 -104.6105848973186 -537.112432486115 -55.21333268582531 0.0 0.0
-1037.9607453754836 -133.7819484722236 -583.7472800563975 -53.69974541355579 0.0 0.0
-1100.3853783072072 -164.5300436032295 -630.5596051387037 -51.93983390404125 0.0 0.0
-1162.9391848940986 -197.06399810520458 -678.2408951649456 -49.63312949775802 0.0 0.0
-1230.1104408315255 -236.44711206264026 -731.4753603592976 -47.40623617305183 0.0 0.0
-1314.0735868438155 -296.9681110260111 -803.4723698270652 -48.16104177810011 0.0 0.0
-1427.2990170983549 -394.8023796115232 -908.9041865583224 -54.24651456791926 0.0 0.0
-1541.035780530446 -507.42799521043764 -1022.2573300057197 -65.63770479165159 0.0 0.0
-1629.737619437397 -620.7272611568919 -1123.5543298565015 -86.21674295090392 0.0 0.0
-1629.7376194378999 -620.7272611574713 -1123.5543298568382 86.21674295108394 0.0 0.0
-1541.0357805311792 -507.42799521125994 -1022.2573300062054 65.63770479180194 0.0 0.0
-1427.299017099018 -394.8023796122874 -908.9041865587212 54.246514568052575 0.0 0.0
-1314.0735868445877 -296.96811102688514 -803.4723698275576 48.161041778122254 0.0 0.0
-1230.1104408314204 -236.4471120626825 -731.4753603591271 47.40623617322555 0.0 0.0
-1162.939184893231 -197.06399810445498 -678.2408951641477 49.63312949768624 0.0 0.0
-1100.3853783067464 -164.53004360293033 -630.5596051382954 51.939833904072714 0.0 0.0
-1037.9607453751541 -133.78194847211824 -583.7472800561468 53.699745413710374 0.0 0.0
-974.4965411664084 -104.61058489711073 -537.1124324857875 55.21333268588883 0.0 0.0
-909.7771524652928 -76.64405888144387 -490.2960311316558 56.548194457206804 0.0 0.0
-843.1869339023273 -50.52522292087094 -443.15972463346793 56.86877871179858 0.0 0.0
-774.9629777629625 -27.07407819871007 -395.5408011167394 55.48567094083538 0.0 0.0
-705.0701382370523 -7.723871573698339 -345.5316875449115 52.571835264138066 0.0 0.0
-633.3162470280818 5.220884276155868 -287.96580704293217 50.03276336415171 0.0 0.0
-554.5499614142525 16.359664864992638 -213.75597697752056 52.670913466624704 0.0 0.0
-457.16271698088957 21.280173085964613 -142.20239202972488 67.03099293933911 0.0 0.0
-341.8315726905098 8.589524186493723 -100.14200587592387 84.02398757270748 0.0 0.0
-227.6510379801766 0.32327939802983074 -68.19832757464403 92.92021259699618 0.0 0.0
-116.36897256826387 -12.436261959695127 -38.64157035838769 81.03323239552549 0.0 0.0
-29.973562122970545 -15.521621570465811 -13.648555108030903 33.184023058070615 0.0 0.0
-27.556976202611427 -3.1340314590861236 -9.207302298509264 -17.180491856189512 0.0 0.0
-118.33235313973844 -4.634239271336863 -36.88997772332259 -52.964204496831215 0.0 0.0
-248.2138785338037 -0.8226763790293603 -74.7109664738499 -61.94814040949997 0.0 0.0
-381.6763754238147 8.568478224866752 -112.35456454694938 -54.50177014317944 0.0 0.0
-496.72251881068513 20.636346478375298 -163.21782444208307 -39.09472302653327 0.0 0.0
-583.4703206132442 12.011803050744135 -240.46163427842174 -30.02496613554229 0.0 0.0
-658.0400723382847 4.781836384887782 -307.1587859110072 -29.884302847241067 0.0 0.0
-728.583805829415 -9.125121418437814 -360.78268656242403 -32.085541081376064 0.0 0.0
-799.2634140686345 -29.823974465296757 -410.10755998805007 -34.53760691943994 0.0 0.0
-870.4086917351196 -56.10238020635177 -460.0257547057557 -35.885788291771675 0.0 0.0
-940.9669344509894 -85.88503487751403 -510.79498348120205 -35.97306241096757 0.0 0.0
-1010.357250924643 -117.69953821621144 -561.7888469168363 -35.29669806821714 0.0 0.0
-1078.7658714721704 -151.77809671026623 -613.2942777684996 -34.388799790298634 0.0 0.0
-1147.4537154144787 -188.16250981568604 -666.0049047264887 -33.31526348372501 0.0 0.0
-1217.0905424436746 -227.49285168107141 -720.6085279253401 -31.60666894870594 0.0 0.0
-1287.9818258931232 -270.64693011729537 -777.672746454052 -28.858320052929948 0.0 0.0
-1365.3342206445723 -324.1947304009056 -842.9580365322737 -26.99073500744983 0.0 0.0
-1467.9950481523388 -410.042406723176 -936.8747647756355 -31.90858049383603 0.0 0.0
-1628.6033993995397 -567.021610248579 -1095.7821306876249 -48.05872629550752 0.0 0.0
-1741.1656603899576 -701.362692052694 -1219.6993437919311 -76.10593311243541 0.0 0.0
-1741.1656603896581 -701.3626920524439 -1219.6993437916626 76.10593311257064 0.0 0.0
-1628.6033993992291 -567.0216102483271 -1095.7821306872718 48.05872629560007 0.0 0.0
-1467.99504815225 -410.04240672317235 -936.8747647754575 31.90858049395907 0.0 0.0
-1365.3342206435655 -324.1947303999939 -842.95803653146 26.990735007494944 0.0 0.0
-1287.9818258922173 -270.646930116515 -777.6727464532848 28.858320052998742 0.0 0.0
-1217.0905424438834 -227.4928516814243 -720.6085279253616 31.606668948732366 0.0 0.0
-1147.4537154143695 -188.16250981576619 -666.004904726377 33.31526348386783 0.0 0.0
-1078.7658714715162 -151.77809670978638 -613.2942777679568 34.38879979019923 0.0 0.0
-1010.3572509243199 -117.69953821610436 -561.7888469165086 35.29669806822756 0.0 0.0
-940.966934450635 -85.885034877403 -510.7949834808845 35.97306241094177 0.0 0.0
-870.408691734785 -56.102380206268265 -460.0257547055 35.88578829166269 0.0 0.0
-799.2634140682388 -29.82397446516289 -410.1075599877483 34.5376069194641 0.0 0.0
-728.5838058291394 -9.125121418479772 -360.7826865622087 32.08554108139304 0.0 0.0
-658.0400723378029 4.781836385059812 -307.15878591062614 29.884302847225122 0.0 0.0
-583.4703206128013 12.011803050854002 -240.4616342780267 30.024966135601456 0.0 0.0
-496.7225188104526 20.636346478184965 -163.2178244419307 39.09472302660257 0.0 0.0
-381.6763754233271 8.568478225104538 -112.35456454676233 54.50177014309647 0.0 0.0
-248.21387853356964 -0.82267637889246 -74.71096647373862 61.948140409453 0.0 0.0
-118.3323531396493 -4.634239271420662 -36.88997772332098 52.96420449674795 0.0 0.0
-27.556976202563856 -3.1340314590783183 -9.207302298492651 17.180491856151082 0.0 0.0
-20.558350384129408 2.795928251183066 -5.328726639883903 -2.592474227746794 0.0 0.0
-113.86654299382175 1.792820574437929 -33.62211672581515 -21.49952518264271 0.0 0.0
-269.1032993802868 -2.194052137373685 -81.38920545529814 -25.005997497969858 0.0 0.0
-421.80184102159063 10.575824742345777 -125.4420748680295 -22.069621031623452 0.0 0.0
-530.5055254390174 18.157086777076284 -185.8766865708516 -13.384902043807948 0.0 0.0
-608.9277065715661 9.66973370454187 -263.2388952793267 -9.907285027187651 0.0 0.0
-678.2375559337606 3.760776333727094 -322.5946900378651 -10.156481752688528 0.0 0.0
-747.858745922865 -10.593995669825347 -373.0233880442121 -11.554413204386165 0.0 0.0
-819.6418319838848 -32.68326854532975 -422.4505249228408 -13.12967501372852 0.0 0.0
-893.6220637771453 -61.44305035701524 -474.66497208191913 -14.196558320957923 0.0 0.0
-968.2661443659563 -94.60749433099552 -529.0294622478864 -14.65593441607123 0.0 0.0
-1042.3269898658725 -131.028500868621 -584.5999893353139 -14.591297417435582 0.0 0.0
-1116.0891029427353 -169.5769541625731 -640.9781679192195 -14.357793768101818 0.0 0.0
-1190.8651666788887 -211.34988871359815 -699.3888024217949 -13.943464644136322 0.0 0.0
-1267.658915302328 -257.6113933010964 -761.005982754328 -13.066020224250508 0.0 0.0
-1345.5827338954496 -308.0182922217703 -825.2309906094231 -11.340969710170391 0.0 0.0
-1421.5836214411065 -360.6041806154717 -889.5161019921393 -8.674675537235974 0.0 0.0
-1498.7139123792722 -420.24885191770306 -957.6848039030351 -8.803267574635527 0.0 0.0
-1612.5092422088037 -526.5045754032886 -1067.2646355787992 -24.297531322521753 0.0 0.0
-1941.0071106410523 -869.8707102628983 -1403.8798458720469 -62.42366392643128 0.0 0.0
-1941.0071106408127 -869.8707102626802 -1403.8798458719339 62.423663926466574 0.0 0.0
-1612.5092422080509 -526.5045754025796 -1067.2646355783127 24.29753132251221 0.0 0.0
-1498.7139123788868 -420.24885191739355 -957.6848039026663 8.803267574656111 0.0 0.0
-1421.5836214412664 -360.60418061573563 -889.516101992163 8.67467553730026 0.0 0.0
-1345.5827338971708 -308.01829222362534 -825.2309906106055 11.340969710131429 0.0 0.0
-1267.658915302556 -257.61139330147086 -761.0059827544535 13.066020224342862 0.0 0.0
-1190.865166677706 -211.34988871258304 -699.3888024208521 13.943464644169929 0.0 0.0
-1116.0891029419977 -169.57695416203444 -640.9781679186367 14.357793768111918 0.0 0.0
-1042.3269898647761 -131.0285008677309 -584.5999893345897 14.591297417382652 0.0 0.0
-968.266144365553 -94.60749433084455 -529.0294622476049 14.655934416125518 0.0 0.0
-893.6220637769272 -61.44305035706098 -474.66497208172456 14.19655832090411 0.0 0.0
-819.6418319833818 -32.683268545096865 -422.450524922508 13.129675013747086 0.0 0.0
-747.858745923075 -10.593995670348704 -373.02338804431986 11.554413204423021 0.0 0.0
-678.2375559337895 3.7607763333613633 -322.59469003783096 10.156481752721717 0.0 0.0
-608.927706571688 9.669733704072176 -263.23889527929833 9.907285027143939 0.0 0.0
-530.5055254383884 18.157086777421807 -185.87668657041374 13.384902043849966 0.0 0.0
-421.80184102113316 10.575824742503201 -125.44207486784627 22.069621031636856 0.0 0.0
-269.10329938006726 -2.194052137279609 -81.38920545520406 25.005997497897265 0.0 0.0
-113.86654299370258 1.7928205744158117 -33.62211672578602 21.49952518260855 0.0 0.0
-20.558350384113066 2.795928251174059 -5.3287266398817 2.592474227712634 0.0 0.0
SCALARS Strain float 6
LOOKUP_TABLE default
0.01129484989416677 -0.012363112853172487 0.0 -0.006819274344137094 0.0 0.0
0.0023248183104299 -0.0014091082675105615 0.0 0.0011401181670642746 0.0 0.0
0.001801587959523827 -0.0007353441375586023 0.0 -4.5184778853291085e-05 0.0 0.0
0.0022511541983842465 -0.0010712299560743377 0.0 -0.00020710940553386736 0.0 0.0
0.003411762145206018 -0.0019898408767193843 0.0 -0.000258108388872913 0.0 0.0
0.005797770594560724 -0.004079102785259359 0.0 -0.0003869382307771785 0.0 0.0
0.009633198344334154 -0.007642074943468691 0.0 -0.0006096807035860519 0.0 0.0
0.01515369055940518 -0.01289137843154986 0.0 -0.0009488649107080582 0.0 0.0
0.022480153139130002 -0.019931042348297012 0.0 -0.0014179444057393353 0.0 0.0
0.03160636823165072 -0.02874805480550613 0.0 -0.001978362753472046 0.0 0.0
0.04246381083829373 -0.03928077906007221 0.0 -0.0025598363120576395 0.0 0.0
0.054981662783432854 -0.051464681422663805 0.0 -0.003135695617796308 0.0 0.0
0.06909542595285026 -0.06523958877732206 0.0 -0.003712318546032878 0.0 0.0
0.08471431531871555 -0.0805105305004079 0.0 -0.004289275827808775 0.0 0.0
0.10159820366700405 -0.0970327276349443 0.0 -0.004852190877956214 0.0 0.0
0.11920781127100571 -0.11426948287725125 0.0 -0.005295421547680201 0.0 0.0
0.13663546011637226 -0.13132487715639973 0.0 -0.005409071483251093 0.0 0.0
0.15263936515569254 -0.1469723504152345 0.0 -0.00495734867979164 0.0 0.0
0.16572837323850925 -0.15973144761952884 0.0 -0.0040899676078713365 0.0 0.0
0.1738735927914281 -0.16742242706692423 0.0 -0.004276263182473539 0.0 0.0
0.17387359279141903 -0.1674224270669149 0.0 0.004276263182479312 0.0 0.0
0.16572837323847536 -0.15973144761950087 0.0 0.004089967607891709 0.0 0.0
0.1526393651556354 -0.14697235041518253 0.0 0.0049573486798017985 0.0 0.0
0.13663546011630018 -0.13132487715632912 0.0 0.005409071483257644 0.0 0.0
0.11920781127092805 -0.11426948287717043 0.0 0.005295421547673151 0.0 0.0
0.10159820366692401 -0.0970327276348657 0.0 0.00485219087795552 0.0 0.0
0.08471431531863591 -0.0805105305003333 0.0 0.004289275827804584 0.0 0.0
0.06909542595276819 -0.06523958877724745 0.0 0.003712318546031157 0.0 0.0
0.05498166278335537 -0.05146468142258964 0.0 0.0031356956177904793 0.0 0.0
0.04246381083822584 -0.03928077906000693 0.0 0.0025598363120539203 0.0 0.0
0.03160636823159513 -0.028748054805451506 0.0 0.001978362753464802 0.0 0.0
0.02248015313908469 -0.019931042348255268 0.0 0.0014179444057361712 0.0 0.0
0.015153690559371935 -0.012891378431518996 0.0 0.0009488649107053937 0.0 0.0
0.0096331983443122 -0.0076420749434475965 0.0 0.0006096807035848029 0.0 0.0
0.005797770594547391 -0.004079102785247146 0.0 0.0003869382307746805 0.0 0.0
0.0034117621452000035 -0.0019898408767146103 0.0 0.0002581083888717195 0.0 0.0
0.0022511541983824546 -0.0010712299560725613 0.0 0.00020710940553464452 0.0 0.0
0.0018015879595231765 -0.0007353441375576586 0.0 4.5184778855233976e-05 0.0 0.0
0.0023248183104286335 -0.0014091082675088407 0.0 -0.001140118167062193 0.0 0.0
0.011294849894156078 -0.012363112853158406 0.0 0.006819274344103565 0.0 0.0
0.007982305239220954 -0.009427373334517125 0.0 -0.008193228103911876 0.0 0.0
0.0012699928515975054 -0.0007130826282212288 0.0 0.00013918350839847715 0.0 0.0
0.001542370584634814 -0.0005539269799148538 0.0 -0.0001304712172497391 0.0 0.0
0.0019833265156450793 -0.0009010219972926947 0.0 -0.0004602931069122851 0.0 0.0
0.0029081990834057686 -0.0015886764071304516 0.0 -0.0005857130766962482 0.0 0.0
0.004949994917452179 -0.0033243925708250632 0.0 -0.0009024808189892763 0.0 0.0
0.008374422961516335 -0.006456741196665838 0.0 -0.0014711078806831368 0.0 0.0
0.013368325472357005 -0.011171940620621434 0.0 -0.0022876823868084317 0.0 0.0
0.020008322759178958 -0.01753038996254097 0.0 -0.0033575514519859906 0.0 0.0
0.028246665095936326 -0.02547463926081983 0.0 -0.0045912254366650695 0.0 0.0
0.037990509673327844 -0.03491639107312894 0.0 -0.0058547243558088324 0.0 0.0
0.049179882770093934 -0.04580016012056465 0.0 -0.007071934686090409 0.0 0.0
0.061800320782173984 -0.05810967753357188 0.0 -0.008307458855804806 0.0 0.0
0.07579965878025927 -0.07178974937596205 0.0 -0.009588747260576763 0.0 0.0
0.09097579416908773 -0.08663637470270924 0.0 -0.010836269958640066 0.0 0.0
0.1068701748870879 -0.10219274774148346 0.0 -0.011834677291426676 0.0 0.0
0.12269610851365913 -0.1176782698839931 0.0 -0.012163850015863509 0.0 0.0
0.13732896204680195 -0.1319744440781374 0.0 -0.011427147280661298 0.0 0.0
0.14924153422867137 -0.14352704839847696 0.0 -0.009722793533354313 0.0 0.0
0.1564132028153887 -0.15042512742997616 0.0 -0.006878784405071059 0.0 0.0
0.1564132028153793 -0.15042512742996683 0.0 0.006878784405091265 0.0 0.0
0.14924153422864037 -0.14352704839845165 0.0 0.009722793533390561 0.0 0.0
0.13732896204675127 -0.13197444407809522 0.0 0.011427147280684613 0.0 0.0
0.12269610851359686 -0.11767826988393404 0.0 0.012163850015875055 0.0 0.0
0.1068701748870185 -0.1021927477414164 0.0 0.011834677291419737 0.0 0.0
0.09097579416901608 -0.08663637470264351 0.0 0.010836269958635736 0.0 0.0
0.07579965878018732 -0.07178974937589411 0.0 0.00958874726057135 0.0 0.0
0.06180032078210179 -0.05810967753349994 0.0 0.008307458855801086 0.0 0.0
0.04917988277002494 -0.0458001601204967 0.0 0.007071934686082804 0.0 0.0
0.037990509673266504 -0.03491639107306632 0.0 0.005854724355800367 0.0 0.0
0.028246665095886192 -0.02547463926077076 0.0 0.004591225436654356 0.0 0.0
0.02000832275913797 -0.017530389962502113 0.0 0.0033575514519790794 0.0 0.0
0.01336832547232683 -0.011171940620592569 0.0 0.002287682386802159 0.0 0.0
0.008374422961496736 -0.0064567411966465205 0.0 0.001471107880680611 0.0 0.0
0.004949994917440692 -0.003324392570813517 0.0 0.0009024808189858069 0.0 0.0
0.0029081990834012306 -0.001588676407127454 0.0 0.000585713076694 0.0 0.0
0.001983326515644007 -0.0009010219972923617 0.0 0.00046029310691275693 0.0 0.0
0.0015423705846346614 -0.0005539269799147983 0.0 0.00013047121725018318 0.0 0.0
0.001269992851597429 -0.0007130826282197578 0.0 -0.00013918350839992044 0.0 0.0
0.00798230523920787 -0.009427373334502342 0.0 0.008193228103885897 0.0 0.0
0.00589053014403082 -0.007488148056916721 0.0 -0.0075830958745567445 0.0 0.0
0.0007490186267591209 -0.000463028285251188 0.0 -0.0005581499543025337 0.0 0.0
0.001236686265063812 -0.00040901336706700153 0.0 -0.00043138983331894587 0.0 0.0
0.0017260258320487484 -0.000746476951834496 0.0 -0.0007030075975061612 0.0 0.0
0.0024613288795517496 -0.001257791731565483 0.0 -0.0008786175676428754 0.0 0.0
0.004134234153770837 -0.0026205656322393356 0.0 -0.0012886843130367198 0.0 0.0
0.007124102082890056 -0.005293229163411128 0.0 -0.0021076973275032107 0.0 0.0
0.011563278769575053 -0.009447627848558904 0.0 -0.0033170837886818683 0.0 0.0
0.017491379575452465 -0.015096781500038459 0.0 -0.004862950961593143 0.0 0.0
0.024826164681173338 -0.022153176614019277 0.0 -0.006618447119700527 0.0 0.0
0.0334566629180144 -0.030504627542704554 0.0 -0.008415297836820351 0.0 0.0
0.043326715932354105 -0.04009533916573016 0.0 -0.010152499438758456 0.0 0.0
0.054443711937537824 -0.05092972529596018 0.0 -0.01188861578083511 0.0 0.0
0.06680117226547924 -0.06299779264914829 0.0 -0.013706682355887234 0.0 0.0
0.08025337772054965 -0.07615376151431974 0.0 -0.015513236394711194 0.0 0.0
0.0944300488304636 -0.09002773459585667 0.0 -0.016971176713901415 0.0 0.0
0.10867303331312893 -0.10396162404620846 0.0 -0.017559169978698497 0.0 0.0
0.12196047841535103 -0.1169245262917169 0.0 -0.01675577237914455 0.0 0.0
0.13281912288298103 -0.12746852363592787 0.0 -0.014083288842616282 0.0 0.0
0.13955586654292954 -0.13398037397926776 0.0 -0.008777044010701451 0.0 0.0
0.13955586654292063 -0.13398037397925933 0.0 0.008777044010733648 0.0 0.0
0.13281912288295278 -0.12746852363590078 0.0 0.014083288842664854 0.0 0.0
0.12196047841530624 -0.11692452629167516 0.0 0.016755772379177802 0.0 0.0
0.10867303331307512 -0.10396162404615472 0.0 0.017559169978715095 0.0 0.0
0.09443004883040218 -0.09002773459579849 0.0 0.01697117671389592 0.0 0.0
0.08025337772048613 -0.07615376151425712 0.0 0.01551323639470692 0.0 0.0
0.06680117226541532 -0.06299779264908478 0.0 0.013706682355885458 0.0 0.0
0.05444371193747463 -0.050929725295902895 0.0 0.011888615780828782 0.0 0.0
0.04332671593229384 -0.04009533916567731 0.0 0.010152499438745188 0.0 0.0
0.03345666291796018 -0.03050462754265304 0.0 0.008415297836807278 0.0 0.0
0.024826164681129026 -0.022153176613976866 0.0 0.006618447119684678 0.0 0.0
0.01749137957541566 -0.015096781500006484 0.0 0.004862950961583956 0.0 0.0
0.011563278769548324 -0.009447627848534923 0.0 0.003317083788674735 0.0 0.0
0.0071241020828729795 -0.005293229163396251 0.0 0.0021076973274973265 0.0 0.0
0.004134234153761462 -0.0026205656322328963 0.0 0.0012886843130324177 0.0 0.0
0.0024613288795484745 -0.0012577917315635956 0.0 0.0008786175676422925 0.0 0.0
0.0017260258320480615 -0.0007464769518348291 0.0 0.0007030075975063277 0.0 0.0
0.0012366862650638188 -0.00040901336706811176 0.0 0.00043138983331802994 0.0 0.0
0.0007490186267591625 -0.0004630282852498002 0.0 0.0005581499542987867 0.0 0.0
0.005890530144018524 -0.007488148056903038 0.0 0.007583095874535595 0.0 0.0
0.0044321992101563415 -0.006028202801328292 0.0 -0.006439245732611842 0.0 0.0
0.0004701994713058946 -0.00034535302482874286 0.0 -0.0011481241073639792 0.0 0.0
0.0009584496500686102 -0.0002984578462659204 0.0 -0.0008290056680250735 0.0 0.0
0.0014686163678245892 -0.000605488584211944 0.0 -0.0009706173280627506 0.0 0.0
0.002066776418212783 -0.0009950755924366117 0.0 -0.001158760497297101 0.0 0.0
0.003384266217549843 -0.002005844910818455 0.0 -0.0015745674891635697 0.0 0.0
0.005892244646887312 -0.004177477548141129 0.0 -0.0025290067015674156 0.0 0.0
0.009758597635676651 -0.007738443767750569 0.0 -0.004031341602707711 0.0 0.0
0.014952079881670043 -0.012656808242786255 0.0 -0.005925637518043647 0.0 0.0
0.021370503532401525 -0.01881137608496397 0.0 -0.008062038955640283 0.0 0.0
0.028885783092955898 -0.026069465043028206 0.0 -0.010239438427970149 0.0 0.0
0.03743972374204635 -0.03436926348025926 0.0 -0.012355519135079596 0.0 0.0
0.04705501409502448 -0.043730554160245294 0.0 -0.014482911424681999 0.0 0.0
0.057758886356332376 -0.05417480589928747 0.0 -0.016669762163911694 0.0 0.0
0.06946561507582853 -0.06561900881825 0.0 -0.018837435380754775 0.0 0.0
0.08190531542591713 -0.07779228107140312 0.0 -0.02067079510311942 0.0 0.0
0.09454885853498252 -0.09015719309946224 0.0 -0.02156781272061925 0.0 0.0
0.1065095449313596 -0.10182487945441787 0.0 -0.020783153507344665 0.0 0.0
0.11649940214735716 -0.11153398237712864 0.0 -0.017395000151473328 0.0 0.0
0.12304467398617713 -0.11787565889316554 0.0 -0.01033692887424098 0.0 0.0
0.12304467398616889 -0.11787565889315399 0.0 0.010336928874284168 0.0 0.0
0.11649940214733107 -0.11153398237709933 0.0 0.01739500015152795 0.0 0.0
0.10650954493132042 -0.10182487945437568 0.0 0.020783153507381913 0.0 0.0
0.09454885853493614 -0.09015719309941383 0.0 0.02156781272063546 0.0 0.0
0.08190531542586371 -0.0777922810713485 0.0 0.020670795103112205 0.0 0.0
0.06946561507577323 -0.06561900881819271 0.0 0.018837435380747114 0.0 0.0
0.05775888635627632 -0.05417480589923107 0.0 0.01666976216390459 0.0 0.0
0.04705501409496998 -0.04373055416018756 0.0 0.014482911424673617 0.0 0.0
0.03743972374199467 -0.03436926348020819 0.0 0.012355519135063497 0.0 0.0
0.028885783092909262 -0.026069465042986018 0.0 0.010239438427956937 0.0 0.0
0.02137050353236261 -0.018811376084925335 0.0 0.008062038955620576 0.0 0.0
0.014952079881638075 -0.012656808242757611 0.0 0.005925637518031712 0.0 0.0
0.009758597635653399 -0.007738443767728587 0.0 0.004031341602698524 0.0 0.0
0.005892244646872824 -0.004177477548129804 0.0 0.002529006701561254 0.0 0.0
0.003384266217542703 -0.002005844910813348 0.0 0.0015745674891595174 0.0 0.0
0.002066776418210653 -0.0009950755924346133 0.0 0.0011587604972964904 0.0 0.0
0.0014686163678239439 -0.0006054885842102786 0.0 0.0009706173280614183 0.0 0.0
0.0009584496500685269 -0.00029845784626497673 0.0 0.0008290056680229085 0.0 0.0
0.00047019947130602646 -0.00034535302482754937 0.0 0.0011481241073599824 0.0 0.0
0.004432199210145482 -0.006028202801316298 0.0 0.00643924573259369 0.0 0.0
0.0033281574319296986 -0.0048418920250032915 0.0 -0.005273573305729057 0.0 0.0
0.00031391362859566063 -0.0002841982547153177 0.0 -0.0016072000949922671 0.0 0.0
0.000724652274803908 -0.0002175561992843189 0.0 -0.0012302036220868395 0.0 0.0
0.0012112031944902651 -0.0004793592275028624 0.0 -0.0012633692607248725 0.0 0.0
0.0017134687938258064 -0.0007855201076487628 0.0 -0.0014305551194239985 0.0 0.0
0.0027155014930972804 -0.0014962814676477976 0.0 -0.0018188953252838425 0.0 0.0
0.004718098017951061 -0.0031474281388925718 0.0 -0.0027571870039683755 0.0 0.0
0.007967152602688238 -0.0060672225914557565 0.0 -0.004390113618650715 0.0 0.0
0.01241352038101512 -0.010235902146135567 0.0 -0.006537356974827824 0.0 0.0
0.017903735091827536 -0.015475633089215624 0.0 -0.008914715064514411 0.0 0.0
0.024301966268697225 -0.021636791676094447 0.0 -0.01133323083133242 0.0 0.0
0.03154248525031042 -0.028648492927031644 0.0 -0.013680983329277585 0.0 0.0
0.03965781109670488 -0.03653724979852857 0.0 -0.01603521646011752 0.0 0.0
0.048705792006882645 -0.045357157459057884 0.0 -0.01847011499230622 0.0 0.0
0.05865560171565201 -0.05507710589301684 0.0 -0.020866289242775615 0.0 0.0
0.0693234235178079 -0.06551239958545763 0.0 -0.022907354885231768 0.0 0.0
0.08031920270505725 -0.07626830419249275 0.0 -0.024071369632508555 0.0 0.0
0.09096256609346878 -0.08665653147200825 0.0 -0.023465335424911582 0.0 0.0
0.10019782639848525 -0.09563971256737958 0.0 -0.019777916100246873 0.0 0.0
0.10671062429234503 -0.10195605332967661 0.0 -0.011658597089545975 0.0 0.0
0.10671062429233702 -0.10195605332967039 0.0 0.011658597089591494 0.0 0.0
0.10019782639846161 -0.09563971256736048 0.0 0.019777916100304993 0.0 0.0
0.09096256609343495 -0.08665653147197938 0.0 0.023465335424954104 0.0 0.0
0.080319202705018 -0.07626830419245234 0.0 0.024071369632526318 0.0 0.0
0.06932342351776227 -0.06551239958541144 0.0 0.02290735488522644 0.0 0.0
0.0586556017156048 -0.05507710589296977 0.0 0.020866289242768787 0.0 0.0
0.048705792006835086 -0.04535715745901037 0.0 0.018470114992299558 0.0 0.0
0.039657811096659334 -0.036537249798484606 0.0 0.016035216460111634 0.0 0.0
0.031542485250266705 -0.0286484929269899 0.0 0.013680983329259933 0.0 0.0
0.02430196626865802 -0.02163679167605803 0.0 0.011333230831316654 0.0 0.0
0.017903735091793965 -0.015475633089182761 0.0 0.00891471506449143 0.0 0.0
0.012413520380988113 -0.010235902146108034 0.0 0.006537356974812725 0.0 0.0
0.00796715260266892 -0.006067222591437993 0.0 0.00439011361863928 0.0 0.0
0.004718098017939321 -0.003147428138883246 0.0 0.0027571870039623803 0.0 0.0
0.0027155014930919374 -0.0014962814676429126 0.0 0.0018188953252799012 0.0 0.0
0.0017134687938243354 -0.0007855201076457652 0.0 0.001430555119421778 0.0 0.0
0.0012112031944896129 -0.00047935922750097504 0.0 0.0012633692607226243 0.0 0.0
0.0007246522748042272 -0.00021755619928393033 0.0 0.00123020362208498 0.0 0.0
0.00031391362859564675 -0.0002841982547142352 0.0 0.0016072000949899912 0.0 0.0
0.003328157431920664 -0.0048418920249935545 0.0 0.0052735733057160394 0.0 0.0
0.0024647598788556935 -0.0038519669508053633 0.0 -0.0042569344037206025 0.0 0.0
0.00021809267087277706 -0.00024668855694498504 0.0 -0.001948439128745566 0.0 0.0
0.0005278754920610279 -0.00015593058468899024 0.0 -0.0015854606008516847 0.0 0.0
0.0009550421167868334 -0.00036276726283623884 0.0 -0.0015550023703498617 0.0 0.0
0.0013887557941613116 -0.0006119564104101194 0.0 -0.0016961439069896611 0.0 0.0
0.0021209786945702858 -0.0010909722465288763 0.0 -0.0020432719370475083 0.0 0.0
0.0036414584886151624 -0.002255273924287371 0.0 -0.0028997777523313006 0.0 0.0
0.006227347160947527 -0.004489882143086099 0.0 -0.004465697106587008 0.0 0.0
0.009894148529114896 -0.007860697284167939 0.0 -0.006664356690890771 0.0 0.0
0.014450517084026893 -0.012174457322275956 0.0 -0.009162445933639907 0.0 0.0
0.01972795286353364 -0.01723469278929679 0.0 -0.011677002825333571 0.0 0.0
0.02565997624931575 -0.02296110501775317 0.0 -0.014116621958438602 0.0 0.0
0.032281228782401514 -0.029383148714217544 0.0 -0.01655875222164127 0.0 0.0
0.03967135815771962 -0.03657661279515301 0.0 -0.019061510306426555 0.0 0.0
0.04785520097537235 -0.04456232941901117 0.0 -0.021541130277191456 0.0 0.0
0.05672166566050908 -0.0532307160687755 0.0 -0.023701071551336272 0.0 0.0
0.06600809429723739 -0.06231887491485244 0.0 -0.02503095349266815 0.0 0.0
0.07528619119765594 -0.07138746541090724 0.0 -0.024699061437623904 0.0 0.0
0.0838043025676041 -0.07968284052115537 0.0 -0.021201439229925456 0.0 0.0
0.09039848698405045 -0.08607801711797247 0.0 -0.012768029753571275 0.0 0.0
0.09039848698404257 -0.08607801711796448 0.0 0.012768029753615129 0.0 0.0
0.0838043025675837 -0.07968284052113361 0.0 0.021201439229982744 0.0 0.0
0.07528619119762806 -0.07138746541087881 0.0 0.024699061437666425 0.0 0.0
0.06600809429720467 -0.06231887491481869 0.0 0.025030953492685915 0.0 0.0
0.05672166566047085 -0.05323071606873908 0.0 0.023701071551327058 0.0 0.0
0.04785520097533322 -0.044562329418974755 0.0 0.021541130277181186 0.0 0.0
0.03967135815768108 -0.03657661279512148 0.0 0.01906151030641845 0.0 0.0
0.03228122878236489 -0.029383148714184237 0.0 0.01655875222163361 0.0 0.0
0.025659976249279987 -0.02296110501771631 0.0 0.014116621958421893 0.0 0.0
0.019727952863501735 -0.01723469278926615 0.0 0.011677002825316696 0.0 0.0
0.014450517083998915 -0.012174457322251309 0.0 0.00916244593361698 0.0 0.0
0.009894148529093122 -0.007860697284150175 0.0 0.006664356690876783 0.0 0.0
0.006227347160932456 -0.004489882143073665 0.0 0.004465697106576627 0.0 0.0
0.0036414584886061696 -0.0022552739242811537 0.0 0.0028997777523253054 0.0 0.0
0.002120978694566622 -0.0010909722465288763 0.0 0.0020432719370430674 0.0 0.0
0.001388755794160229 -0.0006119564104092312 0.0 0.0016961439069886064 0.0 0.0
0.0009550421167863477 -0.0003627672628356837 0.0 0.0015550023703486404 0.0 0.0
0.0005278754920611528 -0.00015593058468937881 0.0 0.0015854606008487426 0.0 0.0
0.00021809267087266604 -0.0002466885569443744 0.0 0.0019484391287433178 0.0 0.0
0.0024647598788487546 -0.0038519669507970106 0.0 0.004256934403711415 0.0 0.0
0.0017847273639969713 -0.003018960361835382 0.0 -0.0034192673255547534 0.0 0.0
0.0001499739933731592 -0.00022101963007042924 0.0 -0.0021869490563148075 0.0 0.0
0.0003552817918504314 -0.00010377025485808211 0.0 -0.0018742828957913904 0.0 0.0
0.0007022943153763422 -0.0002498209322763234 0.0 -0.0018219249449968888 0.0 0.0
0.001074584560860764 -0.0004594543631000203 0.0 -0.001956590173246675 0.0 0.0
0.0015966711050005716 -0.0007703963264351632 0.0 -0.0022399935350070344 0.0 0.0
0.0026679460803864796 -0.001512336589716945 0.0 -0.0029523136598647026 0.0 0.0
0.004594494918712236 -0.0030702574344494415 0.0 -0.004333831586879278 0.0 0.0
0.007433381051501986 -0.005591865486423764 0.0 -0.006351178591581519 0.0 0.0
0.011032824813470704 -0.008941230536656963 0.0 -0.008765856836622787 0.0 0.0
0.015186019941214282 -0.012893493702981651 0.0 -0.011254426276032403 0.0 0.0
0.01981625765028694 -0.017338992157797772 0.0 -0.013647249550644613 0.0 0.0
0.024953134420700962 -0.02230326465889787 0.0 -0.016020588098017263 0.0 0.0
0.030690421363180814 -0.027874882817712887 0.0 -0.018449662070414485 0.0 0.0
0.037094628562886214 -0.03411587242909064 0.0 -0.020858898650053803 0.0 0.0
0.04413459167333529 -0.04098718844296112 0.0 -0.022973304570196085 0.0 0.0
0.051649920412901756 -0.04834529869155846 0.0 -0.0243871940591619 0.0 0.0
0.059457776829957495 -0.055999453024939694 0.0 -0.024429538843349807 0.0 0.0
0.06719723265290908 -0.06355460116355438 0.0 -0.021589881755669116 0.0 0.0
0.07394038780722692 -0.07008826138738566 0.0 -0.01365099322147545 0.0 0.0
0.07394038780721987 -0.07008826138737811 0.0 0.01365099322151786 0.0 0.0
0.06719723265289262 -0.0635546011635384 0.0 0.02158988175572718 0.0 0.0
0.059457776829935444 -0.05599945302492282 0.0 0.024429538843392273 0.0 0.0
0.05164992041287539 -0.04834529869153359 0.0 0.024387194059182216 0.0 0.0
0.04413459167330458 -0.04098718844293181 0.0 0.022973304570188535 0.0 0.0
0.03709462856285528 -0.03411587242905911 0.0 0.02085889865004409 0.0 0.0
0.03069042136315106 -0.027874882817683133 0.0 0.018449662070407213 0.0 0.0
0.024953134420673678 -0.022303264658867228 0.0 0.016020588098008326 0.0 0.0
0.019816257650259572 -0.017338992157768907 0.0 0.013647249550629237 0.0 0.0
0.015186019941189066 -0.012893493702954562 0.0 0.011254426276014362 0.0 0.0
0.011032824813449166 -0.008941230536634315 0.0 0.008765856836599972 0.0 0.0
0.007433381051485444 -0.005591865486404668 0.0 0.006351178591568196 0.0 0.0
0.0045944949187012585 -0.0030702574344396716 0.0 0.004333831586868231 0.0 0.0
0.0026679460803801236 -0.001512336589711838 0.0 0.0029523136598590405 0.0 0.0
0.0015966711049982818 -0.0007703963264331648 0.0 0.002239993535003093 0.0 0.0
0.0010745845608602367 -0.00045945436309924315 0.0 0.0019565901732452873 0.0 0.0
0.000702294315375801 -0.0002498209322767675 0.0 0.0018219249449938635 0.0 0.0
0.00035528179185034814 -0.00010377025485869273 0.0 0.0018742828957874491 0.0 0.0
0.00014997399337293715 -0.00022101963007059577 0.0 0.0021869490563125316 0.0 0.0
0.0017847273639919614 -0.003018960361829446 0.0 0.003419267325545594 0.0 0.0
0.001260086493374446 -0.0023346718157591095 0.0 -0.002766069546955796 0.0 0.0
8.667972910632316e-05 -0.0001992949544140643 0.0 -0.002326182457508097 0.0 0.0
0.00019627888212273015 -5.313043944454865e-05 0.0 -0.002096349569618461 0.0 0.0
0.0004555412722737212 -0.0001392978222106711 0.0 -0.0020448743524357216 0.0 0.0
0.0007553712365453713 -0.00031136830010503047 0.0 -0.002188735279262305 0.0 0.0
0.0011260680779045795 -0.0005198887826833865 0.0 -0.002451906803689341 0.0 0.0
0.0018049480988439615 -0.0009312445698954619 0.0 -0.0029783727186696307 0.0 0.0
0.0030964146450973007 -0.0018591370649563288 0.0 -0.004041011538311767 0.0 0.0
0.005091325373951072 -0.003514782330670041 0.0 -0.005695704528127066 0.0 0.0
0.00768933170858746 -0.0058462137015609095 0.0 -0.007770742677377984 0.0 0.0
0.010702486654645127 -0.008659946793239559 0.0 -0.010014954939407794 0.0 0.0
0.01403329219677693 -0.011824352556671247 0.0 -0.012218742373952984 0.0 0.0
0.017700050822996208 -0.01534166056995856 0.0 -0.014398558025187858 0.0 0.0
0.021792258615507723 -0.019298488122001523 0.0 -0.016595843650102637 0.0 0.0
0.026408917176081487 -0.023786028738339127 0.0 -0.01878468367518593 0.0 0.0
0.03159436982429503 -0.028838090649464743 0.0 -0.020744972980985932 0.0 0.0
0.03729229355304975 -0.034404190906385246 0.0 -0.0220749073378253 0.0 0.0
0.043478902018526486 -0.04049575350485357 0.0 -0.02242751543407684 0.0 0.0
0.05024665417573648 -0.047148997375117574 0.0 -0.020718536151028144 0.0 0.0
0.057135711544638645 -0.05381777242318453 0.0 -0.01425079157653808 0.0 0.0
0.05713571154463373 -0.0538177724231792 0.0 0.014250791576573496 0.0 0.0
0.050246654175724825 -0.047148997375110024 0.0 0.020718536151081657 0.0 0.0
0.04347890201850965 -0.04049575350483936 0.0 0.02242751543411614 0.0 0.0
0.03729229355303021 -0.03440419090635993 0.0 0.02207490733784001 0.0 0.0
0.03159436982427197 -0.028838090649437653 0.0 0.020744972980975773 0.0 0.0
0.026408917176058894 -0.023786028738312925 0.0 0.01878468367517272 0.0 0.0
0.02179225861548742 -0.01929848812198376 0.0 0.016595843650095365 0.0 0.0
0.017700050822977653 -0.015341660569946569 0.0 0.014398558025180752 0.0 0.0
0.014033292196758113 -0.011824352556655704 0.0 0.012218742373938274 0.0 0.0
0.010702486654626642 -0.008659946793223128 0.0 0.010014954939390974 0.0 0.0
0.007689331708572861 -0.005846213701546921 0.0 0.0077707426773594435 0.0 0.0
0.005091325373939609 -0.003514782330659161 0.0 0.005695704528116019 0.0 0.0
0.0030964146450902785 -0.0018591370649501116 0.0 0.00404101153830444 0.0 0.0
0.001804948098840159 -0.0009312445698936855 0.0 0.0029783727186655784 0.0 0.0
0.001126068077903164 -0.0005198887826824983 0.0 0.002451906803686621 0.0 0.0
0.000755371236545177 -0.0003113683001052525 0.0 0.0021887352792601678 0.0 0.0
0.0004555412722734853 -0.00013929782221122622 0.0 0.00204487435243339 0.0 0.0
0.0001962788821227579 -5.313043944393803e-05 0.0 0.0020963495696169065 0.0 0.0
8.667972910594846e-05 -0.00019929495441334266 0.0 0.002326182457506515 0.0 0.0
0.0012600864933710043 -0.002334671815754646 0.0 0.002766069546951161 0.0 0.0
0.0008771406169952173 -0.001805328356988295 0.0 -0.0023020434863221806 0.0 0.0
1.4965758069668267e-05 -0.0001798031091203578 0.0 -0.002399859994835163 0.0 0.0
4.455990826084111e-05 1.7495820208157653e-06 0.0 -0.0022542731417876383 0.0 0.0
0.00021620475610650836 -3.2949971235929354e-05 0.0 -0.002216631139053654 0.0 0.0
0.0004280229788466844 -0.00015733283722729752 0.0 -0.0023619202579296394 0.0 0.0
0.0006716379913563608 -0.00030098928721677964 0.0 -0.0026537918576671204 0.0 0.0
0.0010493277915040455 -0.0005026996314088095 0.0 -0.0030549699577423484 0.0 0.0
0.0017551576471903224 -0.0009165584793509041 0.0 -0.0037119242761204374 0.0 0.0
0.002918059066032014 -0.0017387425772967813 0.0 -0.004801460008095171 0.0 0.0
0.004480979197931875 -0.0030173581395684934 0.0 -0.006284719257303617 0.0 0.0
0.006320248041730869 -0.004643990499066941 0.0 -0.008022126354301606 0.0 0.0
0.008334751775979601 -0.006501819250873453 0.0 -0.009833936330401138 0.0 0.0
0.010540131197514707 -0.008573710867523232 0.0 -0.011694713683780611 0.0 0.0
0.013002983475206106 -0.010926125188816194 0.0 -0.013559513372015775 0.0 0.0
0.015823434436272696 -0.013651743181810172 0.0 -0.015414353213178689 0.0 0.0
0.019118308371969317 -0.016853010587411177 0.0 -0.017147889280653972 0.0 0.0
0.022967775739931418 -0.02059393642427443 0.0 -0.018409647013049146 0.0 0.0
0.027436939193672266 -0.024976890782432815 0.0 -0.018832210969071617 0.0 0.0
0.03286216273794945 -0.030405823629449547 0.0 -0.01823783818188185 0.0 0.0
0.039702116154015754 -0.03704954888503886 0.0 -0.01434908931029455 0.0 0.0
0.03970211615401356 -0.037049548885033534 0.0 0.014349089310326635 0.0 0.0
0.032862162737942346 -0.03040582362944022 0.0 0.01823783818192959 0.0 0.0
0.027436939193660803 -0.024976890782419936 0.0 0.018832210969109253 0.0 0.0
0.022967775739918234 -0.020593936424260217 0.0 0.018409647013058694 0.0 0.0
0.01911830837195516 -0.01685301058739519 0.0 0.017147889280642703 0.0 0.0
0.01582343443625947 -0.013651743181792408 0.0 0.015414353213169196 0.0 0.0
0.01300298347519585 -0.01092612518880376 0.0 0.013559513372012666 0.0 0.0
0.010540131197504382 -0.008573710867513018 0.0 0.011694713683778946 0.0 0.0
0.008334751775968707 -0.006501819250862351 0.0 0.009833936330388982 0.0 0.0
0.0063202480417206 -0.004643990499058059 0.0 0.008022126354286785 0.0 0.0
0.004480979197923979 -0.003017358139561832 0.0 0.006284719257290572 0.0 0.0
0.002918059066025852 -0.0017387425772896759 0.0 0.004801460008088454 0.0 0.0
0.0017551576471866448 -0.0009165584793480175 0.0 0.0037119242761158855 0.0 0.0
0.0010493277915021582 -0.0005026996314072552 0.0 0.0030549699577385736 0.0 0.0
0.0006716379913556114 -0.0003009892872141151 0.0 0.002653791857664123 0.0 0.0
0.00042802297884639295 -0.00015733283722629832 0.0 0.0023619202579274745 0.0 0.0
0.0002162047561064806 -3.29499712361514e-05 0.0 0.0022166311390515447 0.0 0.0
4.455990826057743e-05 1.7495820207602542e-06 0.0 0.002254273141785418 0.0 0.0
1.4965758069362955e-05 -0.00017980310912055208 0.0 0.0023998599948334143 0.0 0.0
0.000877140616993205 -0.0018053283569854379 0.0 0.002302043486319433 0.0 0.0
0.0006080495952000831 -0.001408657924854062 0.0 -0.0019881127480810556 0.0 0.0
-6.118295027837672e-05 -0.00016357274309047876 0.0 -0.002439413766265719 0.0 0.0
-0.00010260775156414881 6.105429188540956e-05 0.0 -0.0023546498964055473 0.0 0.0
-1.6011089956136093e-05 6.965279761572685e-05 0.0 -0.0023311676466704345 0.0 0.0
9.859714463567038e-05 -1.1175754779380043e-06 0.0 -0.0024663349449693117 0.0 0.0
0.00020931973400367676 -8.08678025165932e-05 0.0 -0.002778884969478257 0.0 0.0
0.00034414994637757546 -0.00015978821503526142 0.0 -0.0032051465276387026 0.0 0.0
0.0005627790785012465 -0.0002703111457216245 0.0 -0.0036435980311181893 0.0 0.0
0.0009398297239880393 -0.00046280806292586796 0.0 -0.00415612750529315 0.0 0.0
0.0014595716760047173 -0.0007732485977078873 0.0 -0.004896387934250235 0.0 0.0
0.0020801735021495904 -0.0011933959167702568 0.0 -0.005953024374795501 0.0 0.0
0.002749018325526653 -0.0016994104339724814 0.0 -0.007232800371495207 0.0 0.0
0.0034764116884497542 -0.002299194607630728 0.0 -0.008699414347821288 0.0 0.0
0.00429935537678619 -0.003029152535634072 0.0 -0.010329169343006317 0.0 0.0
0.005308893178032542 -0.003966509850799493 0.0 -0.012102927219541537 0.0 0.0
0.006678351625435425 -0.0052646310958688325 0.0 -0.013892905843121639 0.0 0.0
0.008652173852282785 -0.007142528551088656 0.0 -0.015328166462311277 0.0 0.0
0.011445047291065186 -0.00979751728470113 0.0 -0.0158060710459339 0.0 0.0
0.015283242333485658 -0.013608133611830109 0.0 -0.015265596523118763 0.0 0.0
0.02131402378978095 -0.01969506633771223 0.0 -0.013982841225692488 0.0 0.0
0.0213140237897812 -0.01969506633771667 0.0 0.013982841225715581 0.0 0.0
0.015283242333482938 -0.013608133611831885 0.0 0.015265596523156177 0.0 0.0
0.011445047291059551 -0.009797517284697577 0.0 0.015806071045958214 0.0 0.0
0.0086521738522774 -0.0071425285510859915 0.0 0.015328166462312387 0.0 0.0
0.0066783516254315944 -0.0052646310958675 0.0 0.013892905843111092 0.0 0.0
0.005308893178028906 -0.003966509850798605 0.0 0.012102927219530657 0.0 0.0
0.00429935537678483 -0.003029152535629631 0.0 0.010329169342998101 0.0 0.0
0.003476411688448311 -0.002299194607631616 0.0 0.008699414347815071 0.0 0.0
0.002749018325524488 -0.0016994104339742577 0.0 0.0072328003714871025 0.0 0.0
0.002080173502147842 -0.0011933959167684804 0.0 0.005953024374785731 0.0 0.0
0.001459571676003385 -0.0007732485977054449 0.0 0.004896387934241131 0.0 0.0
0.0009398297239868181 -0.0004628080629265341 0.0 0.004156127505290874 0.0 0.0
0.0005627790785002751 -0.000270311145719182 0.0 0.0036435980311155802 0.0 0.0
0.0003441499463771036 -0.00015978821503592755 0.0 0.0032051465276347058 0.0 0.0
0.00020931973400373227 -8.086780251836956e-05 0.0 0.002778884969474704 0.0 0.0
9.85971446355316e-05 -1.1175754782710712e-06 0.0 0.002466334944967563 0.0 0.0
-1.6011089956108338e-05 6.965279761583787e-05 0.0 0.0023311676466672704 0.0 0.0
-0.00010260775156420432 6.105429188524303e-05 0.0 0.002354649896401967 0.0 0.0
-6.118295027834897e-05 -0.00016357274309036773 0.0 0.00243941376626447 0.0 0.0
0.0006080495951989451 -0.0014086579248525927 0.0 0.0019881127480788074 0.0 0.0
0.00042074724846938305 -0.0011200200899660617 0.0 -0.0017849953614003933 0.0 0.0
-0.00013282544709708466 -0.00014129793591988182 0.0 -0.0024398365284951373 0.0 0.0
-0.00024466201538950183 0.0001195577781019086 0.0 -0.0024042558629564503 0.0 0.0
-0.0002413764190253298 0.0001690874546842469 0.0 -0.002385182425707344 0.0 0.0
-0.00022739568103852248 0.00015310608773821954 0.0 -0.0025013962534827794 0.0 0.0
-0.0002575530215641886 0.0001423759017764592 0.0 -0.002793690528639592 0.0 0.0
-0.0003584969807827465 0.00017551102792001672 0.0 -0.0032101584712708187 0.0 0.0
-0.0005657489366474033 0.0002731653497785036 0.0 -0.003647099968153489 0.0 0.0
-0.0009388149823772729 0.0004626697314020767 0.0 -0.004157487669540605 0.0 0.0
-0.001457809620711209 0.000772390574200088 0.0 -0.004894736308477532 0.0 0.0
-0.002082739389037802 0.0011986704144208993 0.0 -0.005951676919859095 0.0 0.0
-0.002774384845572131 0.0017253457559140983 0.0 -0.007236867997990726 0.0 0.0
-0.003540918091887918 0.0023557453208806756 0.0 -0.00870588599458888 0.0 0.0
-0.004374372492231077 0.003074667415368104 0.0 -0.01033549209571405 0.0 0.0
-0.00518669196329935 0.0037883060327663642 0.0 -0.012123261787003847 0.0 0.0
-0.005767822572081555 0.004292406202027532 0.0 -0.0140291668855419 0.0 0.0
-0.0057557193882028235 0.004255931400961366 0.0 -0.01602158259392661 0.0 0.0
-0.00477277139808846 0.00342382844268041 0.0 -0.01812835615559849 0.0 0.0
-0.0025218328060095385 0.0016807365258846296 0.0 -0.019998028065204232 0.0 0.0
0.0029869054681643525 -0.003460363057559146 0.0 -0.018405641570967357 0.0 0.0
0.002986905468164325 -0.003460363057555149 0.0 0.01840564157098301 0.0 0.0
-0.0025218328060094553 0.0016807365258890705 0.0 0.019998028065221107 0.0 0.0
-0.004772771398086767 0.0034238284426777454 0.0 0.018128356155602376 0.0 0.0
-0.005755719388197633 0.0042559314009547045 0.0 0.01602158259391906 0.0 0.0
-0.005767822572074255 0.00429240620201865 0.0 0.014029166885527689 0.0 0.0
-0.005186691963293716 0.0037883060327588147 0.0 0.012123261786993855 0.0 0.0
-0.004374372492224027 0.003074667415362331 0.0 0.0103354920957055 0.0 0.0
-0.003540918091880202 0.0023557453208744583 0.0 0.008705885994581553 0.0 0.0
-0.0027743848455641373 0.001725345755907437 0.0 0.00723686799798029 0.0 0.0
-0.0020827393890314877 0.0011986704144164584 0.0 0.005951676919849491 0.0 0.0
-0.0014578096207053387 0.0007723905741958692 0.0 0.004894736308468317 0.0 0.0
-0.0009388149823740255 0.00046266973139941214 0.0 0.0041574876695388285 0.0 0.0
-0.0005657489366458907 0.0002731653497773934 0.0 0.003647099968151657 0.0 0.0
-0.0003584969807818167 0.00017551102791957263 0.0 0.0032101584712665443 0.0 0.0
-0.00025755302156346693 0.0001423759017769033 0.0 0.0027936905286367053 0.0 0.0
-0.0002273956810381894 0.0001531060877385526 0.0 0.0025013962534796153 0.0 0.0
-0.00024137641902537144 0.00016908745468380282 0.0 0.0023851824257052068 0.0 0.0
-0.00024466201538930754 0.00011955777810318535 0.0 0.002404255862955368 0.0 0.0
-0.00013282544709690425 -0.0001412979359200206 0.0 0.002439836528493805 0.0 0.0
0.00042074724846868916 -0.0011200200899650174 0.0 0.0017849953613991443 0.0 0.0
0.00029108271437514044 -0.0008909113433570037 0.0 -0.0016130931055984288 0.0 0.0
-0.00019732569007341327 -0.0001108521112971328 0.0 -0.0023902198851426526 0.0 0.0
-0.00037963596824816537 0.00017484243405108124 0.0 -0.0024012586571571792 0.0 0.0
-0.0004589296297554113 0.0002641552351753118 0.0 -0.0023742793761763192 0.0 0.0
-0.0005468791862820732 0.00030247127155935694 0.0 -0.0024614351660740275 0.0 0.0
-0.0007169522278584195 0.000360856886475025 0.0 -0.002703381443447672 0.0 0.0
-0.0010632431670165587 0.0005186506742669295 0.0 -0.003075825956222189 0.0 0.0
-0.001757252269265902 0.0009195266225754395 0.0 -0.003721766142014582 0.0 0.0
-0.0029158161245340375 0.001737514398866935 0.0 -0.004802722762846934 0.0 0.0
-0.0044790837570211905 0.0030167951220443356 0.0 -0.006282934596818279 0.0 0.0
-0.006324790383644724 0.00465156892596319 0.0 -0.008021014433118201 0.0 0.0
-0.008359560059801208 0.006530691212227158 0.0 -0.00982529332062887 0.0 0.0
-0.010600040896134727 0.008633013823180935 0.0 -0.011661085481703193 0.0 0.0
-0.013069256012513492 0.010970717037860567 0.0 -0.01351715428389122 0.0 0.0
-0.015698443846857757 0.013464270950482415 0.0 -0.015481211538938333 0.0 0.0
-0.018248043649180284 0.015876820408341263 0.0 -0.017646246165441193 0.0 0.0
-0.02028981434437646 0.01780049711191989 0.0 -0.02008574937629315 0.0 0.0
-0.021280080241658755 0.018715454960737787 0.0 -0.022707439841647803 0.0 0.0
-0.020252171377088846 0.017413721911426094 0.0 -0.02384353536369066 0.0 0.0
-0.014490788095298412 0.011424153797675363 0.0 -0.02148662075825014 0.0 0.0
-0.014490788095299245 0.011424153797673586 0.0 0.021486620758282005 0.0 0.0
-0.020252171377086514 0.017413721911422098 0.0 0.023843535363729185 0.0 0.0
-0.0212800802416494 0.018715454960730682 0.0 0.02270743984167123 0.0 0.0
-0.020289814344361112 0.01780049711190701 0.0 0.020085749376295092 0.0 0.0
-0.018248043649162965 0.015876820408325276 0.0 0.01764624616542715 0.0 0.0
-0.01569844384684209 0.013464270950468205 0.0 0.015481211538925677 0.0 0.0
-0.013069256012498379 0.01097071703784902 0.0 0.013517154283879729 0.0 0.0
-0.01060004089611813 0.008633013823165392 0.0 0.011661085481695366 0.0 0.0
-0.008359560059783888 0.006530691212209394 0.0 0.009825293320614104 0.0 0.0
-0.006324790383630208 0.004651568925948535 0.0 0.008021014433101992 0.0 0.0
-0.004479083757007993 0.0030167951220345657 0.0 0.006282934596800516 0.0 0.0
-0.002915816124526016 0.0017375143988604957 0.0 0.004802722762838774 0.0 0.0
-0.0017572522692612808 0.0009195266225709986 0.0 0.003721766142011196 0.0 0.0
-0.0010632431670141995 0.0005186506742673735 0.0 0.00307582595621797 0.0 0.0
-0.0007169522278570178 0.00036085688647369274 0.0 0.00270338144344362 0.0 0.0
-0.000546879186281185 0.000302471271559801 0.0 0.002461435166070808 0.0 0.0
-0.00045892962975495333 0.00026415523517642203 0.0 0.0023742793761748204 0.0 0.0
-0.0003796359682479572 0.00017484243405174738 0.0 0.002401258657156513 0.0 0.0
-0.0001973256900732051 -0.00011085211129724382 0.0 0.0023902198851416534 0.0 0.0
0.00029108271437487676 -0.0008909113433558553 0.0 0.001613093105595681 0.0 0.0
0.00019390452525841484 -0.0006881723150831409 0.0 -0.001429382300690174 0.0 0.0
-0.00025566773508450824 -7.391887055591129e-05 0.0 -0.0022874231245813004 0.0 0.0
-0.000506281141522319 0.00022664491015167432 0.0 -0.0023411880895926607 0.0 0.0
-0.0006675830029234664 0.00035367497277161153 0.0 -0.0023003124540020847 0.0 0.0
-0.0008560282369702299 0.00044263303085423367 0.0 -0.002343870987447094 0.0 0.0
-0.00116696611068412 0.0005773816097183193 0.0 -0.0025302090616627915 0.0 0.0
-0.001817143334869209 0.0009484701548585495 0.0 -0.0030130733197086257 0.0 0.0
-0.003095303628210533 0.0018602671134220206 0.0 -0.004052653183014399 0.0 0.0
-0.005087785946257972 0.0035119419264884044 0.0 -0.005692789480771732 0.0 0.0
-0.007688871674532111 0.005846617714195368 0.0 -0.00776883535758649 0.0 0.0
-0.010708500717022201 0.008668222822479699 0.0 -0.010012982434179252 0.0 0.0
-0.014052762818230674 0.011847657140659162 0.0 -0.012193676639905449 0.0 0.0
-0.01774284371039192 0.015385572811439818 0.0 -0.01430561770127059 0.0 0.0
-0.02183651649059487 0.019327114786154453 0.0 -0.01644263131548207 0.0 0.0
-0.026294205256274822 0.02361981014766945 0.0 -0.018808374473154532 0.0 0.0
-0.030856151340584254 0.02800673387024899 0.0 -0.02167876634974697 0.0 0.0
-0.034996208803510426 0.03197692495690285 0.0 -0.02523878758849918 0.0 0.0
-0.037816204108194224 0.03457828586067713 0.0 -0.028828632204970006 0.0 0.0
-0.037583352292964056 0.03406848448776012 0.0 -0.03065220389239065 0.0 0.0
-0.031001873517580075 0.026840427604103656 0.0 -0.027034467232411097 0.0 0.0
-0.03100187351757927 0.026840427604101436 0.0 0.027034467232446957 0.0 0.0
-0.037583352292958255 0.03406848448775701 0.0 0.030652203892437835 0.0 0.0
-0.03781620410817921 0.034578285860668245 0.0 0.028828632205001925 0.0 0.0
-0.03499620880348697 0.03197692495688065 0.0 0.025238787588502676 0.0 0.0
-0.030856151340558066 0.02800673387021968 0.0 0.021678766349735312 0.0 0.0
-0.02629420525624966 0.023619810147642806 0.0 0.018808374473141043 0.0 0.0
-0.021836516490571042 0.019327114786127808 0.0 0.016442631315467304 0.0 0.0
-0.017742843710366454 0.015385572811412285 0.0 0.014305617701260764 0.0 0.0
-0.014052762818205125 0.011847657140637846 0.0 0.012193676639886353 0.0 0.0
-0.010708500716999345 0.008668222822458382 0.0 0.010012982434158268 0.0 0.0
-0.007688871674512016 0.005846617714176938 0.0 0.0077688353575668945 0.0 0.0
-0.005087785946244622 0.0035119419264779683 0.0 0.005692789480759963 0.0 0.0
-0.0030953036282019286 0.0018602671134180238 0.0 0.004052653183007182 0.0 0.0
-0.0018171433348648097 0.0009484701548581054 0.0 0.003013073319702686 0.0 0.0
-0.0011669661106820939 0.0005773816097185414 0.0 0.0025302090616592943 0.0 0.0
-0.0008560282369690919 0.0004426330308529014 0.0 0.0023438709874458175 0.0 0.0
-0.0006675830029224811 0.00035367497277116744 0.0 0.0023003124539994757 0.0 0.0
-0.0005062811415220692 0.00022664491015245147 0.0 0.0023411880895906623 0.0 0.0
-0.0002556677350841613 -7.391887055585578e-05 0.0 0.002287423124578719 0.0 0.0
0.00019390452525810953 -0.000688172315082683 0.0 0.0014293823006879258 0.0 0.0
0.00011213594741255051 -0.000506668272150429 0.0 -0.0012399801434213598 0.0 0.0
-0.0003102125565579983 -3.0544938207754946e-05 0.0 -0.0021303370315826353 0.0 0.0
-0.000624906992110319 0.00027535752461038676 0.0 -0.0022270433922200183 0.0 0.0
-0.0008670035026047129 0.00043620438265545847 0.0 -0.0021702477493237837 0.0 0.0
-0.0011498874145815796 0.0005729224531580979 0.0 -0.002157937520530284 0.0 0.0
-0.001632430700298948 0.0008256769298060629 0.0 -0.0023449804086301818 0.0 0.0
-0.0026744571659247096 0.0015273428873494588 0.0 -0.002993179228914178 0.0 0.0
-0.004589558732460891 0.0030670478853167538 0.0 -0.00433665771425229 0.0 0.0
-0.007430166764048951 0.0055886322829046264 0.0 -0.006345317900913916 0.0 0.0
-0.01103471007323556 0.008943630743798892 0.0 -0.0087649538037185 0.0 0.0
-0.015192512972634048 0.01290133165091989 0.0 -0.011251851551903558 0.0 0.0
-0.019825434095647743 0.017350518201181053 0.0 -0.013608930769804961 0.0 0.0
-0.02496348968079648 0.022315649215826294 0.0 -0.015876224192348354 0.0 0.0
-0.030691164622281608 0.027869028159660747 0.0 -0.01818324138742078 0.0 0.0
-0.03700220467710083 0.03399240034744899 0.0 -0.020798738469779643 0.0 0.0
-0.043637778715205716 0.04041567854462036 0.0 -0.024152027138343524 0.0 0.0
-0.049890078577042 0.04642209625006721 0.0 -0.028425086705562208 0.0 0.0
-0.05436200573238015 0.05060216527692729 0.0 -0.032838995067979826 0.0 0.0
-0.054636593019176866 0.050463672053618236 0.0 -0.03508782967852542 0.0 0.0
-0.046421438874786 0.04160111770576913 0.0 -0.031779387040196116 0.0 0.0
-0.04642143887478298 0.041601117705766466 0.0 0.03177938704023775 0.0 0.0
-0.05463659301916658 0.050463672053608466 0.0 0.03508782967857754 0.0 0.0
-0.05436200573236 0.05060216527690509 0.0 0.032838995068017685 0.0 0.0
-0.049890078577011665 0.04642209625004101 0.0 0.028425086705570646 0.0 0.0
-0.043637778715170966 0.04041567854458927 0.0 0.024152027138334198 0.0 0.0
-0.03700220467706723 0.03399240034741391 0.0 0.020798738469766487 0.0 0.0
-0.030691164622248662 0.02786902815962966 0.0 0.018183241387403126 0.0 0.0
-0.024963489680762493 0.02231564921579432 0.0 0.015876224192337196 0.0 0.0
-0.01982543409561406 0.017350518201149967 0.0 0.013608930769783811 0.0 0.0
-0.015192512972602837 0.012901331650889691 0.0 0.011251851551880576 0.0 0.0
-0.01103471007320933 0.008943630743774689 0.0 0.008764953803694964 0.0 0.0
-0.00743016676402998 0.005588632282887085 0.0 0.0063453179008987615 0.0 0.0
-0.004589558732448318 0.0030670478853052074 0.0 0.004336657714242409 0.0 0.0
-0.0026744571659173405 0.0015273428873427974 0.0 0.002993179228906795 0.0 0.0
-0.00163243070029577 0.0008256769298014 0.0 0.0023449804086262405 0.0 0.0
-0.0011498874145804278 0.0005729224531562105 0.0 0.0021579375205292017 0.0 0.0
-0.0008670035026034639 0.00043620438265479233 0.0 0.002170247749322368 0.0 0.0
-0.0006249069921100692 0.00027535752461071983 0.0 0.002227043392218464 0.0 0.0
-0.0003102125565574432 -3.054493820806026e-05 0.0 0.0021303370315803594 0.0 0.0
0.00011213594741223132 -0.0005066682721501393 0.0 0.0012399801434207214 0.0 0.0
4.067400109769581e-05 -0.0003463265501176538 0.0 -0.0010461898644195666 0.0 0.0
-0.0003633649152429974 1.8004294028428625e-05 0.0 -0.0019233047684876492 0.0 0.0
-0.0007365108920488195 0.00032187075075629235 0.0 -0.0020561905706643346 0.0 0.0
-0.0010552301865330294 0.0005095689650770341 0.0 -0.0019746266710579663 0.0 0.0
-0.0014338566910362949 0.0007013551639589721 0.0 -0.0019222359340351214 0.0 0.0
-0.002147394766400218 0.001136847511522543 0.0 -0.002148234341960986 0.0 0.0
-0.003640833007724359 0.002263209592293647 0.0 -0.002927864351219056 0.0 0.0
-0.006220890424187081 0.004483747557199935 0.0 -0.004461738210513433 0.0 0.0
-0.009892839348502297 0.007858916334595012 0.0 -0.006657041455156665 0.0 0.0
-0.01445472352001359 0.012178853393706834 0.0 -0.009161611714842588 0.0 0.0
-0.01973358082958082 0.01724062725295905 0.0 -0.011671481511858928 0.0 0.0
-0.02565508223250254 0.022956617703675963 0.0 -0.014068751165981386 0.0 0.0
-0.032248343633430016 0.02935277135799419 0.0 -0.01638735261746549 0.0 0.0
-0.03961026162122286 0.03652025452479668 0.0 -0.018729209687457615 0.0 0.0
-0.047781430208228864 0.044481158212065885 0.0 -0.021376296598719202 0.0 0.0
-0.05649288165976646 0.0529394047648033 0.0 -0.02478900554158947 0.0 0.0
-0.0648164937743354 0.06094927227846281 0.0 -0.029234308574448975 0.0 0.0
-0.07083555829292426 0.0665797119669076 0.0 -0.03405437965341496 0.0 0.0
-0.0713311757325818 0.06658727656310148 0.0 -0.03710807248034087 0.0 0.0
-0.06141013436809764 0.05607725650673068 0.0 -0.03604946547134402 0.0 0.0
-0.06141013436809267 0.05607725650672579 0.0 0.036049465471385767 0.0 0.0
-0.07133117573256635 0.06658727656308772 0.0 0.037108072480394216 0.0 0.0
-0.07083555829289868 0.0665797119668805 0.0 0.03405437965345398 0.0 0.0
-0.06481649377429864 0.060949272278422395 0.0 0.029234308574460965 0.0 0.0
-0.05649288165972463 0.052939404764759335 0.0 0.024789005541580478 0.0 0.0
-0.04778143020818697 0.04448115821202281 0.0 0.021376296598708655 0.0 0.0
-0.03961026162118099 0.036520254524755824 0.0 0.01872920968744174 0.0 0.0
-0.03224834363338756 0.029352771357952445 0.0 0.016387352617454276 0.0 0.0
-0.025655082232460685 0.02295661770363555 0.0 0.014068751165962845 0.0 0.0
-0.01973358082954217 0.0172406272529253 0.0 0.011671481511834725 0.0 0.0
-0.014454723519981352 0.01217885339367486 0.0 0.009161611714818052 0.0 0.0
-0.009892839348477636 0.007858916334571697 0.0 0.006657041455142176 0.0 0.0
-0.006220890424170136 0.004483747557182616 0.0 0.004461738210502608 0.0 0.0
-0.0036408330077140894 0.0022632095922834328 0.0 0.0029278643512117286 0.0 0.0
-0.0021473947663953885 0.0011368475115205445 0.0 0.0021482343419564343 0.0 0.0
-0.0014338566910349348 0.0007013551639595272 0.0 0.0019222359340341222 0.0 0.0
-0.0010552301865317526 0.0005095689650762569 0.0 0.0019746266710564675 0.0 0.0
-0.0007365108920483893 0.00032187075075623683 0.0 0.0020561905706627526 0.0 0.0
-0.0003633649152424284 1.8004294028484136e-05 0.0 0.0019233047684864002 0.0 0.0
4.067400109752928e-05 -0.00034632655011739184 0.0 0.0010461898644194556 0.0 0.0
-2.100550192521422e-05 -0.00020873216117817117 0.0 -0.0008469822397079441 0.0 0.0
-0.0004154008483532867 6.971287487195221e-05 0.0 -0.0016719185300249073 0.0 0.0
-0.0008418927098356177 0.0003659405696594398 0.0 -0.001829437728937705 0.0 0.0
-0.0012324966582012153 0.0005764588787641189 0.0 -0.001729521408032647 0.0 0.0
-0.0017253144168292434 0.0008480804611987747 0.0 -0.0016664280141865107 0.0 0.0
-0.0027262040459031245 0.0015284554815051532 0.0 -0.0019226511312655514 0.0 0.0
-0.004713390787072336 0.0031486982510202655 0.0 -0.0027744833031981275 0.0 0.0
-0.007962237786483944 0.0060615889122079825 0.0 -0.004379467798071579 0.0 0.0
-0.0124149451073447 0.01023667946915685 0.0 -0.006530872557423739 0.0 0.0
-0.01790946967891957 0.01548128485935063 0.0 -0.008914106448449088 0.0 0.0
-0.02430477446959714 0.021638991255748863 0.0 -0.01132363447208995 0.0 0.0
-0.031521356670745404 0.028626218420483518 0.0 -0.01362716583455248 0.0 0.0
-0.039580687209360255 0.03646284966981117 0.0 -0.015870060410055564 0.0 0.0
-0.04857618938848804 0.04524126315589383 0.0 -0.018147049419664385 0.0 0.0
-0.05856498333320542 0.05499944385560296 0.0 -0.020590339328028118 0.0 0.0
-0.06928293041978054 0.06542770820995214 0.0 -0.02358639340774127 0.0 0.0
-0.0796174485814938 0.07538138866725852 0.0 -0.027658773519025792 0.0 0.0
-0.08712177252482281 0.08241053855207792 0.0 -0.03263754188890311 0.0 0.0
-0.08785009640100239 0.08260547917724503 0.0 -0.0372179505459288 0.0 0.0
-0.07645575086250289 0.07065780679940792 0.0 -0.04012642904920738 0.0 0.0
-0.07645575086249609 0.0706578067994057 0.0 0.040126429049250456 0.0 0.0
-0.08785009640098222 0.08260547917723082 0.0 0.03721795054597937 0.0 0.0
-0.08712177252479139 0.08241053855205083 0.0 0.032637541888941746 0.0 0.0
-0.07961744858145091 0.07538138866721722 0.0 0.027658773519036062 0.0 0.0
-0.06928293041973202 0.06542770820990595 0.0 0.02358639340773494 0.0 0.0
-0.05856498333315456 0.05499944385554967 0.0 0.020590339328022622 0.0 0.0
-0.048576189388437704 0.04524126315584187 0.0 0.01814704941965417 0.0 0.0
-0.039580687209309545 0.03646284966976587 0.0 0.015870060410042797 0.0 0.0
-0.03152135667069521 0.02862621842043378 0.0 0.013627165834536215 0.0 0.0
-0.024304774469551385 0.021638991255701345 0.0 0.011323634472068078 0.0 0.0
-0.017909469678880977 0.015481284859313993 0.0 0.008914106448427828 0.0 0.0
-0.012414945107314994 0.010236679469131094 0.0 0.006530872557410111 0.0 0.0
-0.007962237786462531 0.006061588912190441 0.0 0.004379467798060255 0.0 0.0
-0.00471339078705918 0.0031486982510109396 0.0 0.002774483303191022 0.0 0.0
-0.002726204045896352 0.0015284554815011564 0.0 0.0019226511312605554 0.0 0.0
-0.0017253144168270437 0.0008480804611982196 0.0 0.0016664280141846233 0.0 0.0
-0.0012324966582001745 0.000576458878764452 0.0 0.0017295214080323695 0.0 0.0
-0.0008418927098348336 0.00036594056965982835 0.0 0.001829437728937039 0.0 0.0
-0.0004154008483529606 6.971287487200772e-05 0.0 0.0016719185300231865 0.0 0.0
-2.1005501924922787e-05 -0.0002087321611779682 0.0 0.0008469822397059179 0.0 0.0
-7.117463108047284e-05 -9.62868803303929e-05 0.0 -0.0006415086699807782 0.0 0.0
-0.0004642889026429675 0.00012171818012413071 0.0 -0.001381083862977417 0.0 0.0
-0.0009416559569637162 0.0004074848197505032 0.0 -0.0015470949402505985 0.0 0.0
-0.0014034875948488734 0.000639853498771048 0.0 -0.0014350097885091895 0.0 0.0
-0.002041640413471185 0.001021105646523024 0.0 -0.0013711403242308018 0.0 0.0
-0.0033777994823859236 0.002017334809635951 0.0 -0.001654558604097689 0.0 0.0
-0.005887492165352032 0.004174434899736568 0.0 -0.0025318364367257207 0.0 0.0
-0.009758116759668922 0.007736936823616203 0.0 -0.00401846396026001 0.0 0.0
-0.014956370798304391 0.01266044802178068 0.0 -0.005920710582386801 0.0 0.0
-0.021376536799636664 0.01881699101749046 0.0 -0.008061099775888092 0.0 0.0
-0.02888329342911658 0.02606576584644138 0.0 -0.010225231678610669 0.0 0.0
-0.03740189546282205 0.034329800032872004 0.0 -0.012301053674228513 0.0 0.0
-0.04694249840673301 0.04362091257945355 0.0 -0.014350876945435131 0.0 0.0
-0.057568109777172444 0.053999963949532326 0.0 -0.01642257286588955 0.0 0.0
-0.0692996997811138 0.0654784063817897 0.0 -0.018507199173065203 0.0 0.0
-0.08187190812424389 0.07774175620899548 0.0 -0.020735757174523917 0.0 0.0
-0.09410791019826217 0.08954192728557953 0.0 -0.02378450463050452 0.0 0.0
-0.10316175937201935 0.09804566848742269 0.0 -0.02860922171344704 0.0 0.0
-0.10442827456553347 0.09872168074997445 0.0 -0.03546326231937347 0.0 0.0
-0.09194483130435441 0.08568814616258003 0.0 -0.04399540312836747 0.0 0.0
-0.09194483130434643 0.08568814616257336 0.0 0.043995403128408994 0.0 0.0
-0.10442827456550932 0.09872168074995136 0.0 0.0354632623194201 0.0 0.0
-0.1031617593719815 0.09804566848738405 0.0 0.028609221713482458 0.0 0.0
-0.09410791019821309 0.08954192728553023 0.0 0.02378450463051246 0.0 0.0
-0.0818719081241877 0.07774175620894352 0.0 0.02073575717452114 0.0 0.0
-0.06929969978105477 0.06547840638173552 0.0 0.018507199173058708 0.0 0.0
-0.057568109777113824 0.053999963949481256 0.0 0.01642257286588006 0.0 0.0
-0.04694249840667416 0.04362091257940204 0.0 0.014350876945423446 0.0 0.0
-0.03740189546276368 0.034329800032820046 0.0 0.012301053674212747 0.0 0.0
-0.028883293429063657 0.026065765846389866 0.0 0.010225231678588909 0.0 0.0
-0.021376536799591783 0.018816991017445606 0.0 0.008061099775868275 0.0 0.0
-0.014956370798269926 0.012660448021745818 0.0 0.0059207105823750605 0.0 0.0
-0.009758116759643137 0.007736936823587781 0.0 0.004018463960249463 0.0 0.0
-0.005887492165335857 0.004174434899719914 0.0 0.0025318364367172275 0.0 0.0
-0.0033777994823772223 0.0020173348096272914 0.0 0.0016545586040919436 0.0 0.0
-0.002041640413468021 0.0010211056465198043 0.0 0.0013711403242291365 0.0 0.0
-0.0014034875948479505 0.0006398534987691606 0.0 0.0014350097885086066 0.0 0.0
-0.0009416559569629251 0.00040748481974978157 0.0 0.0015470949402490164 0.0 0.0
-0.00046428890264273853 0.00012171818012390867 0.0 0.0013810838629757793 0.0 0.0
-7.117463108029243e-05 -9.628688032996616e-05 0.0 0.0006415086699802508 0.0 0.0
-0.0001061125455971701 -1.2174932005948325e-05 0.0 -0.00043139229975563964 0.0 0.0
-0.0005052281143647364 0.00017033450459147392 0.0 -0.001053432021142331 0.0 0.0
-0.0010364426176367458 0.00044539044532243555 0.0 -0.0012079627637623935 0.0 0.0
-0.0015759785989838127 0.0007092104902238772 0.0 -0.0010963624078670908 0.0 0.0
-0.002398229908205207 0.0012420600363542977 0.0 -0.001041126307450374 0.0 0.0
-0.004115022588112638 0.0026111300410565086 0.0 -0.0013413790809695403 0.0 0.0
-0.007124224430020781 0.005292102090428408 0.0 -0.002102402576375173 0.0 0.0
-0.011568730236301533 0.009452078841587053 0.0 -0.0033050774644016734 0.0 0.0
-0.01749816883434141 0.015103013120183695 0.0 -0.004859886791104551 0.0 0.0
-0.024831031446950286 0.02215728768403702 0.0 -0.006616613317179665 0.0 0.0
-0.033446751228049104 0.03049331674308675 0.0 -0.008398483864531903 0.0 0.0
-0.043273385663424896 0.040040946546324285 0.0 -0.0101047891022078 0.0 0.0
-0.05430842060589536 0.05079744065808711 0.0 -0.011800614157159939 0.0 0.0
-0.06656596354252356 0.06277501348842529 0.0 -0.013560415191828379 0.0 0.0
-0.07996432552717783 0.07588783737084936 0.0 -0.015225991190730648 0.0 0.0
-0.09415813435185358 0.08976206852534663 0.0 -0.016501434735248566 0.0 0.0
-0.1080638490980051 0.10323482096261127 0.0 -0.01790456492029946 0.0 0.0
-0.11886727230147612 0.11340526113493965 0.0 -0.021932425548558232 0.0 0.0
-0.12126558901909681 0.11512414680760363 0.0 -0.031421710302784844 0.0 0.0
-0.10830348387622651 0.10155544545532491 0.0 -0.04734711930220292 0.0 0.0
-0.10830348387621727 0.10155544545531292 0.0 0.04734711930223484 0.0 0.0
-0.12126558901906852 0.11512414680757121 0.0 0.03142171030282487 0.0 0.0
-0.11886727230143179 0.11340526113489169 0.0 0.021932425548588375 0.0 0.0
-0.10806384909794889 0.10323482096255088 0.0 0.01790456492030601 0.0 0.0
-0.09415813435178956 0.08976206852528312 0.0 0.016501434735249176 0.0 0.0
-0.07996432552711127 0.07588783737078764 0.0 0.015225991190726984 0.0 0.0
-0.06656596354245642 0.06277501348836045 0.0 0.013560415191821912 0.0 0.0
-0.05430842060582776 0.05079744065802094 0.0 0.0118006141571525 0.0 0.0
-0.04327338566335895 0.040040946546260336 0.0 0.01010478910219953 0.0 0.0
-0.03344675122798935 0.030493316743032572 0.0 0.008398483864514444 0.0 0.0
-0.0248310314468995 0.02215728768398617 0.0 0.006616613317162956 0.0 0.0
-0.017498168834302323 0.015103013120145503 0.0 0.004859886791093726 0.0 0.0
-0.01156873023627173 0.009452078841560407 0.0 0.0033050774643910985 0.0 0.0
-0.00712422443000147 0.005292102090411754 0.0 0.0021024025763685117 0.0 0.0
-0.004115022588101855 0.002611130041048293 0.0 0.0013413790809659598 0.0 0.0
-0.002398229908200822 0.0012420600363515222 0.0 0.0010411263074488752 0.0 0.0
-0.001575978598982869 0.000709210490222989 0.0 0.001096362407866619 0.0 0.0
-0.0010364426176359617 0.00044539044532238004 0.0 0.0012079627637609502 0.0 0.0
-0.0005052281143641951 0.00017033450459150168 0.0 0.0010534320211418313 0.0 0.0
-0.00010611254559710764 -1.2174932005826894e-05 0.0 0.000431392299754918 0.0 0.0
-0.00011927288037666406 3.947626045625041e-05 0.0 -0.00022334639413046364 0.0 0.0
-0.000529375440206703 0.0002096622999379072 0.0 -0.0006885346584588059 0.0 0.0
-0.0011277689283896997 0.00048027388561633355 0.0 -0.0008053258253234996 0.0 0.0
-0.0017631755045547093 0.0007922505810629143 0.0 -0.0007150600074798119 0.0 0.0
-0.002813375297246401 0.001534767303697615 0.0 -0.0006880299737461182 0.0 0.0
-0.004925657992133459 0.0033018176884516137 0.0 -0.0009275408777900673 0.0 0.0
-0.008382724001548297 0.006461889957819489 0.0 -0.0014628930520232952 0.0 0.0
-0.013379727686503112 0.011182744458882565 0.0 -0.0022797214090136686 0.0 0.0
-0.02001689638453752 0.017538506487493555 0.0 -0.00335516830612953 0.0 0.0
-0.028249211666572877 0.025476138013278415 0.0 -0.004588676055120866 0.0 0.0
-0.037972096821045354 0.03489680291542596 0.0 -0.005839749663715366 0.0 0.0
-0.04911331476208153 0.045733623489966124 0.0 -0.007038576057862067 0.0 0.0
-0.06165206816099428 0.0579643916690924 0.0 -0.008261670069522387 0.0 0.0
-0.07553445061741329 0.07153120835749993 0.0 -0.009521650734904408 0.0 0.0
-0.0905447974062252 0.086214413562125 0.0 -0.01063577430849827 0.0 0.0
-0.10616014515462041 0.10148754214969147 0.0 -0.011182864315681051 0.0 0.0
-0.12132807162856035 0.11626309765340492 0.0 -0.01097680273961299 0.0 0.0
-0.1338113877386931 0.1281815632993908 0.0 -0.012529682298359601 0.0 0.0
-0.13850789795883225 0.1319250836781607 0.0 -0.02364393875996107 0.0 0.0
-0.12616964851764492 0.11884519312517572 0.0 -0.04941731086978074 0.0 0.0
-0.12616964851763393 0.11884519312516639 0.0 0.04941731086980394 0.0 0.0
-0.13850789795879975 0.13192508367813005 0.0 0.023643938759991878 0.0 0.0
-0.13381138773864237 0.1281815632993406 0.0 0.012529682298381917 0.0 0.0
-0.1213280716284959 0.11626309765334586 0.0 0.010976802739616764 0.0 0.0
-0.10616014515454889 0.10148754214962485 0.0 0.011182864315680607 0.0 0.0
-0.09054479740615039 0.08621441356204906 0.0 0.010635774308496743 0.0 0.0
-0.0755344506173379 0.07153120835742488 0.0 0.009521650734902187 0.0 0.0
-0.061652068160918075 0.057964391669019566 0.0 0.008261670069513644 0.0 0.0
-0.049113314762007615 0.04573362348989374 0.0 0.007038576057855989 0.0 0.0
-0.03797209682097898 0.034896802915361125 0.0 0.00583974966370332 0.0 0.0
-0.02824921166651711 0.025476138013224015 0.0 0.004588676055107793 0.0 0.0
-0.02001689638449345 0.017538506487451144 0.0 0.0033551683061234794 0.0 0.0
-0.013379727686469809 0.011182744458850147 0.0 0.002279721409008173 0.0 0.0
-0.00838272400152558 0.006461889957798839 0.0 0.0014628930520187988 0.0 0.0
-0.004925657992120681 0.0033018176884407335 0.0 0.0009275408777882355 0.0 0.0
-0.0028133752972409054 0.001534767303692508 0.0 0.0006880299737457296 0.0 0.0
-0.0017631755045535505 0.0007922505810635805 0.0 0.0007150600074790348 0.0 0.0
-0.0011277689283889017 0.0004802738856165001 0.0 0.000805325825322889 0.0 0.0
-0.000529375440206134 0.00020966229993735208 0.0 0.0006885346584577234 0.0 0.0
-0.00011927288037646283 3.9476260456193166e-05 0.0 0.00022334639412996404 0.0 0.0
-9.89925543375958e-05 5.2810256791935295e-05 0.0 -3.3702164960708325e-05 0.0 0.0
-0.000521588770742043 0.000230197092451645 0.0 -0.00027949382737435524 0.0 0.0
-0.0012201416105124263 0.0005147684965665089 0.0 -0.0003250779674736082 0.0 0.0
-0.001986146821091772 0.0009128106387972235 0.0 -0.0002999155822377697 0.0 0.0
-0.003296470625438641 0.0019000203749730549 0.0 -0.0002906027535853062 0.0 0.0
-0.005777966081139729 0.004052972344847028 0.0 -0.0003855626482257013 0.0 0.0
-0.009650502147163342 0.007656359207887542 0.0 -0.0006070793785785122 0.0 0.0
-0.015169768875245626 0.012906816615971817 0.0 -0.0009444453909086548 0.0 0.0
-0.022489931447633615 0.0199403801967295 0.0 -0.0014152881607849555 0.0 0.0
-0.03160600496057292 0.02874654478814076 0.0 -0.001976148525998478 0.0 0.0
-0.04243725554505279 0.039253449343163105 0.0 -0.0025521321019913445 0.0 0.0
-0.05490416800124115 0.051388257041101504 0.0 -0.0031230244106690286 0.0 0.0
-0.06893772001254339 0.06508443156249433 0.0 -0.003699393643200266 0.0 0.0
-0.08442092889687375 0.08021772118124515 0.0 -0.004257773543561605 0.0 0.0
-0.1010190242792669 0.0964464716965514 0.0 -0.004695865229846996 0.0 0.0
-0.1179829498346533 0.11302528580119997 0.0 -0.004731143959458284 0.0 0.0
-0.13405547563216133 0.12871206782406386 0.0 -0.003940700087384119 0.0 0.0
-0.14741362476987732 0.1416603296334773 0.0 -0.002722001490530257 0.0 0.0
-0.1548808548343706 0.14846829792798877 0.0 -0.00883357049424971 0.0 0.0
-0.14738548994530662 0.13895597461175457 0.0 -0.04552674737623941 0.0 0.0
-0.147385489945294 0.13895597461174303 0.0 0.045526747376248455 0.0 0.0
-0.15488085483433386 0.1484682979279559 0.0 0.008833570494264142 0.0 0.0
-0.14741362476981928 0.14166032963342134 0.0 0.002722001490540693 0.0 0.0
-0.13405547563208758 0.12871206782398925 0.0 0.003940700087384008 0.0 0.0
-0.117982949834574 0.11302528580111115 0.0 0.004731143959457229 0.0 0.0
-0.10101902427918362 0.09644647169646658 0.0 0.004695865229848023 0.0 0.0
-0.08442092889678976 0.08021772118116743 0.0 0.004257773543560467 0.0 0.0
-0.06893772001245932 0.06508443156241395 0.0 0.0036993936431974628 0.0 0.0
-0.05490416800115889 0.051388257041024676 0.0 0.0031230244106659755 0.0 0.0
-0.04243725554497962 0.039253449343091606 0.0 0.0025521321019859877 0.0 0.0
-0.03160600496051266 0.028746544788081252 0.0 0.0019761485259918443 0.0 0.0
-0.02248993144758463 0.01994038019668265 0.0 0.0014152881607832069 0.0 0.0
-0.015169768875209119 0.012906816615933625 0.0 0.0009444453909064898 0.0 0.0
-0.009650502147137863 0.007656359207861341 0.0 0.0006070793785772632 0.0 0.0
-0.0057779660811246485 0.004052972344830819 0.0 0.0003855626482236474 0.0 0.0
-0.0032964706254318184 0.001900020374969058 0.0 0.0002906027535854172 0.0 0.0
-0.001986146821089954 0.0009128106387970014 0.0 0.00029991558223788073 0.0 0.0
-0.001220141610511611 0.0005147684965665089 0.0 0.0003250779674726645 0.0 0.0
-0.0005215887707414575 0.00023019709245131192 0.0 0.00027949382737391115 0.0 0.0
-9.899255433750385e-05 5.2810256791862437e-05 0.0 3.3702164960264236e-05 0.0 0.0
SCALARS Statev float 8
LOOKUP_TABLE default
0.0 0.01225155467475136 0.009441712180707154 -0.009824040885111768 0.00038232870440461084 -0.005406785823737882 0.0 0.0
0.0 0.0006032459304283584 0.0004123033048914335 -0.0003432963646445462 -6.90069402468873e-05 0.0004017515896771719 0.0 0.0
0.0 3.342380937738801e-05 -4.754075056001044e-06 3.773145031477424e-06 9.809300245235895e-07 5.62033213615258e-07 0.0 0.0
0.0 0.00021908868617633926 0.00014166916435532785 -0.00011104384099972192 -3.062532335560596e-05 -1.9632919863361064e-05 0.0 0.0
0.0 0.001261303969207336 0.0009932915319120401 -0.0008144820620324848 -0.00017880946987955528 -0.00010842275536045379 0.0 0.0
0.0 0.003441243300510333 0.003134618579193626 -0.00271736021140253 -0.00041725836779109613 -0.000257237138946956 0.0 0.0
0.0 0.007506767247206136 0.006721445038441724 -0.0061214103440569755 -0.0006000346943847473 -0.00047639421223385266 0.0 0.0
0.0 0.013549194787407286 0.011990465854459094 -0.011263317048339324 -0.0007271488061197668 -0.0007978982266768415 0.0 0.0
0.0 0.02170679353795154 0.01906502736611696 -0.01823136666808079 -0.0008336606980361598 -0.0012471383657796215 0.0 0.0
0.0 0.03197365825459877 0.02794284387354121 -0.027002457887664706 -0.0009403859858764908 -0.001793537323987515 0.0 0.0
0.0 0.04429546860848353 0.038557927750366025 -0.03750734765372285 -0.0010505800966431609 -0.0023686604578104886 0.0 0.0
0.0 0.05830788024264873 0.05084242635224848 -0.049679113269829586 -0.0011633130824188701 -0.0029453584346389393 0.0 0.0
0.0 0.07424159801223176 0.06472880924421973 -0.063451540418548 -0.0012772688256716834 -0.003524934163976064 0.0 0.0
0.0 0.09198684321111995 0.0801241558078435 -0.07873025007950872 -0.001393905728334712 -0.004105594133262481 0.0 0.0
0.0 0.11120149147733405 0.0967873000863681 -0.09527237791432844 -0.0015149221720396357 -0.004674450383554031 0.0 0.0
0.0 0.1312999330481943 0.11418080997794029 -0.1125412565521657 -0.0016395534257745924 -0.005128355953650282 0.0 0.0
0.0 0.15120777316721187 0.13140317522854397 -0.1296392391974533 -0.0017639360310907084 -0.005259618814421957 0.0 0.0
0.0 0.16948108964091038 0.14722038784342495 -0.14533744698906478 -0.0018829408543601504 -0.004830823496912244 0.0 0.0
0.0 0.1844090143156853 0.16014802696585406 -0.15815525647783993 -0.0019927704880141365 -0.00397783795470613 0.0 0.0
0.0 0.19344416922696345 0.1681124700080195 -0.1659706070231647 -0.0021418629848548028 -0.004114044522136876 0.0 0.0
0.0 0.19344416922695296 0.1681124700080102 -0.16597060702315566 -0.002141862984854488 0.0041140445221430535 0.0 0.0
0.0 0.18440901431564982 0.16014802696582273 -0.15815525647780965 -0.0019927704880130423 0.003977837954725425 0.0 0.0
0.0 0.1694810896408475 0.14722038784337016 -0.1453374469890109 -0.0018829408543592442 0.004830823496921723 0.0 0.0
0.0 0.1512077731671298 0.13140317522847272 -0.12963923919738246 -0.001763936031090213 0.0052596188144280265 0.0 0.0
0.0 0.1312999330481032 0.11418080997786136 -0.11254125655208705 -0.001639553425774348 0.0051283559536421846 0.0 0.0
0.0 0.1112014914772429 0.09678730008628882 -0.09527237791424992 -0.0015149221720388978 0.004674450383553561 0.0 0.0
0.0 0.09198684321103126 0.08012415580776643 -0.0787302500794325 -0.0013939057283339066 0.004105594133259885 0.0 0.0
0.0 0.07424159801214175 0.06472880924414165 -0.06345154041847052 -0.001277268825671152 0.0035249341639754846 0.0 0.0
0.0 0.058307880242561755 0.050842426352172974 -0.04967911326975478 -0.0011633130824181838 0.0029453584346330734 0.0 0.0
0.0 0.04429546860840771 0.0385579277502997 -0.037507347653657465 -0.001050580096642213 0.0023686604578072546 0.0 0.0
0.0 0.03197365825453588 0.027942843873486455 -0.0270024578876109 -0.0009403859858755684 0.0017935373239805652 0.0 0.0
0.0 0.021706793537902617 0.019065027366073836 -0.018231366668038353 -0.0008336606980354906 0.0012471383657775067 0.0 0.0
0.0 0.013549194787371995 0.011990465854427588 -0.011263317048308411 -0.0007271488061191732 0.0007978982266741495 0.0 0.0
0.0 0.007506767247183006 0.00672144503842069 -0.00612141034403676 -0.0006000346943839254 0.00047639421223272314 0.0 0.0
0.0 0.003441243300497217 0.0031346185791812893 -0.0027173602113911718 -0.00041725836779011726 0.00025723713894590286 0.0 0.0
0.0 0.0012613039692013597 0.0009932915319071822 -0.0008144820620283277 -0.00017880946987885408 0.00010842275535985848 0.0 0.0
0.0 0.00021908868617440347 0.00014166916435450082 -0.00011104384099905454 -3.062532335544629e-05 1.963291986319478e-05 0.0 0.0
0.0 3.342380937687491e-05 -4.754075055922566e-06 3.7731450314146314e-06 9.80930024507978e-07 -5.620332136057866e-07 0.0 0.0
0.0 0.0006032459304261006 0.00041230330489024753 -0.00034329636464353763 -6.900694024671014e-05 -0.0004017515896755744 0.0 0.0
0.0 0.012251554674733477 0.009441712180695151 -0.009824040885098757 0.000382328704403601 0.005406785823710064 0.0 0.0
0.0 0.008987508331679106 0.006493026155770208 -0.006982004795999425 0.0004889786402292124 -0.0061816714608942044 0.0 0.0
0.0 7.160563527224948e-07 5.278598817072166e-07 -4.514513939538769e-07 -7.640848775333997e-08 3.6131457406320207e-07 0.0 0.0
0.0 9.430826945183483e-08 -1.020951514236367e-08 7.758883502814768e-09 2.450631639548195e-09 3.6392644398315674e-09 0.0 0.0
0.0 7.286452243007874e-05 3.763042082473274e-05 -2.939339934972669e-05 -8.237021475006283e-06 -1.4461392013015173e-05 0.0 0.0
0.0 0.0008170667600331437 0.0005996185619178755 -0.0004855333011189954 -0.00011408526079887989 -0.0001607663709994283 0.0 0.0
0.0 0.0026022120663915516 0.0023734151456628466 -0.0020252952035816254 -0.0003481199420812204 -0.0005190257764229936 0.0 0.0
0.0 0.006187805355796211 0.005539060759375619 -0.0049844059634383585 -0.0005546547959372577 -0.0010793993385484664 0.0 0.0
0.0 0.011630601744734188 0.010280587113088263 -0.009583501839241842 -0.000697085273846422 -0.0018692141694620864 0.0 0.0
0.0 0.0190024960732072 0.01667226804854034 -0.01586547763029841 -0.000806790418241921 -0.0029086191491145327 0.0 0.0
0.0 0.02824813545981432 0.02466927000416495 -0.02375921104680669 -0.0009100589573582583 -0.0041242745913549666 0.0 0.0
0.0 0.03926106360726477 0.03418096276229085 -0.03316763308448854 -0.0010133296778023011 -0.005385413553833196 0.0 0.0
0.0 0.05201415346664764 0.04514674444623677 -0.044029884423221394 -0.0011168600230153645 -0.006610790171447248 0.0 0.0
0.0 0.06619545737490803 0.057551958443413015 -0.05633034217180545 -0.0012216162716075288 -0.007858005694935081 0.0 0.0
0.0 0.08203868974669999 0.07133974408492534 -0.0700109374859913 -0.0013288065989340283 -0.009151913153038385 0.0 0.0
0.0 0.09930734583491607 0.08630741942139512 -0.08486820654009102 -0.0014392128813040662 -0.01041585297613437 0.0 0.0
0.0 0.11739898026373072 0.1019984439547417 -0.10044611928327216 -0.001552324671469566 -0.011439840515140865 0.0 0.0
0.0 0.13541994815346645 0.11763003855722404 -0.11596394567134277 -0.001666092885881282 -0.011806642624493728 0.0 0.0
0.0 0.15208647556381366 0.13208253116615876 -0.13030416163263003 -0.001778369533528695 -0.011113239804683216 0.0 0.0
0.0 0.1656073786250442 0.14382384138760645 -0.14192616082020584 -0.0018976805674005967 -0.009441404659549785 0.0 0.0
0.0 0.17369721831176654 0.15087473364945073 -0.14888655365678888 -0.001988179992661898 -0.006624954416029782 0.0 0.0
0.0 0.173697218311756 0.15087473364944146 -0.14888655365677952 -0.001988179992661949 0.006624954416049522 0.0 0.0
0.0 0.1656073786250125 0.143823841387578 -0.14192616082017828 -0.0018976805673997848 0.00944140465958522 0.0 0.0
0.0 0.15208647556376081 0.13208253116611193 -0.1303041616325844 -0.0017783695335274617 0.011113239804706096 0.0 0.0
0.0 0.135419948153397 0.11763003855716328 -0.11596394567128279 -0.0016660928858804275 0.0118066426245053 0.0 0.0
0.0 0.11739898026365206 0.10199844395467361 -0.10044611928320459 -0.0015523246714689632 0.011439840515132665 0.0 0.0
0.0 0.09930734583483701 0.08630741942132629 -0.08486820654002325 -0.0014392128813030267 0.010415852976130737 0.0 0.0
0.0 0.08203868974661963 0.07133974408485541 -0.07001093748592228 -0.0013288065989330877 0.009151913153034612 0.0 0.0
0.0 0.06619545737482536 0.057551958443341045 -0.05633034217173438 -0.0012216162716066426 0.007858005694932049 0.0 0.0
0.0 0.05201415346656939 0.04514674444616881 -0.044029884423153885 -0.0011168600230149054 0.0066107901714384815 0.0 0.0
0.0 0.039261063607193974 0.03418096276222947 -0.033167633084427495 -0.0010133296778019611 0.005385413553824415 0.0 0.0
0.0 0.028248135459757996 0.02466927000411593 -0.02375921104675814 -0.0009100589573577823 0.004124274591343301 0.0 0.0
0.0 0.019002496073162702 0.01667226804850093 -0.0158654776302596 -0.0008067904182413189 0.0029086191491091724 0.0 0.0
0.0 0.011630601744701465 0.01028058711305924 -0.009583501839213549 -0.0006970852738457008 0.00186921416945631 0.0 0.0
0.0 0.0061878053557753885 0.0055390607593566975 -0.0049844059634202974 -0.0005546547959363981 0.0010793993385451142 0.0 0.0
0.0 0.0026022120663792506 0.0023734151456518858 -0.0020252952035716473 -0.000348119942080239 0.0005190257764203595 0.0 0.0
0.0 0.000817066760028542 0.000599618561914594 -0.0004855333011162281 -0.00011408526079836587 0.00016076637099847276 0.0 0.0
0.0 7.286452242946026e-05 3.7630420824812975e-05 -2.9393399349783637e-05 -8.237021475029187e-06 1.4461392013024383e-05 0.0 0.0
0.0 9.430826938068039e-08 -1.0209515134588993e-08 7.758883496907494e-09 2.4506316376819497e-09 -3.6392644370560787e-09 0.0 0.0
0.0 7.160563527050788e-07 5.278598817876408e-07 -4.514513940210608e-07 -7.640848776657845e-08 -3.613145741208706e-07 0.0 0.0
0.0 0.008987508331658919 0.006493026155756855 -0.006982004795985327 0.0004889786402284708 0.006181671460870781 0.0 0.0
0.0 0.006748338756820522 0.0046106153383063736 -0.005118663822538191 0.0005080484842318168 -0.005383850613007118 0.0 0.0
0.0 0.0 0.0 0.0 0.0 0.0 0.0 0.0
0.0 0.0 0.0 0.0 0.0 0.0 0.0 0.0
0.0 1.2034637038593184e-05 7.924050515553958e-06 -6.182557395005184e-06 -1.7414931205487926e-06 -5.5085946505280056e-06 0.0 0.0
0.0 0.00042511328386454365 0.0003130420533411455 -0.00025045001053774395 -6.259204280340134e-05 -0.00015027354494577183 0.0 0.0
0.0 0.0019975816073152827 0.0016516190252811901 -0.001386446767890014 -0.0002651722573911753 -0.00062623543342795 0.0 0.0
0.0 0.004919750046909621 0.00438222392186025 -0.003884811339953382 -0.000497412581906868 -0.0014534180240357837 0.0 0.0
0.0 0.009734693465933562 0.008568393596786097 -0.00791030736915463 -0.0006580862276314696 -0.0026319159476981603 0.0 0.0
0.0 0.016323591945127936 0.014250835037515008 -0.01347634997814365 -0.0007744850593713528 -0.004141717126372301 0.0 0.0
0.0 0.024561132516289733 0.021351172187966852 -0.020476149277035692 -0.0008750229109311549 -0.005878723262267044 0.0 0.0
0.0 0.034340635923691604 0.029758718480831694 -0.02878728568133979 -0.0009714327994918936 -0.007677881969493779 0.0 0.0
0.0 0.045504503356853424 0.0394168400874817 -0.03835028962757213 -0.0010665504599095676 -0.009430569577808395 0.0 0.0
0.0 0.05822635393508062 0.05032824002879365 -0.04916619861412301 -0.0011620414146706437 -0.011184827663286987 0.0 0.0
0.0 0.07216343926565247 0.062486344376936356 -0.06122692022592993 -0.0012594241510063796 -0.013023552541710764 0.0 0.0
0.0 0.08742173627933084 0.07574281192510365 -0.07438392903413485 -0.0013588828909687498 -0.014856588851961384 0.0 0.0
0.0 0.10356092553835426 0.08972832812748839 -0.08826800963238124 -0.0014603184951071278 -0.016352482900250157 0.0 0.0
0.0 0.11973965515599358 0.10378707614680016 -0.10222345211876906 -0.0015636240280310584 -0.016992541002071225 0.0 0.0
0.0 0.13476691791486434 0.11689746400803512 -0.11522579016924818 -0.001671673838786903 -0.01624869849078302 0.0 0.0
0.0 0.14698300140369674 0.12759860003630413 -0.12582242346036138 -0.001776176575942755 -0.013645563696311785 0.0 0.0
0.0 0.15447990421791735 0.13422776381103696 -0.13237707948068617 -0.0018506843303507448 -0.00844363456134575 0.0 0.0
0.0 0.15447990421790797 0.13422776381102813 -0.13237707948067773 -0.0018506843303503228 0.008443634561377127 0.0 0.0
0.0 0.14698300140366652 0.1275986000362764 -0.12582242346033415 -0.0017761765759422856 0.0136455636963584 0.0 0.0
0.0 0.134766917914816 0.11689746400799186 -0.11522579016920537 -0.0016716738387864557 0.01624869849081577 0.0 0.0
0.0 0.11973965515593256 0.10378707614674651 -0.10222345211871578 -0.0015636240280307516 0.016992541002086713 0.0 0.0
0.0 0.1035609255382854 0.08972832812742879 -0.08826800963232212 -0.0014603184951066301 0.016352482900242434 0.0 0.0
0.0 0.08742173627925846 0.07574281192504076 -0.07438392903407255 -0.001358882890968189 0.014856588851956752 0.0 0.0
0.0 0.07216343926557968 0.062486344376872845 -0.06122692022586728 -0.0012594241510055578 0.013023552541706864 0.0 0.0
0.0 0.05822635393501163 0.050328240028733415 -0.04916619861406375 -0.001162041414669654 0.011184827663281502 0.0 0.0
0.0 0.04550450335678828 0.039416840087425395 -0.03835028962751649 -0.0010665504599088995 0.009430569577795473 0.0 0.0
0.0 0.034340635923631416 0.02975871848077935 -0.028787285681287727 -0.0009714327994916116 0.007677881969481626 0.0 0.0
0.0 0.024561132516240414 0.021351172187923925 -0.020476149276993302 -0.0008750229109306179 0.005878723262251822 0.0 0.0
0.0 0.016323591945089266 0.014250835037481143 -0.013476349978110322 -0.0007744850593708162 0.00414171712636317 0.0 0.0
0.0 0.009734693465905548 0.008568393596761405 -0.007910307369130483 -0.000658086227630924 0.0026319159476904017 0.0 0.0
0.0 0.004919750046892256 0.004382223921844677 -0.003884811339938693 -0.0004974125819059845 0.0014534180240307597 0.0 0.0
0.0 0.0019975816073060527 0.0016516190252735693 -0.001386446767883342 -0.0002651722573902272 0.0006262354334249899 0.0 0.0
0.0 0.00042511328386174966 0.000313042053339339 -0.0002504500105362691 -6.259204280306972e-05 0.0001502735449448903 0.0 0.0
0.0 1.2034637038361175e-05 7.924050515886329e-06 -6.1825573952545635e-06 -1.7414931206317851e-06 5.5085946506761e-06 0.0 0.0
0.0 0.0 0.0 0.0 0.0 0.0 0.0 0.0
0.0 0.0 0.0 0.0 0.0 0.0 0.0 0.0
0.0 0.00674833875680279 0.0046106153382941845 -0.0051186638225252995 0.0005080484842311141 0.005383850612987493 0.0 0.0
0.0 0.005005998106812482 0.0032741586147716105 -0.0037454663171236392 0.0004713077023520264 -0.004211099393850776 0.0 0.0
0.0 0.0 0.0 0.0 0.0 0.0 0.0 0.0
0.0 0.0 0.0 0.0 0.0 0.0 0.0 0.0
0.0 2.1938712455824767e-06 -2.2388760460352227e-07 1.7086005905634568e-07 5.3027545547192066e-08 2.1264076516682457e-07 0.0 0.0
0.0 0.00018531511981201371 0.00012987068574037277 -0.00010317843724396347 -2.669224849640918e-05 -0.00010101622058213314 0.0 0.0
0.0 0.0013264051569092407 0.0010497231141762525 -0.0008666499638840666 -0.00018307315029218618 -0.0006067751404249621 0.0 0.0
0.0 0.0037658731192502914 0.003266898612358764 -0.0028459021472726762 -0.0004209964650860882 -0.0016017272582493714 0.0 0.0
0.0 0.007886711768334682 0.006875417790626815 -0.006267327211881659 -0.0006080905787451569 -0.0030786524378079543 0.0 0.0
0.0 0.013665900274431878 0.011826222532640636 -0.011091928400231021 -0.0007342941324096169 -0.004938286233187208 0.0 0.0
0.0 0.020884129836146164 0.018016488954098606 -0.017182379911931812 -0.000834109042166785 -0.0070588142807057296 0.0 0.0
0.0 0.029409032555152027 0.02531755049074309 -0.024392940976592378 -0.0009246095141507085 -0.009243859387326058 0.0 0.0
0.0 0.03914874038581352 0.03366901599041184 -0.03265718849828258 -0.0010118274921292665 -0.011381646348074472 0.0 0.0
0.0 0.05010389427124602 0.043090766763523344 -0.041992741643219866 -0.001098025120303473 -0.013533582518570923 0.0 0.0
0.0 0.06234406768215817 0.05360576961332352 -0.05242008902818262 -0.0011856805851408851 -0.015747457309143707 0.0 0.0
0.0 0.0757277278480314 0.06512852554169306 -0.06385445328337687 -0.0012740722583161716 -0.01795018881605856 0.0 0.0
0.0 0.08971465406902371 0.07739054379934288 -0.07602702024579445 -0.0013635235535483996 -0.01983158853572226 0.0 0.0
0.0 0.10405927969795081 0.08985926639264921 -0.08840259073535726 -0.0014566756572919183 -0.020790422303577274 0.0 0.0
0.0 0.1175283777155118 0.10165149684907858 -0.10009724178297524 -0.0015542550661033691 -0.02008240078559839 0.0 0.0
0.0 0.12864404218334596 0.11149151973025556 -0.10984396218921955 -0.00164755754103601 -0.01680311864756453 0.0 0.0
0.0 0.1357848182303403 0.11793080195582743 -0.1162157813072243 -0.0017150206486031166 -0.009919308003167631 0.0 0.0
0.0 0.13578481823033 0.11793080195581782 -0.11621578130721441 -0.0017150206486034518 0.009919308003209098 0.0 0.0
0.0 0.1286440421833166 0.11149151973022833 -0.10984396218919165 -0.0016475575410366367 0.016803118647618645 0.0 0.0
0.0 0.11752837771546731 0.10165149684903826 -0.1000972417829348 -0.0015542550661033871 0.020082400785634426 0.0 0.0
0.0 0.10405927969789765 0.08985926639260206 -0.08840259073531025 -0.0014566756572918064 0.020790422303592914 0.0 0.0
0.0 0.08971465406896144 0.07739054379928921 -0.07602702024574096 -0.0013635235535482293 0.0198315885357141 0.0 0.0
0.0 0.07572772784796664 0.06512852554163706 -0.06385445328332118 -0.0012740722583158778 0.017950188816050722 0.0 0.0
0.0 0.062344067682093836 0.05360576961326763 -0.052420089028127 -0.0011856805851406284 0.015747457309137194 0.0 0.0
0.0 0.050103894271181906 0.043090766763467694 -0.04199274164316448 -0.0010980251203032145 0.01353358251856216 0.0 0.0
0.0 0.03914874038575459 0.03366901599036054 -0.032657188498232376 -0.0010118274921281634 0.0113816463480585 0.0 0.0
0.0 0.029409032555101584 0.025317550490698896 -0.02439294097654937 -0.0009246095141495303 0.00924385938731161 0.0 0.0
0.0 0.020884129836101384 0.01801648895406016 -0.01718237991189412 -0.0008341090421660325 0.007058814280686988 0.0 0.0
0.0 0.01366590027439752 0.01182622253261071 -0.011091928400201831 -0.0007342941324088702 0.004938286233175808 0.0 0.0
0.0 0.007886711768309459 0.006875417790604849 -0.0062673272118604125 -0.0006080905787444331 0.0030786524377980308 0.0 0.0
0.0 0.0037658731192357895 0.0032668986123462417 -0.0028459021472611447 -0.00042099646508509634 0.0016017272582437314 0.0 0.0
0.0 0.0013264051569016418 0.0010497231141706957 -0.0008666499638793105 -0.00018307315029138536 0.0006067751404216721 0.0 0.0
0.0 0.00018531511981006809 0.00012987068573957783 -0.00010317843724331834 -2.6692248496259578e-05 0.0001010162205815338 0.0 0.0
0.0 2.193871245050928e-06 -2.2388760454606728e-07 1.7086005901327336e-07 5.302754553280438e-08 -2.126407651199926e-07 0.0 0.0
0.0 0.0 0.0 0.0 0.0 0.0 0.0 0.0
0.0 0.0 0.0 0.0 0.0 0.0 0.0 0.0
0.0 0.005005998106796349 0.0032741586147609332 -0.0037454663171122117 0.00047130770235127736 0.0042110993938347455 0.0 0.0
0.0 0.0035886215547000994 0.0022569917612895764 -0.0026585512370679667 0.0004015594757783915 -0.0030739098484678894 0.0 0.0
0.0 0.0 0.0 0.0 0.0 0.0 0.0 0.0
0.0 0.0 0.0 0.0 0.0 0.0 0.0 0.0
0.0 3.314479609141861e-07 -1.1481308493449583e-08 9.314276153643588e-09 2.167032339805832e-09 2.1131077721204046e-08 0.0 0.0
0.0 6.889156708346042e-05 4.177968128555193e-05 -3.320426227153108e-05 -8.575419014020882e-06 -5.071743998171107e-05 0.0 0.0
0.0 0.0007741640669028786 0.0005844010707094241 -0.00047547720078519996 -0.00010892386992422402 -0.0005044905527438856 0.0 0.0
0.0 0.0027899047989838645 0.0022376278857421904 -0.0019101934522939602 -0.00032743443344823085 -0.0015315587526471197 0.0 0.0
0.0 0.006150549876439156 0.005218363245238701 -0.004677877369615123 -0.0005404858756235774 -0.0031687886461528487 0.0 0.0
0.0 0.011048018585153844 0.009424280526924742 -0.008740966194631425 -0.0006833143322933148 -0.005289446754786528 0.0 0.0
0.0 0.017246223421725246 0.014691885503890834 -0.01390619827759918 -0.0007856872262916499 -0.007656591878632185 0.0 0.0
0.0 0.024530117300801145 0.020883541834216313 -0.020011677680075137 -0.0008718641541411799 -0.010088941465338 0.0 0.0
0.0 0.03278654296691827 0.027931676199877513 -0.026980169563149962 -0.000951506636727548 -0.012464670956389786 0.0 0.0
0.0 0.04212116652007779 0.03586401464610306 -0.03483499871490051 -0.0010290159312025568 -0.014847854617471186 0.0 0.0
0.0 0.05239819519264421 0.04473609088770021 -0.043629702378302944 -0.0011063885093972703 -0.01731611543504865 0.0 0.0
0.0 0.06379835133832497 0.05451379097871475 -0.053329724174973905 -0.0011840668037408093 -0.019754744745857925 0.0 0.0
0.0 0.07607589777297882 0.06501366062588106 -0.06375126551680196 -0.0012623951090790634 -0.021850318972666996 0.0 0.0
0.0 0.08839586597350421 0.07584759064071185 -0.07450482755986115 -0.0013427630808506817 -0.023083844729004977 0.0 0.0
0.0 0.1002611494933406 0.08633260793468778 -0.08490481833934259 -0.0014277895953451717 -0.022569279736905402 0.0 0.0
0.0 0.11041658319695623 0.09542169687534204 -0.09391016077422738 -0.0015115361011146466 -0.019026131078092198 0.0 0.0
0.0 0.1173776492394827 0.10182246309936438 -0.10024593177948368 -0.0015765313198806625 -0.011144990737860247 0.0 0.0
0.0 0.11737764923947605 0.10182246309935725 -0.10024593177947688 -0.0015765313198802659 0.011144990737903353 0.0 0.0
0.0 0.11041658319693509 0.09542169687532046 -0.09391016077420664 -0.0015115361011138232 0.019026131078148052 0.0 0.0
0.0 0.10026114949330789 0.08633260793465639 -0.0849048183393119 -0.0014277895953444598 0.022569279736946064 0.0 0.0
0.0 0.08839586597346033 0.07584759064067206 -0.07450482755982178 -0.001342763080850273 0.023083844729022612 0.0 0.0
0.0 0.07607589777292625 0.06501366062583541 -0.06375126551675682 -0.0012623951090785974 0.02185031897265991 0.0 0.0
0.0 0.06379835133827111 0.05451379097866793 -0.053329724174927665 -0.0011840668037402836 0.01975474474584915 0.0 0.0
0.0 0.05239819519258989 0.044736090887652916 -0.04362970237825607 -0.0011063885093968205 0.017316115435041912 0.0 0.0
0.0 0.0421211665200273 0.0358640146460589 -0.03483499871485668 -0.0010290159312022046 0.014847854617462998 0.0 0.0
0.0 0.032786542966868906 0.02793167619983507 -0.026980169563107937 -0.0009515066367271157 0.012464670956373432 0.0 0.0
0.0 0.024530117300757655 0.020883541834179006 -0.020011677680038458 -0.0008718641541405503 0.010088941465320786 0.0 0.0
0.0 0.017246223421685823 0.014691885503858006 -0.013906198277566853 -0.000785687226291149 0.007656591878610742 0.0 0.0
0.0 0.011048018585122443 0.009424280526897913 -0.00874096619460517 -0.0006833143322927392 0.005289446754772704 0.0 0.0
0.0 0.006150549876417503 0.005218363245220615 -0.00467787736959784 -0.0005404858756227733 0.0031687886461417283 0.0 0.0
0.0 0.002789904798971454 0.0022376278857321355 -0.001910193452284974 -0.0003274344334471622 0.0015315587526411865 0.0 0.0
0.0 0.0007741640668969575 0.0005844010707052752 -0.00047547720078174255 -0.00010892386992353252 0.0005044905527403421 0.0 0.0
0.0 6.889156708231854e-05 4.177968128531938e-05 -3.320426227132925e-05 -8.575419013990051e-06 5.07174399813632e-05 0.0 0.0
0.0 3.31447960761525e-07 -1.1481308358023596e-08 9.314276049854182e-09 2.167032308171303e-09 -2.113107751763063e-08 0.0 0.0
0.0 0.0 0.0 0.0 0.0 0.0 0.0 0.0
0.0 0.0 0.0 0.0 0.0 0.0 0.0 0.0
0.0 0.003588621554687292 0.002256991761281343 -0.0026585512370589184 0.0004015594757775734 0.0030739098484559905 0.0 0.0
0.0 0.0024142036455579306 0.0014706483470102159 -0.001783669298280291 0.00031302095127007466 -0.0021021285171898435 0.0 0.0
0.0 0.0 0.0 0.0 0.0 0.0 0.0 0.0
0.0 0.0 0.0 0.0 0.0 0.0 0.0 0.0
0.0 1.2459832782016668e-06 -8.711175530045244e-08 6.722946238267231e-08 1.9882292917777628e-08 2.0432140011233723e-07 0.0 0.0
0.0 2.882822391612537e-05 1.1236067259858675e-05 -8.900457712616521e-06 -2.3356095472421482e-06 -1.9783777424657524e-05 0.0 0.0
0.0 0.0003787815360383256 0.0002745392679532702 -0.0002211692331765753 -5.337003477669471e-05 -0.0003584021112124499 0.0 0.0
0.0 0.001782143399058168 0.001375892793051835 -0.0011501165913800284 -0.00022577620167180644 -0.0013370868079868293 0.0 0.0
0.0 0.004517157032463635 0.0036511894814071086 -0.0032047257734980033 -0.0004464637079091048 -0.002960482788614568 0.0 0.0
0.0 0.008537222225207652 0.007068297400913362 -0.006453295089829153 -0.0006150023110842085 -0.005157941480029475 0.0 0.0
0.0 0.013663808435384353 0.011406508898259678 -0.010680149188917916 -0.0007263597093417607 -0.007657825651076443 0.0 0.0
0.0 0.019681932875183702 0.016485438336119703 -0.015674905121419516 -0.0008105332147001818 -0.010193151617216938 0.0 0.0
0.0 0.02648936951296588 0.02223422283347581 -0.021350011303577825 -0.0008842115298979883 -0.012666523660326097 0.0 0.0
0.0 0.0341041220977616 0.028684190396934022 -0.027730807827788948 -0.0009533825691450666 -0.01514239771422496 0.0 0.0
0.0 0.04261856864745924 0.035910139785655396 -0.034889413572724626 -0.0010207262129307687 -0.017681861636611295 0.0 0.0
0.0 0.05207745981850401 0.04393303879936746 -0.042845013922369904 -0.0010880248769975934 -0.020209340949213013 0.0 0.0
0.0 0.06207363536652337 0.052644985350021926 -0.05148991279894323 -0.001155072551078724 -0.022431436747480715 0.0 0.0
0.0 0.07269867942541776 0.061781086532684944 -0.060559211005196886 -0.0012218755274880486 -0.023835588065628504 0.0 0.0
0.0 0.08308892142877353 0.07091203604785339 -0.06962018681598761 -0.0012918492318657886 -0.023603918977088273 0.0 0.0
0.0 0.09217137063081596 0.0792866451263646 -0.07792092373462786 -0.0013657213917367074 -0.020277805435687593 0.0 0.0
0.0 0.09906950155995883 0.08575581309457689 -0.0843245044644718 -0.0014313086301050387 -0.012139048489959565 0.0 0.0
0.0 0.0990695015599516 0.08575581309456917 -0.08432450446446395 -0.0014313086301052352 0.012139048490002169 0.0 0.0
0.0 0.09217137063079613 0.07928664512634392 -0.07792092373460681 -0.0013657213917371493 0.020277805435743177 0.0 0.0
0.0 0.0830889214287455 0.07091203604782571 -0.06962018681595966 -0.0012918492318660796 0.023603918977128623 0.0 0.0
0.0 0.07269867942538194 0.06178108653265197 -0.06055921100516406 -0.0012218755274878924 0.02383558806564557 0.0 0.0
0.0 0.06207363536648017 0.05264498534998467 -0.05148991279890632 -0.0011550725510783195 0.022431436747472666 0.0 0.0
0.0 0.052077459818460396 0.04393303879932973 -0.042845013922332725 -0.0010880248769969958 0.020209340949202965 0.0 0.0
0.0 0.04261856864741921 0.03591013978562024 -0.034889413572690445 -0.0010207262129297925 0.01768186163660325 0.0 0.0
0.0 0.03410412209772176 0.028684190396899144 -0.027730807827754934 -0.0009533825691442097 0.015142397714216837 0.0 0.0
0.0 0.02648936951292351 0.022234222833439884 -0.021350011303542478 -0.0008842115298974086 0.012666523660309367 0.0 0.0
0.0 0.019681932875147093 0.016485438336088756 -0.015674905121389283 -0.0008105332146994729 0.010193151617199862 0.0 0.0
0.0 0.013663808435352491 0.011406508898233539 -0.010680149188892476 -0.0007263597093410609 0.00765782565105513 0.0 0.0
0.0 0.008537222225184429 0.007068297400893835 -0.0064532950898103705 -0.0006150023110834633 0.005157941480016337 0.0 0.0
0.0 0.004517157032447245 0.003651189481393726 -0.003204725773485683 -0.00044646370790804156 0.002960482788604682 0.0 0.0
0.0 0.001782143399049015 0.00137589279304484 -0.0011501165913739672 -0.00022577620167087283 0.0013370868079809976 0.0 0.0
0.0 0.0003787815360352712 0.00027453926795167254 -0.00022116923317527532 -5.337003477639726e-05 0.0003584021112103463 0.0 0.0
0.0 2.8828223915369332e-05 1.1236067259961661e-05 -8.900457712695117e-06 -2.3356095472665343e-06 1.9783777424826497e-05 0.0 0.0
0.0 1.245983277765114e-06 -8.711175526903953e-08 6.722946235833695e-08 1.9882292910690027e-08 -2.0432140003799813e-07 0.0 0.0
0.0 0.0 0.0 0.0 0.0 0.0 0.0 0.0
0.0 0.0 0.0 0.0 0.0 0.0 0.0 0.0
0.0 0.002414203645547856 0.0014706483470040403 -0.0017836692982733224 0.000313020951269283 0.002102128517180746 0.0 0.0
0.0 0.0015021048983109926 0.0008688467942817761 -0.0010848370433607763 0.00021599024907899994 -0.001309221205643727 0.0 0.0
0.0 2.413150468070681e-07 -3.1561199297649185e-09 2.895078666521106e-09 2.6104126324386403e-10 4.838109291425756e-08 0.0 0.0
0.0 0.0 0.0 0.0 0.0 0.0 0.0 0.0
0.0 1.343535810957597e-06 -6.745450613659108e-08 5.1836617700734505e-08 1.5617888435866596e-08 2.5068220686766373e-07 0.0 0.0
0.0 1.494098352456297e-05 5.840028252030316e-06 -4.612657817916806e-06 -1.2273704341135113e-06 -1.5256736166413413e-05 0.0 0.0
0.0 0.00019165333514636147 0.00010033356718699915 -8.047596108918116e-05 -1.985760609781805e-05 -0.00019957407777509864 0.0 0.0
0.0 0.0010070863054001777 0.000703616047036313 -0.0005767046940095956 -0.00012691135302671724 -0.0010077943856541909 0.0 0.0
0.0 0.002979292404334071 0.0022553000963967166 -0.0019290377055047603 -0.00032626239089195586 -0.002512614817955181 0.0 0.0
0.0 0.006117152918742279 0.004815929551074362 -0.004300011922616231 -0.0005159176284581286 -0.004579193591591991 0.0 0.0
0.0 0.010160107126308437 0.008192414676286052 -0.007544924193701181 -0.0006474904825848711 -0.007019973705049902 0.0 0.0
0.0 0.014909342619072601 0.012154546324808193 -0.011419161692039633 -0.0007353846327685593 -0.009539645040260138 0.0 0.0
0.0 0.020249833712687137 0.01661094236269847 -0.015804853816603064 -0.0008060885460954094 -0.011971959790067578 0.0 0.0
0.0 0.026218407133612332 0.02158803775194004 -0.020719872070355888 -0.0008681656815841384 -0.01438304822532855 0.0 0.0
0.0 0.032846878935184294 0.02717472315564072 -0.026248552070819994 -0.0009261710848207198 -0.016851489938168984 0.0 0.0
0.0 0.04026861943068503 0.033431698768791304 -0.03244948838342095 -0.0009822103853703494 -0.019310850291652647 0.0 0.0
0.0 0.04836142268666022 0.04032551861705653 -0.03928587819653383 -0.0010396404205227127 -0.02149304175962776 0.0 0.0
0.0 0.05684279308262602 0.04770403068531605 -0.04661079268031438 -0.0010932380050016656 -0.02298916053831824 0.0 0.0
0.0 0.06553232764624138 0.05538022850505325 -0.054235216967351216 -0.0011450115377020541 -0.02313345153067206 0.0 0.0
0.0 0.07394137962935715 0.06297724260721277 -0.061771339124310376 -0.0012059034829023556 -0.020476115021694694 0.0 0.0
0.0 0.08091803362455455 0.06957407704341251 -0.06829962399511205 -0.0012744530483004483 -0.01287589125827292 0.0 0.0
0.0 0.08091803362454834 0.06957407704340549 -0.06829962399510488 -0.001274453048300603 0.01287589125831298 0.0 0.0
0.0 0.0739413796293439 0.06297724260719688 -0.061771339124294444 -0.0012059034829024705 0.020476115021750046 0.0 0.0
0.0 0.06553232764622424 0.05538022850503366 -0.05423521696733243 -0.0011450115377012052 0.0231334515307129 0.0 0.0
0.0 0.05684279308259994 0.04770403068529064 -0.04661079268028978 -0.0010932380050008702 0.0229891605383349 0.0 0.0
0.0 0.048361422686625716 0.040325518617026726 -0.03928587819650456 -0.0010396404205221532 0.02149304175961922 0.0 0.0
0.0 0.040268619430649 0.03343169876876066 -0.03244948838339055 -0.0009822103853701037 0.019310850291640855 0.0 0.0
0.0 0.032846878935150474 0.02717472315561164 -0.026248552070790934 -0.0009261710848207127 0.01685148993816031 0.0 0.0
0.0 0.02621840713357924 0.021588037751911794 -0.02071987207032762 -0.0008681656815841737 0.014383048225318364 0.0 0.0
0.0 0.020249833712654056 0.016610942362670873 -0.01580485381657581 -0.0008060885460950606 0.011971959790051438 0.0 0.0
0.0 0.014909342619041544 0.012154546324782998 -0.011419161692014842 -0.0007353846327681488 0.0095396450402408 0.0 0.0
0.0 0.010160107126280554 0.008192414676264371 -0.007544924193680037 -0.0006474904825843328 0.00701997370502805 0.0 0.0
0.0 0.0061171529187208935 0.004815929551057626 -0.004300011922600152 -0.000515917628457473 0.0045791935915776745 0.0 0.0
0.0 0.0029792924043208157 0.00225530009638662 -0.0019290377054956911 -0.00032626239089092766 0.002512614817945537 0.0 0.0
0.0 0.0010070863053934197 0.0007036160470315973 -0.0005767046940056404 -0.00012691135302595643 0.0010077943856486083 0.0 0.0
0.0 0.00019165333514401596 0.00010033356718612259 -8.047596108845702e-05 -1.9857606097665417e-05 0.0001995740777733174 0.0 0.0
0.0 1.4940983524156193e-05 5.84002825217063e-06 -4.612657818027102e-06 -1.2273704341435308e-06 1.5256736166802125e-05 0.0 0.0
0.0 1.343535810551308e-06 -6.74545061154224e-08 5.1836617684484416e-08 1.561788843093987e-08 -2.5068220678900275e-07 0.0 0.0
0.0 0.0 0.0 0.0 0.0 0.0 0.0 0.0
0.0 2.413150465246296e-07 -3.1561199259962506e-09 2.8950786630596134e-09 2.610412629367381e-10 -4.838109285659394e-08 0.0 0.0
0.0 0.0015021048983028746 0.0008688467942772109 -0.0010848370433554438 0.0002159902490782323 0.0013092212056367435 0.0 0.0
0.0 0.0008118887667226216 0.0004331306932691349 -0.0005590029496258407 0.00012587225635670574 -0.0006912967327090432 0.0 0.0
0.0 7.427369157546076e-07 -9.239449292111002e-09 1.3057453172163895e-08 -3.81800388005423e-09 1.488259022895083e-07 0.0 0.0
0.0 6.305102464673167e-07 -7.0898921551877894e-09 5.074535917472657e-09 2.0153562377156586e-09 1.2874703632778445e-07 0.0 0.0
0.0 8.694762653476193e-07 -2.987712020632065e-08 2.159330647060148e-08 8.283813735721381e-09 1.7349073420562356e-07 0.0 0.0
0.0 1.2208070731445917e-05 3.448212682934891e-06 -2.7127001816408084e-06 -7.355125012940946e-07 -1.4055186231684549e-05 0.0 0.0
0.0 0.00010703363929616001 4.081007149755228e-05 -3.2546188812397815e-05 -8.263882685154463e-06 -0.0001284088334171323 0.0 0.0
0.0 0.0005012166802794003 0.00027279917832084767 -0.0002203287748126039 -5.247040350824373e-05 -0.0006318039516323321 0.0 0.0
0.0 0.0016753015252191272 0.0011074998529733435 -0.0009196097844978837 -0.0001878900684754598 -0.0018457797180902846 0.0 0.0
0.0 0.0038620517289831634 0.002761147197826159 -0.0023891333699365006 -0.0003720138278896555 -0.0036295773560222552 0.0 0.0
0.0 0.00672322918098695 0.005117555246637398 -0.004590019582106712 -0.000527535664530684 -0.005781185950971001 0.0 0.0
0.0 0.010282968699379676 0.007937730668031918 -0.007305995942089697 -0.0006317347259422233 -0.008073297130914424 0.0 0.0
0.0 0.014126727845300521 0.011106304931070154 -0.010400345290331599 -0.0007059596407385511 -0.010325721406910222 0.0 0.0
0.0 0.018411184771115727 0.014626470404972605 -0.013861163428541068 -0.0007653069764315334 -0.012547966945855698 0.0 0.0
0.0 0.023226822713964174 0.018582430278146045 -0.01776653985449926 -0.0008158904236467768 -0.014786180811942228 0.0 0.0
0.0 0.02869117328948537 0.023066162668294775 -0.022204181351370565 -0.0008619813169242059 -0.017023443432038314 0.0 0.0
0.0 0.034692620208715774 0.02811722118255299 -0.027209263020608047 -0.0009079581619449367 -0.019054190967048957 0.0 0.0
0.0 0.04122017935318899 0.03368287449453683 -0.03272946062546059 -0.0009534138690762477 -0.020477608589273843 0.0 0.0
0.0 0.04804023799992155 0.03975424818598475 -0.038767451615548995 -0.0009867965704357473 -0.020934736244566328 0.0 0.0
0.0 0.05522884664883788 0.0463922938229907 -0.04536790318171334 -0.0010243906412773396 -0.01939606678054931 0.0 0.0
0.0 0.062183464347107975 0.05310590794774131 -0.0520105780391712 -0.0010953299085701322 -0.013282735484040398 0.0 0.0
0.0 0.06218346434710447 0.05310590794773633 -0.0520105780391661 -0.0010953299085702185 0.013282735484073984 0.0 0.0
0.0 0.05522884664883305 0.046392293822981226 -0.045367903181704354 -0.0010243906412768758 0.01939606678059968 0.0 0.0
0.0 0.048040237999909516 0.039754248185969274 -0.03876745161553418 -0.0009867965704350723 0.02093473624460297 0.0 0.0
0.0 0.04122017935316641 0.03368287449451514 -0.03272946062543926 -0.0009534138690758965 0.020477608589284955 0.0 0.0
0.0 0.03469262020868636 0.02811722118252851 -0.027209263020583845 -0.0009079581619446558 0.019054190967037435 0.0 0.0
0.0 0.028691173289456275 0.02306616266827084 -0.022204181351346733 -0.0008619813169241136 0.017023443432025262 0.0 0.0
0.0 0.023226822713941737 0.018582430278127067 -0.0177665398544807 -0.0008158904236463759 0.01478618081193504 0.0 0.0
0.0 0.01841118477109773 0.014626470404956881 -0.01386116342852609 -0.0007653069764307941 0.012547966945850381 0.0 0.0
0.0 0.014126727845279038 0.011106304931052796 -0.010400345290314788 -0.0007059596407380052 0.010325721406897359 0.0 0.0
0.0 0.010282968699357516 0.007937730668014491 -0.007305995942072914 -0.0006317347259415753 0.008073297130898672 0.0 0.0
0.0 0.0067232291809675975 0.005117555246623306 -0.004590019582093312 -0.000527535664529993 0.005781185950953831 0.0 0.0
0.0 0.003862051728969052 0.0027611471978157952 -0.0023891333699269427 -0.0003720138278888529 0.003629577356010512 0.0 0.0
0.0 0.0016753015252110397 0.0011074998529676259 -0.0009196097844929613 -0.00018789006847466427 0.0018457797180828702 0.0 0.0
0.0 0.000501216680275802 0.0002727991783191319 -0.00022032877481118065 -5.247040350795131e-05 0.0006318039516287466 0.0 0.0
0.0 0.0001070336392949794 4.081007149749488e-05 -3.2546188812346125e-05 -8.263882685148754e-06 0.00012840883341678136 0.0 0.0
0.0 1.2208070731147416e-05 3.4482126830342394e-06 -2.712700181718923e-06 -7.355125013153088e-07 1.4055186232122771e-05 0.0 0.0
0.0 8.694762648168817e-07 -2.987712019000699e-08 2.1593306458356525e-08 8.283813731647456e-09 -1.7349073409897767e-07 0.0 0.0
0.0 6.305102458760242e-07 -7.089892147158693e-09 5.074535912009278e-09 2.015356235150372e-09 -1.2874703620679312e-07 0.0 0.0
0.0 7.427369147566011e-07 -9.239449282830247e-09 1.3057453159012042e-08 -3.818003876181852e-09 -1.4882590208868319e-07 0.0 0.0
0.0 0.0008118887667172419 0.00043313069326658265 -0.0005590029496227372 0.0001258722563561546 0.0006912967327049106 0.0 0.0
0.0 0.00031257147163311737 0.00016454155724108824 -0.00022227347152480826 5.773191428372003e-05 -0.0002791310085347189 0.0 0.0
0.0 2.0717276247831737e-06 -6.165853434397743e-09 1.47916262852059e-08 -8.625772850807937e-09 4.367858720835785e-07 0.0 0.0
0.0 8.129603515550081e-07 -9.729788138728575e-10 -5.062304710215263e-10 1.479209284894036e-09 1.6676851108718092e-07 0.0 0.0
0.0 1.3942118126280809e-06 -1.7202479833820512e-08 1.1633862331670308e-08 5.568617502153395e-09 2.882879494068393e-07 0.0 0.0
0.0 1.2861192217295065e-05 2.0985946238570095e-06 -1.6097563070578443e-06 -4.888383167991693e-07 -1.5839709643369772e-05 0.0 0.0
0.0 8.727444091150664e-05 1.9576120796563914e-05 -1.562224717906853e-05 -3.953873617495378e-06 -0.00011175173876694216 0.0 0.0
0.0 0.0002748566659859903 8.780571976770029e-05 -7.053978333410395e-05 -1.7265936433596276e-05 -0.0003891519718732678 0.0 0.0
0.0 0.0007563941001621509 0.00034597628421639674 -0.00027979737741904267 -6.617890679735375e-05 -0.0010960890326330076 0.0 0.0
0.0 0.0018942016165546748 0.0010659158885794598 -0.0008837846327056129 -0.00018213125587384705 -0.00236880484501933 0.0 0.0
0.0 0.003618493039701108 0.0023205340279642737 -0.0019908873070251915 -0.00032964672093908074 -0.004019380855670272 0.0 0.0
0.0 0.0057522908868474845 0.003953587269561479 -0.003497935367879937 -0.00045565190168153944 -0.0058508793023060775 0.0 0.0
0.0 0.008238127268028559 0.005811324401797367 -0.005265886476913539 -0.0005454379248838254 -0.007725554408658126 0.0 0.0
0.0 0.010945281972971 0.007884506422755466 -0.007270844692875209 -0.0006136617298802506 -0.009636495835464809 0.0 0.0
0.0 0.013982022300843232 0.010229096717214746 -0.009563417460312333 -0.0006656792569024078 -0.011546082115003143 0.0 0.0
0.0 0.017430924542740686 0.012935962944006526 -0.012229607873873755 -0.0007063550701327649 -0.01344769758963289 0.0 0.0
0.0 0.021367582627225067 0.016111734440646616 -0.015369678212659638 -0.0007420562279869845 -0.01524477313269769 0.0 0.0
0.0 0.025834750878846142 0.019827933899354444 -0.019047988203051057 -0.0007799456963033937 -0.0166082733433817 0.0 0.0
0.0 0.030808526084642303 0.02417192544533869 -0.02336022766909327 -0.0008116977762454313 -0.01715658228275684 0.0 0.0
0.0 0.03668835303724411 0.029492920865788114 -0.028680505149449365 -0.0008124157163387548 -0.01670244549793332 0.0 0.0
0.0 0.04346742307023925 0.03612420347765771 -0.03525208871013923 -0.0008721147675185026 -0.013115274882588918 0.0 0.0
0.0 0.043467423070237925 0.03612420347765421 -0.03525208871013559 -0.0008721147675186402 0.0131152748826177 0.0 0.0
0.0 0.03668835303724169 0.02949292086578098 -0.028680505149442 -0.0008124157163389709 0.016702445497975414 0.0 0.0
0.0 0.03080852608463493 0.02417192544532735 -0.0233602276690821 -0.0008116977762452442 0.01715658228278808 0.0 0.0
0.0 0.025834750878832913 0.019827933899341524 -0.019047988203038515 -0.0007799456963029955 0.016608273343388012 0.0 0.0
0.0 0.021367582627205648 0.016111734440632068 -0.015369678212645264 -0.0007420562279868061 0.01524477313268535 0.0 0.0
0.0 0.017430924542721816 0.01293596294399242 -0.012229607873859717 -0.0007063550701326976 0.013447697589620116 0.0 0.0
0.0 0.013982022300829964 0.010229096717204022 -0.009563417460302003 -0.0006656792569020228 0.011546082114997358 0.0 0.0
0.0 0.010945281972959662 0.007884506422745961 -0.007270844692865992 -0.00061366172987997 0.009636495835460824 0.0 0.0
0.0 0.008238127268013724 0.005811324401786411 -0.0052658864769032 -0.0005454379248832116 0.007725554408647042 0.0 0.0
0.0 0.005752290886833171 0.003953587269551939 -0.00349793536787099 -0.00045565190168094763 0.005850879302291915 0.0 0.0
0.0 0.0036184930396897428 0.0023205340279572563 -0.001990887307018878 -0.00032964672093837677 0.00401938085565818 0.0 0.0
0.0 0.001894201616546954 0.001065915888574545 -0.0008837846327013437 -0.00018213125587320151 0.002368804845010914 0.0 0.0
0.0 0.0007563941001582377 0.0003459762842145058 -0.0002797973774174986 -6.617890679700699e-05 0.0010960890326283804 0.0 0.0
0.0 0.00027485666598401357 8.780571976723727e-05 -7.053978333372143e-05 -1.7265936433515798e-05 0.00038915197187125834 0.0 0.0
0.0 8.727444090968821e-05 1.9576120796394125e-05 -1.562224717893457e-05 -3.953873617459541e-06 0.00011175173876589616 0.0 0.0
0.0 1.2861192217015958e-05 2.0985946239225017e-06 -1.6097563071080097e-06 -4.888383168144935e-07 1.583970964387761e-05 0.0 0.0
0.0 1.3942118121365584e-06 -1.7202479827439693e-08 1.1633862327329383e-08 5.568617500112952e-09 -2.8828794930130727e-07 0.0 0.0
0.0 8.12960351106587e-07 -9.729788137991681e-10 -5.062304704954294e-10 1.479209284295063e-09 -1.667685109932312e-07 0.0 0.0
0.0 2.0717276240791394e-06 -6.165853431574411e-09 1.4791626278552993e-08 -8.625772846978897e-09 -4.3678587193397695e-07 0.0 0.0
0.0 0.00031257147163026326 0.00016454155724004467 -0.00022227347152345935 5.7731914283414494e-05 0.00027913100853304396 0.0 0.0
0.0 7.344812407960991e-05 3.542788381754891e-05 -5.014344922597021e-05 1.4715565408421302e-05 -6.366660101669595e-05 0.0 0.0
0.0 2.3409661729961703e-06 6.496376963596438e-10 1.3091562580591183e-08 -1.3741200276949575e-08 4.872012716183131e-07 0.0 0.0
0.0 9.539902332377991e-07 -1.9943888413001778e-09 9.661188148479846e-10 1.028270026452126e-09 -4.8084080519688616e-08 0.0 0.0
0.0 2.1658236948674133e-06 -2.906542009448403e-08 3.1915508425637505e-08 -2.8500883311528758e-09 -1.7452177569997346e-06 0.0 0.0
0.0 1.6067043058080847e-05 4.55414602197743e-07 -3.018585873531774e-07 -1.5355601484457203e-07 -1.711329070355841e-05 0.0 0.0
0.0 8.259014540087096e-05 6.03829112954677e-06 -4.735079337240595e-06 -1.30321179230616e-06 -0.00011723636266932812 0.0 0.0
0.0 0.00022539299507954457 2.4676643768327297e-05 -1.9792645828615307e-05 -4.883997939712014e-06 -0.000354151311882166 0.0 0.0
0.0 0.00047766890023048634 6.527516727186774e-05 -5.2698694163577784e-05 -1.2576473108289878e-05 -0.0007229429581274021 0.0 0.0
0.0 0.0008383288498805908 0.00016063935616425455 -0.00013019288940444566 -3.044646675980887e-05 -0.0013507397680147509 0.0 0.0
0.0 0.001480808190952284 0.00036144936413155825 -0.00029303511595499314 -6.841424817656515e-05 -0.002278056788331869 0.0 0.0
0.0 0.002263922817833347 0.0007211141460355871 -0.0005839991417585989 -0.00013711500427698796 -0.0035113115621653586 0.0 0.0
0.0 0.0033044887388369686 0.00118269608499401 -0.0009674679511522108 -0.00021522813384179914 -0.004889942091362359 0.0 0.0
0.0 0.004548236570059469 0.0017675229490988944 -0.00147806585861499 -0.0002894570904839034 -0.006434821572052983 0.0 0.0
0.0 0.006028199404794619 0.0024844111982262247 -0.002132048669348614 -0.0003523625288776112 -0.008126609395493724 0.0 0.0
0.0 0.007739703398197433 0.0033963697664032852 -0.0029931514918710355 -0.00040321827453224937 -0.009951973047030816 0.0 0.0
0.0 0.00980037500716283 0.004644392782026324 -0.00419948811057269 -0.00044490467145363155 -0.01179430818233788 0.0 0.0
0.0 0.012248486471604971 0.00645546969995751 -0.005970572825704805 -0.0004848968742527005 -0.013314018655020476 0.0 0.0
0.0 0.015162611048463963 0.009047292064884633 -0.008513109620031139 -0.0005341824448534885 -0.013935715765131796 0.0 0.0
0.0 0.019019068335333587 0.012711119931338633 -0.012156589725165177 -0.0005545302061734548 -0.013574321437328011 0.0 0.0
0.0 0.024912473950256506 0.018517389994925273 -0.01798960894531267 -0.0005277810496126104 -0.012424272090482474 0.0 0.0
0.0 0.024912473950261787 0.018517389994927524 -0.017989608945314896 -0.000527781049612621 0.012424272090503733 0.0 0.0
0.0 0.01901906833533795 0.012711119931337181 -0.012156589725164018 -0.0005545302061731637 0.013574321437361465 0.0 0.0
0.0 0.015162611048463314 0.009047292064880448 -0.008513109620027104 -0.0005341824448533419 0.013935715765151 0.0 0.0
0.0 0.012248486471598711 0.006455469699953071 -0.005970572825700379 -0.0004848968742526896 0.013314018655019862 0.0 0.0
0.0 0.009800375007156095 0.004644392782024436 -0.004199488110570955 -0.0004449046714534806 0.01179430818232641 0.0 0.0
0.0 0.0077397033981899555 0.0033963697664001428 -0.0029931514918681134 -0.0004032182745320287 0.009951973047021586 0.0 0.0
0.0 0.00602819940478789 0.0024844111982234864 -0.0021320486693459447 -0.00035236252887754126 0.008126609395486198 0.0 0.0
0.0 0.004548236570054966 0.0017675229490979464 -0.0014780658586142255 -0.0002894570904837208 0.006434821572045883 0.0 0.0
0.0 0.0033044887388315658 0.0011826960849929205 -0.0009674679511514009 -0.00021522813384151915 0.004889942091354162 0.0 0.0
0.0 0.002263922817827139 0.0007211141460337469 -0.0005839991417571816 -0.0001371150042765648 0.003511311562156577 0.0 0.0
0.0 0.0014808081909467295 0.00036144936413036645 -0.00029303511595399746 -6.84142481763692e-05 0.0022780567883238564 0.0 0.0
0.0 0.0008383288498785835 0.00016063935616386123 -0.00013019288940415176 -3.044646675970934e-05 0.0013507397680115412 0.0 0.0
0.0 0.0004776689002290424 6.527516727165573e-05 -5.269869416341707e-05 -1.2576473108238613e-05 0.0007229429581250197 0.0 0.0
0.0 0.0002253929950776212 2.467664376821744e-05 -1.9792645828512972e-05 -4.883997939704445e-06 0.0003541513118804756 0.0 0.0
0.0 8.259014539959382e-05 6.0382911295068075e-06 -4.735079337208075e-06 -1.3032117922987333e-06 0.00011723636266840765 0.0 0.0
0.0 1.6067043057746574e-05 4.5541460220651107e-07 -3.018585873586966e-07 -1.5355601484781775e-07 1.7113290703956814e-05 0.0 0.0
0.0 2.165823694767882e-06 -2.9065420107750698e-08 3.191550844127504e-08 -2.8500883335244266e-09 1.7452177578350025e-06 0.0 0.0
0.0 9.539902329811257e-07 -1.994388862990348e-09 9.661188332053078e-10 1.0282700297848294e-09 4.808408094450301e-08 0.0 0.0
0.0 2.340966172321822e-06 6.496376968874008e-10 1.3091562575233056e-08 -1.3741200272117913e-08 -4.87201271473837e-07 0.0 0.0
0.0 7.34481240783136e-05 3.54278838173121e-05 -5.014344922562995e-05 1.4715565408317798e-05 6.366660101641244e-05 0.0 0.0
0.0 4.592016331476904e-06 1.2490984464976517e-06 -1.8037040405746716e-06 5.54605594077013e-07 -2.5880663319069938e-06 0.0 0.0
0.0 2.1081197352426177e-06 -6.739242698694335e-09 9.59181823135056e-09 -2.852575532651366e-09 5.057094276612366e-08 0.0 0.0
0.0 2.790666758562168e-06 -1.395221261537524e-07 1.1688435247692117e-07 2.263777367683199e-08 -1.5728505150815402e-06 0.0 0.0
0.0 4.557726456793296e-06 -4.393049784819642e-07 3.8238061034602805e-07 5.6924368135936525e-08 -5.142786657029291e-06 0.0 0.0
0.0 2.0814042533466266e-05 -1.612025978583014e-06 1.400336472731724e-06 2.1168950585129963e-07 -2.3407615060246445e-05 0.0 0.0
0.0 8.973725244788754e-05 -7.905510322262077e-06 6.504300386855236e-06 1.4012099354068322e-06 -0.00011966689705674332 0.0 0.0
0.0 0.0002269678328395367 -2.60168281874602e-05 2.1025223538676145e-05 4.991604648784036e-06 -0.0003568806807783351 0.0 0.0
0.0 0.00047799552450561764 -6.550372003436334e-05 5.2878502732799845e-05 1.2625217301563439e-05 -0.0007246056393429534 0.0 0.0
0.0 0.0008383128723747577 -0.00016038929077790643 0.00012998029408316288 3.040899669474341e-05 -0.0013513329721787624 0.0 0.0
0.0 0.0014793446474905612 -0.00036069026469067724 0.00029232645783006426 6.836380686061299e-05 -0.002276651104655188 0.0 0.0
0.0 0.002273334479913169 -0.0007210760385512665 0.0005847812578389541 0.00013629478071231207 -0.0035109463185642163 0.0 0.0
0.0 0.0033176680960288847 -0.0011998405050648643 0.0009844029660503685 0.00021543753901449535 -0.004899421418487813 0.0 0.0
0.0 0.004586004259978023 -0.0018134787067339026 0.0015220694363633242 0.0002914092703705767 -0.0064487758191673445 0.0 0.0
0.0 0.006070918430652481 -0.0025402377019507626 0.002180858533824954 0.00035937916812580663 -0.008133021400490159 0.0 0.0
0.0 0.0076483848494743245 -0.0032908819947659994 0.0028709587348961845 0.00041992325986981436 -0.009944288423152267 0.0 0.0
0.0 0.009210307007931845 -0.0038627540127581716 0.003389595789773903 0.00047315822298426354 -0.011845657274939546 0.0 0.0
0.0 0.010455306554183296 -0.003932871063781358 0.003416098646162085 0.0005167724176192729 -0.013825154856032624 0.0 0.0
0.0 0.011236944161756279 -0.003221849344616895 0.002676093738076448 0.0005457556065404464 -0.015927201611630987 0.0 0.0
0.0 0.011514044982637438 -0.0017725473376490521 0.0012738680207418718 0.0004986793169071808 -0.017765296896759323 0.0 0.0
0.0 0.01117419444893374 0.0026043462817494016 -0.0026827296443710028 7.838336262159986e-05 -0.016451183835919547 0.0 0.0
0.0 0.011174194448936872 0.002604346281748683 -0.0026827296443704077 7.838336262172769e-05 0.016451183835930458 0.0 0.0
0.0 0.011514044982641164 -0.0017725473376493843 0.0012738680207421882 0.0004986793169071948 0.0177652968967702 0.0 0.0
0.0 0.011236944161752067 -0.0032218493446154106 0.0026760937380753613 0.0005457556065400476 0.01592720161163094 0.0 0.0
0.0 0.010455306554172698 -0.00393287106377569 0.0034160986461567178 0.0005167724176189686 0.013825154856024428 0.0 0.0
0.0 0.009210307007919189 -0.0038627540127512796 0.0033895957897673713 0.00047315822298390516 0.0118456572749256 0.0 0.0
0.0 0.007648384849464165 -0.003290881994760548 0.0028709587348911283 0.0004199232598694182 0.009944288423141918 0.0 0.0
0.0 0.0060709184306422205 -0.0025402377019445757 0.0021808585338193936 0.0003593791681251804 0.008133021400481825 0.0 0.0
0.0 0.004586004259967979 -0.0018134787067277916 0.001522069436357791 0.00029140927036999957 0.006448775819159223 0.0 0.0
0.0 0.0033176680960185874 -0.0011998405050599632 0.0009844029660461065 0.00021543753901385657 0.004899421418476938 0.0 0.0
0.0 0.00227333447990522 -0.0007210760385477826 0.0005847812578360995 0.00013629478071168355 0.0035109463185546592 0.0 0.0
0.0 0.0014793446474834584 -0.00036069026468805 0.00029232645782787845 6.836380686017147e-05 0.0022766511046463348 0.0 0.0
0.0 0.0008383128723724939 -0.0001603892907771468 0.00012998029408254063 3.040899669460621e-05 0.0013513329721756184 0.0 0.0
0.0 0.0004779955245040125 -6.550372003401154e-05 5.287850273249527e-05 1.2625217301516254e-05 0.0007246056393408774 0.0 0.0
0.0 0.00022696783283775586 -2.6016828187332773e-05 2.1025223538600678e-05 4.9916046487320894e-06 0.000356880680776728 0.0 0.0
0.0 8.973725244646052e-05 -7.905510322224735e-06 6.504300386828581e-06 1.4012099353961626e-06 0.00011966689705621914 0.0 0.0
0.0 2.081404253294185e-05 -1.612025978603329e-06 1.4003364727499915e-06 2.116895058533339e-07 2.34076150605579e-05 0.0 0.0
0.0 4.5577264566189175e-06 -4.393049785384988e-07 3.823806103950226e-07 5.692436814347649e-08 5.142786657666619e-06 0.0 0.0
0.0 2.790666758180823e-06 -1.3952212624967564e-07 1.1688435255773812e-07 2.2637773691938208e-08 1.572850516182701e-06 0.0 0.0
0.0 2.108119734651097e-06 -6.739242713400466e-09 9.591818231277179e-09 -2.8525755178718123e-09 -5.057094226467004e-08 0.0 0.0
0.0 4.592016330865579e-06 1.2490984466172178e-06 -1.8037040407465757e-06 5.54605594129361e-07 2.5880663321831617e-06 0.0 0.0
0.0 5.791226492451869e-07 -3.285152939261594e-08 4.863961923435166e-08 -1.578808984173702e-08 8.324711323925464e-08 0.0 0.0
0.0 9.402383136607516e-07 -7.228825517054863e-09 8.83916009407437e-09 -1.610334577021045e-09 -1.0641756899546305e-07 0.0 0.0
0.0 3.5961338118377636e-06 -3.2437268140485657e-07 2.673809580299335e-07 5.6991723374918844e-08 -2.449224951245823e-06 0.0 0.0
0.0 7.62171241908569e-06 -5.606690794115574e-07 4.896417774664901e-07 7.102730194508077e-08 -3.9952505834086795e-06 0.0 0.0
0.0 2.6899721320930958e-05 -5.447334891562054e-06 4.5389581332374815e-06 9.083767583245782e-07 -3.295708236447427e-05 0.0 0.0
0.0 9.935933067142688e-05 -2.4671987077534138e-05 1.9933260955579527e-05 4.738726121954584e-06 -0.00013121479156241243 0.0 0.0
0.0 0.00028608299521384314 -9.073378436268518e-05 7.306098985554202e-05 1.767279450714315e-05 -0.0003972190451961519 0.0 0.0
0.0 0.0007611678510338464 -0.0003480260861977767 0.0002814845678559584 6.654151834181822e-05 -0.0011017339168327314 0.0 0.0
0.0 0.0018919250813711076 -0.0010649281055064635 0.0008829015866346759 0.00018202651887178764 -0.0023685858803592147 0.0 0.0
0.0 0.0036160620455418305 -0.0023192867451299975 0.0019898973940427798 0.0003293893510872176 -0.004018052243935191 0.0 0.0
0.0 0.005756940170533822 -0.003958065762555658 0.003502982076291752 0.0004550836862639039 -0.005852461617248138 0.0 0.0
0.0 0.008259515942027633 -0.00583374376989204 0.005289159751188248 0.0005445840187037949 -0.007725159783448146 0.0 0.0
0.0 0.010992202085429276 -0.007937691813706724 0.007323975291252216 0.0006137165224545055 -0.00961721766745051 0.0 0.0
0.0 0.01402717618479131 -0.010284397091048622 0.009612935277216135 0.0006714618138324894 -0.011510247028577992 0.0 0.0
0.0 0.01730692311639465 -0.012804183346638184 0.012079250023269494 0.0007249333233686854 -0.013479721334882427 0.0 0.0
0.0 0.020599660826876393 -0.015263705179354166 0.014487536062709812 0.0007761691166443532 -0.015614948253098847 0.0 0.0
0.0 0.023529417903956195 -0.017249551897851653 0.016428396737074916 0.0008211551607767419 -0.017984709132114453 0.0 0.0
0.0 0.025489604288375642 -0.01823089317411018 0.017378519967941174 0.0008523732061690154 -0.020496576574635276 0.0 0.0
0.0 0.024912381110225767 -0.017173500758149187 0.016226026592398555 0.0009474741657506177 -0.021515839588748645 0.0 0.0
0.0 0.01941800851931131 -0.011620454703201305 0.010591504985528813 0.00102894971767249 -0.018925218853549915 0.0 0.0
0.0 0.019418008519319498 -0.011620454703202283 0.01059150498552939 0.0010289497176728924 0.018925218853576002 0.0 0.0
0.0 0.024912381110231648 -0.017173500758147043 0.01622602659239627 0.0009474741657507596 0.021515839588782573 0.0 0.0
0.0 0.02548960428837178 -0.018230893174102487 0.01737851996793356 0.000852373206168911 0.020496576574655832 0.0 0.0
0.0 0.02352941790394077 -0.017249551897837705 0.016428396737061465 0.0008211551607762375 0.017984709132114036 0.0 0.0
0.0 0.020599660826855597 -0.015263705179337717 0.01448753606269369 0.000776169116644034 0.015614948253085683 0.0 0.0
0.0 0.017306923116375366 -0.012804183346623078 0.012079250023254747 0.0007249333233683307 0.013479721334870288 0.0 0.0
0.0 0.014027176184774403 -0.010284397091035541 0.009612935277203355 0.0006714618138321839 0.011510247028567257 0.0 0.0
0.0 0.010992202085410427 -0.007937691813690959 0.007323975291236721 0.0006137165224542349 0.009617217667441839 0.0 0.0
0.0 0.008259515942005902 -0.0058337437698757315 0.005289159751172563 0.0005445840187031663 0.007725159783432358 0.0 0.0
0.0 0.005756940170514423 -0.0039580657625419334 0.003502982076278924 0.000455083686263009 0.005852461617231439 0.0 0.0
0.0 0.003616062045525348 -0.0023192867451188506 0.0019898973940326425 0.0003293893510862069 0.004018052243919381 0.0 0.0
0.0 0.0018919250813622807 -0.001064928105500421 0.0008829015866294277 0.00018202651887099395 0.0023685858803503494 0.0 0.0
0.0 0.0007611678510297483 -0.0003480260861955176 0.00028148456785411977 6.654151834139787e-05 0.0011017339168279182 0.0 0.0
0.0 0.00028608299521166357 -9.0733784362222e-05 7.30609898551697e-05 1.7672794507052284e-05 0.0003972190451942164 0.0 0.0
0.0 9.935933066973531e-05 -2.467198707738457e-05 1.9933260955458692e-05 4.73872612192585e-06 0.0001312147915616513 0.0 0.0
0.0 2.6899721320107927e-05 -5.447334891551501e-06 4.538958133229654e-06 9.083767583218319e-07 3.2957082364405514e-05 0.0 0.0
0.0 7.621712418788068e-06 -5.606690794988952e-07 4.896417775399749e-07 7.102730195892351e-08 3.995250583972054e-06 0.0 0.0
0.0 3.596133811311805e-06 -3.24372681522285e-07 2.6738095812607983e-07 5.699172339620509e-08 2.4492249521490796e-06 0.0 0.0
0.0 9.402383132722989e-07 -7.2288255374896836e-09 8.83916009064146e-09 -1.6103345531514299e-09 1.0641756958184397e-07 0.0 0.0
0.0 5.791226488939735e-07 -3.285152937202806e-08 4.863961920387383e-08 -1.57880898318369e-08 -8.324711318699175e-08 0.0 0.0
0.0 0.0 0.0 0.0 0.0 0.0 0.0 0.0
0.0 1.2508586812791678e-06 1.7693331314728913e-08 -8.022362203851962e-09 -9.670969110877117e-09 2.5436291706895875e-07 0.0 0.0
0.0 3.4970610870149666e-06 -4.420659989314105e-09 4.545124660381963e-09 -1.2446467107156753e-10 1.771523887729856e-08 0.0 0.0
0.0 9.817359142057593e-06 -6.555742278290203e-07 5.299863360485569e-07 1.2558789178047172e-07 -2.666251663752287e-06 0.0 0.0
0.0 3.430759272849115e-05 -1.0196954440464017e-05 8.30126467227076e-06 1.8956897681932712e-06 -3.713874395721255e-05 0.0 0.0
0.0 0.0001309219938265449 -5.1755442336782994e-05 4.172115510964848e-05 1.003428722713446e-05 -0.00015838747557670528 0.0 0.0
0.0 0.0005231540633727081 -0.00028258748231032877 0.00022862268308648686 5.396479922384196e-05 -0.0006511237511956448 0.0 0.0
0.0 0.0016790453015499323 -0.0011087147070172924 0.000920776782840487 0.00018793792417680559 -0.0018509092501449585 0.0 0.0
0.0 0.0038569671004026716 -0.0027583610728678766 0.0023865450910403106 0.00037181598182756473 -0.003626253668071183 0.0 0.0
0.0 0.006721905726750068 -0.005117442292610714 0.004590040180651959 0.0005274021119587553 -0.005779732259572393 0.0 0.0
0.0 0.010289248046726953 -0.007943732464214693 0.007312509693486671 0.0006312227707280236 -0.008073785376420941 0.0 0.0
0.0 0.014142127680100286 -0.011124395661398934 0.010419537339881955 0.0007048583215169786 -0.01030985843118859 0.0 0.0
0.0 0.018433267755242025 -0.014664784320982662 0.013900076653679589 0.0007647076673030759 -0.012473621241093242 0.0 0.0
0.0 0.023231239435903377 -0.01861797955412405 0.017797846033839063 0.00082013352028498 -0.014648244218685658 0.0 0.0
0.0 0.02855523929245327 -0.022942233944946138 0.02206458017746518 0.0008776537674809522 -0.017020294769050703 0.0 0.0
0.0 0.03406907063392781 -0.027384409543285755 0.026446413319474983 0.0009379962238107532 -0.019853519962473136 0.0 0.0
0.0 0.03934064664742666 -0.031426241403736635 0.03042943374838363 0.000996807655352992 -0.023333382042973003 0.0 0.0
0.0 0.042999785815225955 -0.0341557403842638 0.03308401882061812 0.0010717215636456838 -0.026834529231916905 0.0 0.0
0.0 0.04321172971155619 -0.033852261942822454 0.03268604071331017 0.0011662212295122786 -0.028574400035187547 0.0 0.0
0.0 0.035337894263700945 -0.02718736644463744 0.025811526954241153 0.0013758394903962794 -0.024828312082348012 0.0 0.0
0.0 0.035337894263707065 -0.02718736644463634 0.025811526954239973 0.0013758394903963676 0.02482831208238096 0.0 0.0
0.0 0.04321172971156093 -0.03385226194281856 0.0326860407133066 0.001166221229511935 0.028574400035230638 0.0 0.0
0.0 0.042999785815218995 -0.03415574038425184 0.0330840188206065 0.0010717215636453187 0.02683452923194772 0.0 0.0
0.0 0.03934064664740225 -0.031426241403714035 0.030429433748361243 0.0009968076553528117 0.023333382042976192 0.0 0.0
0.0 0.03406907063389516 -0.02738440954325822 0.02644641331944787 0.0009379962238103565 0.019853519962460535 0.0 0.0
0.0 0.02855523929242268 -0.02294223394492092 0.022064580177440167 0.0008776537674807373 0.017020294769036545 0.0 0.0
0.0 0.02323123943587311 -0.018617979554099204 0.017797846033814315 0.0008201335202848872 0.014648244218670788 0.0 0.0
0.0 0.01843326775521195 -0.014664784320957122 0.013900076653654517 0.0007647076673025983 0.012473621241081076 0.0 0.0
0.0 0.014142127680071342 -0.01112439566137541 0.01041953733985896 0.0007048583215164495 0.010309858431171777 0.0 0.0
0.0 0.010289248046699128 -0.007943732464192964 0.00731250969346551 0.0006312227707274532 0.008073785376400673 0.0 0.0
0.0 0.006721905726725564 -0.005117442292592247 0.004590040180634168 0.0005274021119580794 0.005779732259553049 0.0 0.0
0.0 0.0038569671003878233 -0.002758361072856391 0.0023865450910297097 0.00037181598182668143 0.0036262536680599844 0.0 0.0
0.0 0.0016790453015417845 -0.0011087147070115238 0.0009207767828355981 0.00018793792417592584 0.0018509092501378718 0.0 0.0
0.0 0.0005231540633685799 -0.00028258748230834793 0.00022862268308491572 5.396479922343213e-05 0.0006511237511919886 0.0 0.0
0.0 0.0001309219938249797 -5.1755442336665026e-05 4.1721155109553866e-05 1.0034287227111111e-05 0.00015838747557614632 0.0 0.0
0.0 3.430759272752591e-05 -1.0196954440545043e-05 8.301264672336447e-06 1.8956897682085571e-06 3.713874395750664e-05 0.0 0.0
0.0 9.817359141381322e-06 -6.555742279631959e-07 5.299863361592727e-07 1.2558789180391143e-07 2.6662516643389667e-06 0.0 0.0
0.0 3.49706108645029e-06 -4.420660094426711e-09 4.5451247444024435e-09 -1.2446464996927359e-10 -1.7715238293868247e-08 0.0 0.0
0.0 1.2508586809248778e-06 1.7693331309732382e-08 -8.022362201433076e-09 -9.67096910830339e-09 -2.543629169952669e-07 0.0 0.0
0.0 0.0 0.0 0.0 0.0 0.0 0.0 0.0
0.0 0.0 0.0 0.0 0.0 0.0 0.0 0.0
0.0 1.142611525848342e-07 2.288734892542505e-09 -1.5997618405167106e-09 -6.88973052025528e-10 2.247828464461184e-08 0.0 0.0
0.0 2.097264954190379e-06 8.83659584605301e-08 -7.060413059826229e-08 -1.7761827862272653e-08 4.0752168309173775e-07 0.0 0.0
0.0 9.678900007367574e-06 -1.8019866257818336e-06 1.4938581949729838e-06 3.0812843080884575e-07 -5.9931761680147625e-06 0.0 0.0
0.0 4.3211702323318775e-05 -1.5916402644141175e-05 1.2951140529326642e-05 2.965262114814563e-06 -4.0895818807484455e-05 0.0 0.0
0.0 0.00022549777506222324 -0.00012662394792508836 0.00010200644961017561 2.4617498314912746e-05 -0.0002495790419592437 0.0 0.0
0.0 0.0010352543697971339 -0.000713582918113904 0.000585980050991927 0.00012760286712197713 -0.0010274600193994309 0.0 0.0
0.0 0.0029770600155357993 -0.002251922357086649 0.0019261587950514464 0.0003257635620352016 -0.0025120254083124153 0.0 0.0
0.0 0.006111774797471848 -0.004812928905822012 0.004297038899491356 0.0005158900063306569 -0.004573665228907953 0.0 0.0
0.0 0.010159324854930063 -0.008194496841880287 0.0075470620804930595 0.0006474347613872258 -0.007019394302000942 0.0 0.0
0.0 0.01491625096342476 -0.012160880413316678 0.011425851378106911 0.0007350290352097665 -0.009539293436775526 0.0 0.0
0.0 0.020252688489735174 -0.016618999514183844 0.01581364333948172 0.0008053561747021225 -0.01194296921544704 0.0 0.0
0.0 0.026202039282140425 -0.021595499050427545 0.02072811264631548 0.000867386404112052 -0.01425943210961318 0.0 0.0
0.0 0.03279563578604176 -0.027170359296217295 0.026242474765058185 0.0009278845311591186 -0.016606179797205623 0.0 0.0
0.0 0.0401458463242742 -0.03333387759839425 0.03234221941806517 0.000991658180329061 -0.019230522458561345 0.0 0.0
0.0 0.04798665294306508 -0.03982736903217643 0.03876401735772435 0.0010633516744520794 -0.022546077692733344 0.0 0.0
0.0 0.055473049837981736 -0.04594385167609176 0.0447974982506261 0.001146353425465646 -0.026745413983606914 0.0 0.0
0.0 0.061023278395023195 -0.050286503403488 0.049041678511724016 0.0012448248917639286 -0.031084886457394552 0.0 0.0
0.0 0.06155658917867668 -0.050425552585333516 0.0490434236656143 0.0013821289197191843 -0.033298878750957946 0.0 0.0
0.0 0.05180463165443605 -0.04209501810958844 0.04049907511729845 0.001595942992290004 -0.02992298217885405 0.0 0.0
0.0 0.051804631654440575 -0.04209501810958619 0.04049907511729613 0.0015959429922900502 0.02992298217889167 0.0 0.0
0.0 0.06155658917867436 -0.05042555258532411 0.04904342366560508 0.0013821289197190145 0.03329887875100555 0.0 0.0
0.0 0.0610232783950059 -0.05028650340346724 0.049041678511703934 0.0012448248917632677 0.031084886457428722 0.0 0.0
0.0 0.05547304983795169 -0.04594385167606345 0.04479749825059896 0.0011463534254644828 0.026745413983613905 0.0 0.0
0.0 0.04798665294302697 -0.039827369032143296 0.03876401735769176 0.0010633516744515212 0.02254607769272487 0.0 0.0
0.0 0.040145846324234194 -0.03333387759836041 0.03234221941803152 0.0009916581803288704 0.01923052245854754 0.0 0.0
0.0 0.03279563578600363 -0.027170359296185182 0.026242474765026565 0.0009278845311586168 0.01660617979719017 0.0 0.0
0.0 0.02620203928210247 -0.02159549905039523 0.02072811264628326 0.0008673864041119685 0.014259432109600956 0.0 0.0
0.0 0.02025268848969662 -0.016618999514151484 0.015813643339449745 0.0008053561747017337 0.011942969215428822 0.0 0.0
0.0 0.01491625096338766 -0.012160880413286513 0.011425851378077364 0.0007350290352091454 0.009539293436752529 0.0 0.0
0.0 0.010159324854898929 -0.008194496841855376 0.007547062080468878 0.0006474347613864948 0.007019394301979381 0.0 0.0
0.0 0.006111774797449317 -0.004812928905804156 0.004297038899474461 0.0005158900063296969 0.004573665228893592 0.0 0.0
0.0 0.002977060015521376 -0.00225192235707539 0.0019261587950413898 0.00032576356203399955 0.002512025408302178 0.0 0.0
0.0 0.0010352543697886856 -0.0007135829181080498 0.0005859800509870417 0.0001276028671210079 0.00102746001939248 0.0 0.0
0.0 0.00022549777505871573 -0.00012662394792359454 0.00010200644960894727 2.4617498314647316e-05 0.00024957904195648423 0.0 0.0
0.0 4.321170232231587e-05 -1.5916402644154795e-05 1.2951140529334978e-05 2.965262114819767e-06 4.089581880753074e-05 0.0 0.0
0.0 9.67890000667548e-06 -1.8019866259353801e-06 1.493858195097617e-06 3.08128430837755e-07 5.9931761685124986e-06 0.0 0.0
0.0 2.097264953409312e-06 8.83659584261996e-08 -7.060413057169412e-08 -1.7761827854507373e-08 -4.0752168293768845e-07 0.0 0.0
0.0 1.1426115247963744e-07 2.288734890412389e-09 -1.5997618390303778e-09 -6.889730513817681e-10 -2.247828462369251e-08 0.0 0.0
0.0 0.0 0.0 0.0 0.0 0.0 0.0 0.0
0.0 0.0 0.0 0.0 0.0 0.0 0.0 0.0
0.0 0.0 0.0 0.0 0.0 0.0 0.0 0.0
0.0 6.301117771691601e-07 3.177133557320747e-08 -2.5610055499987776e-08 -6.161280073216576e-09 1.139376708674144e-07 0.0 0.0
0.0 9.444072103576984e-06 -2.730239744794876e-07 2.181909051886287e-07 5.4833069290870066e-08 -5.420964360336548e-07 0.0 0.0
0.0 6.781402960956708e-05 -2.607701344516676e-05 2.103794931581928e-05 5.039064129347478e-06 -4.683939023564929e-05 0.0 0.0
0.0 0.00043643114649837857 -0.00030284888424765897 0.000245298543806789 5.755034044086981e-05 -0.0004002820900065635 0.0 0.0
0.0 0.0017992282618240914 -0.0013793119778156902 0.0011544173065201999 0.00022489467129549 -0.0013515630415295815 0.0 0.0
0.0 0.004511210843860594 -0.0036451743464101932 0.0031991524272192984 0.00044602191919089495 -0.0029561419022034194 0.0 0.0
0.0 0.008533944353867885 -0.0070669213249714286 0.006451745931866315 0.0006151753931051132 -0.005151035881609856 0.0 0.0
0.0 0.013668208174999955 -0.011410666251085843 0.010684310590382535 0.0007263556607033088 -0.007657188949818256 0.0 0.0
0.0 0.019687015436561747 -0.01649067358173293 0.01568024282898302 0.0008104307527499067 -0.010189850616744642 0.0 0.0
0.0 0.026475872038525715 -0.022228243533414946 0.021344179377876693 0.0008840641555382589 -0.012627425251491613 0.0 0.0
0.0 0.03404171542251683 -0.028650018741515418 0.027697441879990996 0.0009525768615244029 -0.014990844262218795 0.0 0.0
0.0 0.04250455394860797 -0.035848880053895554 0.034829802641240734 0.0010190774126548042 -0.017371928631833497 0.0 0.0
0.0 0.05197159652790212 -0.043859383054293016 0.04276948754915286 0.0010898955051401606 -0.020032979325744577 0.0 0.0
0.0 0.06193720632290573 -0.05240889946510095 0.05123433699673639 0.001174562468364553 -0.023417129930819316 0.0 0.0
0.0 0.0718171104014743 -0.060564782812977586 0.059285159172141035 0.0012796236408365582 -0.0277969889899896 0.0 0.0
0.0 0.07905178965550824 -0.06641375698529864 0.06500426731581462 0.0014094896694840176 -0.03255824071916581 0.0 0.0
0.0 0.07976225788835654 -0.06674550271743857 0.06517350914725084 0.0015719935701877085 -0.03558930743758243 0.0 0.0
0.0 0.0683694713231241 -0.056721607893623 0.05495355099545656 0.0017680568981664367 -0.03444616123508927 0.0 0.0
0.0 0.06836947132312539 -0.05672160789361847 0.05495355099545181 0.001768056898166652 0.03444616123512878 0.0 0.0
0.0 0.07976225788834772 -0.06674550271742423 0.06517350914723688 0.0015719935701873425 0.035589307437631945 0.0 0.0
0.0 0.07905178965548382 -0.06641375698527263 0.0650042673157889 0.0014094896694837402 0.03255824071920226 0.0 0.0
0.0 0.07181711040143252 -0.06056478281293991 0.059285159172102884 0.001279623640836974 0.027796988989998127 0.0 0.0
0.0 0.06193720632285663 -0.05240889946505857 0.051234336996693844 0.0011745624683647056 0.02341712993081032 0.0 0.0
0.0 0.051971596527853284 -0.04385938305425102 0.042769487549111036 0.001089895505140012 0.020032979325732815 0.0 0.0
0.0 0.04250455394855994 -0.035848880053854434 0.03482980264119995 0.0010190774126544858 0.017371928631818325 0.0 0.0
0.0 0.03404171542246875 -0.028650018741473885 0.027697441879949835 0.0009525768615240419 0.014990844262206263 0.0 0.0
0.0 0.026475872038478006 -0.02222824353337434 0.021344179377836354 0.0008840641555379821 0.012627425251473444 0.0 0.0
0.0 0.01968701543651867 -0.016490673581696997 0.015680242828947505 0.0008104307527494923 0.010189850616722392 0.0 0.0
0.0 0.013668208174961838 -0.011410666251054137 0.0106843105903514 0.0007263556607027466 0.007657188949795229 0.0 0.0
0.0 0.008533944353839982 -0.007066921324948119 0.006451745931843704 0.000615175393104419 0.0051510358815953505 0.0 0.0
0.0 0.004511210843840674 -0.0036451743463938053 0.0031991524272040233 0.00044602191918978316 0.0029561419021923996 0.0 0.0
0.0 0.0017992282618121665 -0.0013793119778066371 0.001154417306512339 0.00022489467129429812 0.0013515630415216059 0.0 0.0
0.0 0.00043643114649395784 -0.00030284888424515316 0.00024529854380473044 5.755034044042276e-05 0.0004002820900034438 0.0 0.0
0.0 6.781402960891098e-05 -2.6077013445504084e-05 2.103794931608245e-05 5.0390641294215306e-06 4.6839390236205055e-05 0.0 0.0
0.0 9.4440721029322e-06 -2.730239746056505e-07 2.1819090528905187e-07 5.48330693166094e-08 5.420964363348638e-07 0.0 0.0
0.0 6.301117768796378e-07 3.177133555832444e-08 -2.5610055487985994e-08 -6.161280070339225e-09 -1.1393767081387647e-07 0.0 0.0
0.0 0.0 0.0 0.0 0.0 0.0 0.0 0.0
0.0 0.0 0.0 0.0 0.0 0.0 0.0 0.0
0.0 0.0 0.0 0.0 0.0 0.0 0.0 0.0
0.0 0.0 0.0 0.0 0.0 0.0 0.0 0.0
0.0 9.159772724021529e-07 5.630253744311479e-08 -4.536700834069255e-08 -1.0935529102421052e-08 1.5681455061216043e-07 0.0 0.0
0.0 6.658842226128847e-06 -1.7547469608196784e-06 1.4089798885102407e-06 3.457670723094794e-07 -3.2204001014586336e-06 0.0 0.0
0.0 0.00011086206659863043 -6.536463370959625e-05 5.247632248031893e-05 1.2888311229277353e-05 -8.449588779699552e-05 0.0 0.0
0.0 0.0008084817690263582 -0.0006088417317389229 0.0004974174922321952 0.000111424239506728 -0.0005480306395566649 0.0 0.0
0.0 0.0027958627995809254 -0.002235339636657053 0.001909488588732119 0.0003258510479249337 -0.001543351043344342 0.0 0.0
0.0 0.006144339579830976 -0.0052132556422022774 0.0046727854145789845 0.0005404702276232934 -0.003159651658240865 0.0 0.0
0.0 0.01104837805497166 -0.009425495333387147 0.008741933336513045 0.0006835619968741037 -0.00528312525214304 0.0 0.0
0.0 0.017252360929702355 -0.014697424850909326 0.013911704960391971 0.0007857198905173637 -0.007656222012724847 0.0 0.0
0.0 0.024531302101141492 -0.02088575681618282 0.0200137408357893 0.0008720159803935063 -0.010081713264444398 0.0 0.0
0.0 0.03275482544291729 -0.027909568692823097 0.02695771485933946 0.0009518538334836157 -0.012418484691058907 0.0 0.0
0.0 0.04201529886683575 -0.035787114025580574 0.03475889013798919 0.0010282238875913895 -0.014698580375415682 0.0 0.0
0.0 0.05222195100474434 -0.04461061290128401 0.043508616138172196 0.0011019967631118147 -0.017012705180498067 0.0 0.0
0.0 0.06367362887014706 -0.05442845519355858 0.05324907410911562 0.001179381084442954 -0.019478088437745494 0.0 0.0
0.0 0.07607695159216317 -0.0649647535625136 0.06368896190386225 0.001275791658651352 -0.02245979267313712 0.0 0.0
0.0 0.08786524013061425 -0.07510436924165824 0.07370173287404025 0.0014026363676179526 -0.026480981670887957 0.0 0.0
0.0 0.0965726258177748 -0.08240657748920578 0.08084546154142376 0.0015611159477819721 -0.03140346712100041 0.0 0.0
0.0 0.09767928881131623 -0.08295642276753015 0.0812173333536401 0.00173908941389 -0.0359379472546861 0.0 0.0
0.0 0.0853106617113063 -0.07146685677882694 0.06954273960332306 0.0019241171755038618 -0.03871349575066058 0.0 0.0
0.0 0.0853106617113075 -0.07146685677882245 0.06954273960331908 0.0019241171755033273 0.03871349575070142 0.0 0.0
0.0 0.0976792888113028 -0.08295642276751296 0.08121733335362331 0.0017390894138895664 0.03593794725473545 0.0 0.0
0.0 0.09657262581774567 -0.08240657748917649 0.08084546154139519 0.0015611159477812507 0.03140346712103698 0.0 0.0
0.0 0.08786524013056751 -0.07510436924161626 0.07370173287399866 0.0014026363676175547 0.026480981670897744 0.0 0.0
0.0 0.07607695159210882 -0.06496475356246605 0.06368896190381561 0.001275791658650411 0.022459792673131803 0.0 0.0
0.0 0.06367362887008765 -0.054428455193506864 0.05324907410906446 0.0011793810844424064 0.019478088437737635 0.0 0.0
0.0 0.05222195100468589 -0.04461061290123348 0.04350861613812214 0.0011019967631113216 0.017012705180485102 0.0 0.0
0.0 0.042015298866780904 -0.035787114025532626 0.03475889013794224 0.0010282238875903749 0.014698580375403069 0.0 0.0
0.0 0.03275482544286008 -0.02790956869277364 0.02695771485929043 0.0009518538334831997 0.012418484691042592 0.0 0.0
0.0 0.024531302101087463 -0.020885756816137035 0.02001374083574383 0.0008720159803932039 0.01008171326442139 0.0 0.0
0.0 0.01725236092965861 -0.014697424850872364 0.013911704960355584 0.0007857198905167717 0.007656222012703504 0.0 0.0
0.0 0.011048378054940064 -0.009425495333359865 0.008741933336486594 0.0006835619968732695 0.005283125252129655 0.0 0.0
0.0 0.006144339579808615 -0.005213255642183117 0.0046727854145609 0.0005404702276222164 0.003159651658230409 0.0 0.0
0.0 0.002795862799567597 -0.002235339636646249 0.0019094885887225325 0.0003258510479237166 0.001543351043337636 0.0 0.0
0.0 0.0008084817690197945 -0.0006088417317343425 0.0004974174922283607 0.00011142423950598161 0.000548030639552656 0.0 0.0
0.0 0.00011086206659714568 -6.536463370933191e-05 5.247632248009159e-05 1.2888311229240323e-05 8.449588779661974e-05 0.0 0.0
0.0 6.658842225914687e-06 -1.7547469610788366e-06 1.4089798887184155e-06 3.457670723603986e-07 3.220400101950017e-06 0.0 0.0
0.0 9.159772720464821e-07 5.630253742091469e-08 -4.5367008322703315e-08 -1.0935529098212496e-08 -1.5681455054918204e-07 0.0 0.0
0.0 0.0 0.0 0.0 0.0 0.0 0.0 0.0
0.0 0.0 0.0 0.0 0.0 0.0 0.0 0.0
0.0 0.0 0.0 0.0 0.0 0.0 0.0 0.0
0.0 0.0 0.0 0.0 0.0 0.0 0.0 0.0
0.0 0.0 0.0 0.0 0.0 0.0 0.0 0.0
0.0 5.867055018582557e-06 -2.118527758977938e-06 1.6757432559397701e-06 4.427845030381872e-07 -2.8433877162160257e-06 0.0 0.0
0.0 0.0002085049900675479 -0.00014329676607407256 0.0001151833453069328 2.8113420767139847e-05 -0.00012960888095431915 0.0 0.0
0.0 0.0013466121152742618 -0.0010527536344327034 0.0008716874067804113 0.0001810662276522925 -0.0006426784053013521 0.0 0.0
0.0 0.0037636841993709718 -0.003262623413714386 0.002842581572940216 0.00042004184077417187 -0.0016063650678138067 0.0 0.0
0.0 0.007885723872525601 -0.006874492960582319 0.006266095501342347 0.0006083974592399706 -0.0030676351992097606 0.0 0.0
0.0 0.013670364179685614 -0.011830204762954887 0.011095689143641198 0.0007345156193136834 -0.00493334997379534 0.0 0.0
0.0 0.02089059745482838 -0.018022196492069556 0.017187977324971584 0.0008342191670979819 -0.00705821612642967 0.0 0.0
0.0 0.029403830566618366 -0.025314408957507962 0.024389461003289273 0.0009249479542186785 -0.00923213288695876 0.0 0.0
0.0 0.03909935049432537 -0.03363057749787343 0.032618228987678716 0.001012348510194699 -0.011333207945925971 0.0 0.0
0.0 0.04996551062154785 -0.042979598622945994 0.04188240762236537 0.0010971910005806015 -0.013412050321560913 0.0 0.0
0.0 0.06211395389263937 -0.05342097695319946 0.05224037738369976 0.0011805995694996953 -0.015514388490579368 0.0 0.0
0.0 0.07552244601401323 -0.0649715819990402 0.06370605613731053 0.0012655258617296544 -0.017628249127847787 0.0 0.0
0.0 0.08966823020896644 -0.07735340770804358 0.07598533069186761 0.00136807701617595 -0.01986486589756303 0.0 0.0
0.0 0.10362435925052058 -0.08937067876219079 0.08785795282748404 0.0015127259347067312 -0.022878337187530615 0.0 0.0
0.0 0.11404152194107892 -0.09819454997347957 0.09649843045945872 0.0016961195140208375 -0.02763612420007173 0.0 0.0
0.0 0.11582836982918229 -0.0992637402400629 0.09737036547589754 0.0018933747641653063 -0.034399994550893764 0.0 0.0
0.0 0.10270584508239518 -0.0866831515232414 0.08460539017154686 0.0020777613516944544 -0.042737520682010074 0.0 0.0
0.0 0.10270584508239253 -0.08668315152323441 0.08460539017153972 0.0020777613516947163 0.04273752068204892 0.0 0.0
0.0 0.11582836982915991 -0.09926374024003944 0.09737036547587424 0.0018933747641652118 0.034399994550938555 0.0 0.0
0.0 0.11404152194103803 -0.09819454997344165 0.09649843045942097 0.0016961195140206035 0.02763612420010436 0.0 0.0
0.0 0.103624359250465 -0.08937067876214169 0.0878579528274355 0.0015127259347061791 0.022878337187538074 0.0 0.0
0.0 0.08966823020890449 -0.07735340770798954 0.07598533069181417 0.0013680770161753272 0.01986486589756005 0.0 0.0
0.0 0.0755224460139483 -0.06497158199898373 0.06370605613725462 0.0012655258617291364 0.01762824912784165 0.0 0.0
0.0 0.06211395389257619 -0.0534209769531445 0.05224037738364591 0.0011805995694985343 0.015514388490570075 0.0 0.0
0.0 0.04996551062148448 -0.0429795986228909 0.0418824076223112 0.0010971910005797157 0.013412050321549289 0.0 0.0
0.0 0.03909935049426214 -0.03363057749781824 0.03261822898762445 0.0010123485101938255 0.011333207945912627 0.0 0.0
0.0 0.029403830566558386 -0.025314408957456076 0.024389461003238133 0.0009249479542179336 0.009232132886938428 0.0 0.0
0.0 0.02089059745477697 -0.01802219649202532 0.017187977324927745 0.0008342191670975619 0.0070582161264102685 0.0 0.0
0.0 0.013670364179646786 -0.011830204762921001 0.011095689143607843 0.000734515619313152 0.004933349973782869 0.0 0.0
0.0 0.007885723872495538 -0.00687449296055602 0.00626609550131686 0.0006083974592391604 0.0030676351991989863 0.0 0.0
0.0 0.0037636841993526314 -0.0032626234136985347 0.002842581572925597 0.0004200418407729384 0.001606365067806526 0.0 0.0
0.0 0.0013466121152639903 -0.001052753634424853 0.0008716874067736784 0.00018106622765117422 0.0006426784052968751 0.0 0.0
0.0 0.00020850499006460957 -0.00014329676607259458 0.00011518334530572821 2.8113420766866214e-05 0.00012960888095311023 0.0 0.0
0.0 5.867055018263713e-06 -2.118527759322796e-06 1.6757432562067223e-06 4.4278450311608573e-07 2.8433877166544846e-06 0.0 0.0
0.0 0.0 0.0 0.0 0.0 0.0 0.0 0.0
0.0 0.0 0.0 0.0 0.0 0.0 0.0 0.0
0.0 0.0 0.0 0.0 0.0 0.0 0.0 0.0
0.0 0.0 0.0 0.0 0.0 0.0 0.0 0.0
0.0 0.0 0.0 0.0 0.0 0.0 0.0 0.0
0.0 0.0 0.0 0.0 0.0 0.0 0.0 0.0
0.0 8.510884822119214e-06 -4.14945806403978e-06 3.302501440542021e-06 8.469566234977494e-07 -4.050569421050597e-06 0.0 0.0
0.0 0.0004024468098851296 -0.0002937996517144817 0.00023661150740779234 5.7188144306689315e-05 -0.0001697233992387232 0.0 0.0
0.0 0.0019865485592842074 -0.0016383672492082946 0.0013768728091434657 0.0002614944400648291 -0.0006566572059033585 0.0 0.0
0.0 0.004918760315894511 -0.0043817605790287826 0.0038840745879409953 0.0004976859910877864 -0.0014519766526407255 0.0 0.0
0.0 0.009741159620304777 -0.008573262883792176 0.007914795460782978 0.0006584674230091998 -0.002621643605965889 0.0 0.0
0.0 0.016331284265916204 -0.01425727626449871 0.013482627842856917 0.0007746484216417844 -0.004138573068873496 0.0 0.0
0.0 0.024566297499588014 -0.021355624198769504 0.02048039381083658 0.0008752303879329225 -0.005877319193926073 0.0 0.0
0.0 0.034327212415652515 -0.029748275600739255 0.028776427262100317 0.0009718483386389287 -0.007663357336586565 0.0 0.0
0.0 0.0454396781990056 -0.03936348748366575 0.03829658601033142 0.0010669014733343083 -0.009387015777292071 0.0 0.0
0.0 0.05806820363899977 -0.05019491072181087 0.049033788362300414 0.0011611223595104263 -0.011102517466783713 0.0 0.0
0.0 0.07189270454091046 -0.062256671124100424 0.06100124623127258 0.001255424892827864 -0.012885197351075843 0.0 0.0
0.0 0.08708317788625121 -0.07546258694261257 0.07411138724128682 0.0013511997013257735 -0.014580760507259793 0.0 0.0
0.0 0.1032135148260438 -0.08945946585632886 0.08800192538387358 0.0014575404724552397 -0.015885153664998892 0.0 0.0
0.0 0.11897584353457014 -0.10314414188506563 0.10154334258273501 0.001600799302330587 -0.017278471377184156 0.0 0.0
0.0 0.13124479486886698 -0.11368633706523912 0.11187496822751225 0.001811368837726795 -0.02122722085917528 0.0 0.0
0.0 0.13432100214221065 -0.1158549381042688 0.11381634711785157 0.0020385909864172732 -0.030568420140493373 0.0 0.0
0.0 0.12121875997030315 -0.10277121816555962 0.10052914383716852 0.002242074328391075 -0.04622630164384117 0.0 0.0
0.0 0.12121875997029508 -0.10277121816554924 0.10052914383715816 0.002242074328391134 0.046226301643870746 0.0 0.0
0.0 0.13432100214217887 -0.11585493810423882 0.11381634711782145 0.002038590986417369 0.030568420140531443 0.0 0.0
0.0 0.1312447948688157 -0.11368633706519322 0.11187496822746651 0.0018113688377266485 0.021227220859203692 0.0 0.0
0.0 0.11897584353450348 -0.1031441418850076 0.10154334258267708 0.001600799302330579 0.01727847137719042 0.0 0.0
0.0 0.10321351482597067 -0.08945946585626519 0.08800192538381071 0.0014575404724544818 0.015885153664997244 0.0 0.0
0.0 0.0870831778861776 -0.07546258694254802 0.07411138724122385 0.0013511997013242103 0.014580760507257064 0.0 0.0
0.0 0.07189270454083474 -0.06225667112403452 0.06100124623120754 0.001255424892826962 0.012885197351068967 0.0 0.0
0.0 0.05806820363892327 -0.05019491072174439 0.049033788362234584 0.0011611223595098257 0.011102517466774264 0.0 0.0
0.0 0.04543967819893134 -0.03936348748360126 0.0382965860102676 0.0010669014733336593 0.009387015777282974 0.0 0.0
0.0 0.03432721241558755 -0.02974827560068254 0.02877642726204437 0.0009718483386381745 0.0076633573365707565 0.0 0.0
0.0 0.024566297499530324 -0.02135562419871937 0.020480393810786833 0.0008752303879325427 0.005877319193909575 0.0 0.0
0.0 0.016331284265872884 -0.014257276264460684 0.0134826278428195 0.0007746484216411879 0.004138573068862866 0.0 0.0
0.0 0.009741159620273422 -0.008573262883764383 0.007914795460755953 0.0006584674230084314 0.0026216436059573038 0.0 0.0
0.0 0.004918760315874847 -0.004381760579011225 0.0038840745879244543 0.0004976859910867719 0.0014519766526345395 0.0 0.0
0.0 0.0019865485592734785 -0.0016383672491993846 0.0013768728091356705 0.0002614944400637133 0.0006566572058998387 0.0 0.0
0.0 0.0004024468098812707 -0.0002937996517120144 0.00023661150740577757 5.7188144306237e-05 0.00016972339923746675 0.0 0.0
0.0 8.51088482178138e-06 -4.149458064465436e-06 3.3025014408700077e-06 8.469566235954356e-07 4.050569421421566e-06 0.0 0.0
0.0 0.0 0.0 0.0 0.0 0.0 0.0 0.0
0.0 0.0 0.0 0.0 0.0 0.0 0.0 0.0
0.0 0.0 0.0 0.0 0.0 0.0 0.0 0.0
0.0 0.0 0.0 0.0 0.0 0.0 0.0 0.0
0.0 0.0 0.0 0.0 0.0 0.0 0.0 0.0
0.0 0.0 0.0 0.0 0.0 0.0 0.0 0.0
0.0 2.018429865764264e-05 -1.047275691875946e-05 8.361779982434506e-06 2.1109769363249883e-06 -6.536995618479212e-06 0.0 0.0
0.0 0.000726602349300924 -0.0005436349201385367 0.00044167505642658627 0.00010195986371195056 -0.00017979857440118566 0.0 0.0
0.0 0.002580759402541064 -0.002350981135908754 0.0020058607408603942 0.0003451203950483588 -0.0005372163180280175 0.0 0.0
0.0 0.0061943198387339835 -0.005546089064146052 0.004990182488521112 0.0005559065756249406 -0.0010743971150091614 0.0 0.0
0.0 0.011635626488012118 -0.01029167036932733 0.009594320327386996 0.0006973500419403412 -0.0018626093749557794 0.0 0.0
0.0 0.019012803694671288 -0.016680476615874365 0.015873569898735014 0.0008069067171393537 -0.002906179416176811 0.0 0.0
0.0 0.028250673639123612 -0.024671360410265436 0.023760998244648862 0.0009103621656165713 -0.0041221608073278345 0.0 0.0
0.0 0.03923867457867881 -0.03416228217632848 0.03314858521291525 0.0010136969634132551 -0.005372099852372788 0.0 0.0
0.0 0.051936606501909344 -0.045080761085157885 0.04396390203428496 0.0011168590508729 -0.006579718982975245 0.0 0.0
0.0 0.06602584723036994 -0.05740584736535158 0.05618519192878273 0.0012206554365688435 -0.007814615672248504 0.0 0.0
0.0 0.08173610177468395 -0.07107843316215416 0.06975183297636692 0.0013266001857871964 -0.009088552309615984 0.0 0.0
0.0 0.0988065953755432 -0.08588149676341644 0.08444532921497683 0.0014361675484395819 -0.010224887612165091 0.0 0.0
0.0 0.11654673694779005 -0.10129271554001182 0.09974229494175718 0.0015504205982546325 -0.010807706154992963 0.0 0.0
0.0 0.1337386184514509 -0.11625212967573725 0.11457163291964417 0.001680496756093152 -0.010625923184516143 0.0 0.0
0.0 0.14786000035806407 -0.12849178825517962 0.1266244706136147 0.0018673176415649063 -0.012114870751939733 0.0 0.0
0.0 0.15337318760059082 -0.13285908657323886 0.13067361343427286 0.002185473138965947 -0.02301917531811947 0.0 0.0
0.0 0.1413676103608259 -0.12034541326946208 0.11791070907916637 0.0024347041902956796 -0.04842793373931908 0.0 0.0
0.0 0.1413676103608168 -0.1203454132694518 0.11791070907915663 0.002434704190295161 0.048427933739340526 0.0 0.0
0.0 0.15337318760055607 -0.132859086573207 0.13067361343424194 0.0021854731389650247 0.02301917531814908 0.0 0.0
0.0 0.14786000035800667 -0.12849178825512908 0.1266244706135649 0.001867317641564154 0.012114870751960449 0.0 0.0
0.0 0.13373861845138005 -0.11625212967567525 0.11457163291958329 0.0016804967560919617 0.01062592318451933 0.0 0.0
0.0 0.11654673694771062 -0.1012927155399425 0.09974229494168917 0.0015504205982533263 0.010807706154991624 0.0 0.0
0.0 0.09880659537545665 -0.08588149676334116 0.08444532921490232 0.001436167548438847 0.010224887612163221 0.0 0.0
0.0 0.08173610177459759 -0.07107843316207928 0.06975183297629259 0.0013266001857866823 0.009088552309611905 0.0 0.0
0.0 0.06602584723028435 -0.05740584736527711 0.05618519192870929 0.00122065543656783 0.007814615672241053 0.0 0.0
0.0 0.051936606501825855 -0.045080761085084936 0.04396390203421302 0.0011168590508719067 0.006579718982969031 0.0 0.0
0.0 0.03923867457860385 -0.034162282176263235 0.033148585212850856 0.0010136969634123656 0.005372099852361077 0.0 0.0
0.0 0.028250673639061027 -0.024671360410210837 0.02376099824459493 0.0009103621656159205 0.004122160807316178 0.0 0.0
0.0 0.019012803694623073 -0.01668047661583162 0.015873569898692978 0.000806906717138639 0.0029061794161704462 0.0 0.0
0.0 0.011635626487975911 -0.010291670369295146 0.009594320327355523 0.0006973500419396152 0.0018626093749500635 0.0 0.0
0.0 0.006194319838710631 -0.005546089064124915 0.004990182488500896 0.0005559065756240164 0.0010743971150048723 0.0 0.0
0.0 0.0025807594025286694 -0.0023509811358974333 0.002005860740850222 0.00034512039504721285 0.0005372163180254166 0.0 0.0
0.0 0.0007266023492951177 -0.0005436349201342608 0.00044167505642300834 0.00010195986371125209 0.00017979857439989625 0.0 0.0
0.0 2.0184298657365923e-05 -1.0472756919401676e-05 8.361779982923738e-06 2.1109769364778926e-06 6.5369956187806275e-06 0.0 0.0
0.0 0.0 0.0 0.0 0.0 0.0 0.0 0.0
0.0 0.0 0.0 0.0 0.0 0.0 0.0 0.0
0.0 0.0 0.0 0.0 0.0 0.0 0.0 0.0
0.0 0.0 0.0 0.0 0.0 0.0 0.0 0.0
0.0 0.0 0.0 0.0 0.0 0.0 0.0 0.0
0.0 0.0 0.0 0.0 0.0 0.0 0.0 0.0
0.0 6.797251761608822e-05 -4.943699117234461e-05 3.90656412510645e-05 1.0371349921280241e-05 -1.3010508826664812e-05 0.0 0.0
0.0 0.0011916185229037472 -0.0008955223979342168 0.0007346616230728699 0.00016086077486134637 -0.0001165990270158029 0.0 0.0
0.0 0.0034179917209632028 -0.0031136812906440757 0.0026963737735479793 0.0004173075170960973 -0.0002567679428722618 0.0 0.0
0.0 0.0075161914222553194 -0.006737565238050746 0.006136306957261469 0.0006012582807892752 -0.0004750451157935613 0.0 0.0
0.0 0.013568838714112283 -0.012005901221202358 0.011278463393370328 0.0007274378278320252 -0.0007942380192516344 0.0 0.0
0.0 0.02171878064761712 -0.01907442297791645 0.01824065800409606 0.0008337649738203825 -0.0012446023856064847 0.0 0.0
0.0 0.031973032147462326 -0.027942056675345595 0.02700132948613724 0.0009407271892083549 -0.001791593267826025 0.0 0.0
0.0 0.04426457291921762 -0.03853138025809132 0.037480543404897315 0.001050836853194004 -0.002361604954582418 0.0 0.0
0.0 0.058219324743282085 -0.050765975787217685 0.049603009076642834 0.00116296671057483 -0.0029333375442423663 0.0 0.0
0.0 0.07406199805779795 -0.0645731071809524 0.06329671542701426 0.0012763917539381354 -0.0035127423242149428 0.0 0.0
0.0 0.09164953079478622 -0.07983271110018239 0.07843908967116212 0.0013936214290202445 -0.004076508503187833 0.0 0.0
0.0 0.11052347004276854 -0.09620865576683839 0.0946915313159719 0.0015171244508665033 -0.004526006966931739 0.0 0.0
0.0 0.1298448101845876 -0.11295491008942285 0.11130915667555151 0.0016457534138712856 -0.004583711353226069 0.0 0.0
0.0 0.14813945280919685 -0.12882273794886723 0.12704843914199135 0.0017742988068758293 -0.0038279293054000515 0.0 0.0
0.0 0.16327494198843054 -0.14198695569171207 0.14007697581864234 0.001909979873069713 -0.002607559012059995 0.0 0.0
0.0 0.1717509210342251 -0.14920896243979972 0.1470811599883238 0.002127802451475858 -0.008517702587056928 0.0 0.0
0.0 0.16463339285520978 -0.1410910802263038 0.13828799772829942 0.0028030824980043094 -0.0447152397451958 0.0 0.0
0.0 0.16463339285519668 -0.14109108022629183 0.13828799772828732 0.002803082498004431 0.04471523974520439 0.0 0.0
0.0 0.17175092103418527 -0.14920896243976495 0.14708115998828927 0.0021278024514756176 0.008517702587071484 0.0 0.0
0.0 0.1632749419883649 -0.14198695569165493 0.14007697581858597 0.0019099798730689115 0.0026075590120701636 0.0 0.0
0.0 0.14813945280911145 -0.12882273794879312 0.12704843914191777 0.0017742988068753121 0.0038279293053991048 0.0 0.0
0.0 0.1298448101844909 -0.11295491008933949 0.11130915667546762 0.0016457534138718342 0.004583711353225521 0.0 0.0
0.0 0.11052347004267196 -0.09620865576675473 0.09469153131588842 0.0015171244508662275 0.004526006966931565 0.0 0.0
0.0 0.0916495307946933 -0.07983271110010139 0.07843908967108251 0.0013936214290188272 0.004076508503186258 0.0 0.0
0.0 0.07406199805770362 -0.06457310718087034 0.06329671542693316 0.001276391753937136 0.0035127423242120076 0.0 0.0
0.0 0.058219324743190914 -0.05076597578713849 0.04960300907656428 0.0011629667105741886 0.002933337544240001 0.0 0.0
0.0 0.04426457291913508 -0.038531380258019526 0.037480543404826094 0.0010508368531934285 0.002361604954576356 0.0 0.0
0.0 0.03197303214739395 -0.027942056675286205 0.02700132948607858 0.0009407271892076405 0.001791593267820091 0.0 0.0
0.0 0.021718780647563312 -0.019074422977869127 0.018240658004049302 0.0008337649738198221 0.0012446023856044948 0.0 0.0
0.0 0.01356883871407118 -0.012005901221165748 0.011278463393334276 0.0007274378278314638 0.0007942380192489906 0.0 0.0
0.0 0.007516191422227361 -0.006737565238025619 0.006136306957237103 0.0006012582807885128 0.0004750451157918809 0.0 0.0
0.0 0.0034179917209470026 -0.0031136812906290474 0.0026963737735339784 0.00041730751709506794 0.0002567679428707762 0.0 0.0
0.0 0.0011916185228972882 -0.0008955223979293642 0.0007346616230687459 0.000160860774860619 0.0001165990270153676 0.0 0.0
0.0 6.797251761527355e-05 -4.94369911723027e-05 3.906564125101628e-05 1.0371349921286404e-05 1.3010508826601586e-05 0.0 0.0
0.0 0.0 0.0 0.0 0.0 0.0 0.0 0.0
0.0 0.0 0.0 0.0 0.0 0.0 0.0 0.0
0.0 0.0 0.0 0.0 0.0 0.0 0.0 0.0