# vtk DataFile Version 3.0
Some data
ASCII
DATASET UNSTRUCTURED_GRID
POINTS 861 float
0.0 0.0 0.0
0.4 0.0 0.0
0.8 0.0 0.0
1.2000000000000002 0.0 0.0
1.6 0.0 0.0
2.0 0.0 0.0
2.4000000000000004 0.0 0.0
2.8000000000000003 0.0 0.0
3.2 0.0 0.0
3.6 0.0 0.0
4.0 0.0 0.0
4.4 0.0 0.0
4.800000000000001 0.0 0.0
5.2 0.0 0.0
5.6000000000000005 0.0 0.0
6.0 0.0 0.0
6.4 0.0 0.0
6.800000000000001 0.0 0.0
7.2 0.0 0.0
7.6000000000000005 0.0 0.0
8.0 0.0 0.0
8.4 0.0 0.0
8.8 0.0 0.0
9.200000000000001 0.0 0.0
9.600000000000001 0.0 0.0
10.0 0.0 0.0
10.4 0.0 0.0
10.8 0.0 0.0
11.200000000000001 0.0 0.0
11.600000000000001 0.0 0.0
12.0 0.0 0.0
12.4 0.0 0.0
12.8 0.0 0.0
13.200000000000001 0.0 0.0
13.600000000000001 0.0 0.0
14.0 0.0 0.0
14.4 0.0 0.0
14.8 0.0 0.0
15.200000000000001 0.0 0.0
15.600000000000001 0.0 0.0
16.0 0.0 0.0
0.0 0.1 0.0
0.4 0.1 0.0
0.8 0.1 0.0
1.2000000000000002 0.1 0.0
1.6 0.1 0.0
2.0 0.1 0.0
2.4000000000000004 0.1 0.0
2.8000000000000003 0.1 0.0
3.2 0.1 0.0
3.6 0.1 0.0
4.0 0.1 0.0
4.4 0.1 0.0
4.800000000000001 0.1 0.0
5.2 0.1 0.0
5.6000000000000005 0.1 0.0
6.0 0.1 0.0
6.4 0.1 0.0
6.800000000000001 0.1 0.0
7.2 0.1 0.0
7.6000000000000005 0.1 0.0
8.0 0.1 0.0
8.4 0.1 0.0
8.8 0.1 0.0
9.200000000000001 0.1 0.0
9.600000000000001 0.1 0.0
10.0 0.1 0.0
10.4 0.1 0.0
10.8 0.1 0.0
11.200000000000001 0.1 0.0
11.600000000000001 0.1 0.0
12.0 0.1 0.0
12.4 0.1 0.0
12.8 0.1 0.0
13.200000000000001 0.1 0.0
13.600000000000001 0.1 0.0
14.0 0.1 0.0
14.4 0.1 0.0
14.8 0.1 0.0
15.200000000000001 0.1 0.0
15.600000000000001 0.1 0.0
16.0 0.1 0.0
0.0 0.2 0.0
0.4 0.2 0.0
0.8 0.2 0.0
1.2000000000000002 0.2 0.0
1.6 0.2 0.0
2.0 0.2 0.0
2.4000000000000004 0.2 0.0
2.8000000000000003 0.2 0.0
3.2 0.2 0.0
3.6 0.2 0.0
4.0 0.2 0.0
4.4 0.2 0.0
4.800000000000001 0.2 0.0
5.2 0.2 0.0
5.6000000000000005 0.2 0.0
6.0 0.2 0.0
6.4 0.2 0.0
6.800000000000001 0.2 0.0
7.2 0.2 0.0
7.6000000000000005 0.2 0.0
8.0 0.2 0.0
8.4 0.2 0.0
8.8 0.2 0.0
9.200000000000001 0.2 0.0
9.600000000000001 0.2 0.0
10.0 0.2 0.0
10.4 0.2 0.0
10.8 0.2 0.0
11.200000000000001 0.2 0.0
11.600000000000001 0.2 0.0
12.0 0.2 0.0
12.4 0.2 0.0
12.8 0.2 0.0
13.200000000000001 0.2 0.0
13.600000000000001 0.2 0.0
14.0 0.2 0.0
14.4 0.2 0.0
14.8 0.2 0.0
15.200000000000001 0.2 0.0
15.600000000000001 0.2 0.0
16.0 0.2 0.0
0.0 0.30000000000000004 0.0
0.4 0.30000000000000004 0.0
0.8 0.30000000000000004 0.0
1.2000000000000002 0.30000000000000004 0.0
1.6 0.30000000000000004 0.0
2.0 0.30000000000000004 0.0
2.4000000000000004 0.30000000000000004 0.0
2.8000000000000003 0.30000000000000004 0.0
3.2 0.30000000000000004 0.0
3.6 0.30000000000000004 0.0
4.0 0.30000000000000004 0.0
4.4 0.30000000000000004 0.0
4.800000000000001 0.30000000000000004 0.0
5.2 0.30000000000000004 0.0
5.6000000000000005 0.30000000000000004 0.0
6.0 0.30000000000000004 0.0
6.4 0.30000000000000004 0.0
6.800000000000001 0.30000000000000004 0.0
7.2 0.30000000000000004 0.0
7.6000000000000005 0.30000000000000004 0.0
8.0 0.30000000000000004 0.0
8.4 0.30000000000000004 0.0
8.8 0.30000000000000004 0.0
9.200000000000001 0.30000000000000004 0.0
9.600000000000001 0.30000000000000004 0.0
10.0 0.30000000000000004 0.0
10.4 0.30000000000000004 0.0
10.8 0.30000000000000004 0.0
11.200000000000001 0.30000000000000004 0.0
11.600000000000001 0.30000000000000004 0.0
12.0 0.30000000000000004 0.0
12.4 0.30000000000000004 0.0
12.8 0.30000000000000004 0.0
13.200000000000001 0.30000000000000004 0.0
13.600000000000001 0.30000000000000004 0.0
14.0 0.30000000000000004 0.0
14.4 0.30000000000000004 0.0
14.8 0.30000000000000004 0.0
15.200000000000001 0.30000000000000004 0.0
15.600000000000001 0.30000000000000004 0.0
16.0 0.30000000000000004 0.0
0.0 0.4 0.0
0.4 0.4 0.0
0.8 0.4 0.0
1.2000000000000002 0.4 0.0
1.6 0.4 0.0
2.0 0.4 0.0
2.4000000000000004 0.4 0.0
2.8000000000000003 0.4 0.0
3.2 0.4 0.0
3.6 0.4 0.0
4.0 0.4 0.0
4.4 0.4 0.0
4.800000000000001 0.4 0.0
5.2 0.4 0.0
5.6000000000000005 0.4 0.0
6.0 0.4 0.0
6.4 0.4 0.0
6.800000000000001 0.4 0.0
7.2 0.4 0.0
7.6000000000000005 0.4 0.0
8.0 0.4 0.0
8.4 0.4 0.0
8.8 0.4 0.0
9.200000000000001 0.4 0.0
9.600000000000001 0.4 0.0
10.0 0.4 0.0
10.4 0.4 0.0
10.8 0.4 0.0
11.200000000000001 0.4 0.0
11.600000000000001 0.4 0.0
12.0 0.4 0.0
12.4 0.4 0.0
12.8 0.4 0.0
13.200000000000001 0.4 0.0
13.600000000000001 0.4 0.0
14.0 0.4 0.0
14.4 0.4 0.0
14.8 0.4 0.0
15.200000000000001 0.4 0.0
15.600000000000001 0.4 0.0
16.0 0.4 0.0
0.0 0.5 0.0
0.4 0.5 0.0
0.8 0.5 0.0
1.2000000000000002 0.5 0.0
1.6 0.5 0.0
2.0 0.5 0.0
2.4000000000000004 0.5 0.0
2.8000000000000003 0.5 0.0
3.2 0.5 0.0
3.6 0.5 0.0
4.0 0.5 0.0
4.4 0.5 0.0
4.800000000000001 0.5 0.0
5.2 0.5 0.0
5.6000000000000005 0.5 0.0
6.0 0.5 0.0
6.4 0.5 0.0
6.800000000000001 0.5 0.0
7.2 0.5 0.0
7.6000000000000005 0.5 0.0
8.0 0.5 0.0
8.4 0.5 0.0
8.8 0.5 0.0
9.200000000000001 0.5 0.0
9.600000000000001 0.5 0.0
10.0 0.5 0.0
10.4 0.5 0.0
10.8 0.5 0.0
11.200000000000001 0.5 0.0
11.600000000000001 0.5 0.0
12.0 0.5 0.0
12.4 0.5 0.0
12.8 0.5 0.0
13.200000000000001 0.5 0.0
13.600000000000001 0.5 0.0
14.0 0.5 0.0
14.4 0.5 0.0
14.8 0.5 0.0
15.200000000000001 0.5 0.0
15.600000000000001 0.5 0.0
16.0 0.5 0.0
0.0 0.6000000000000001 0.0
0.4 0.6000000000000001 0.0
0.8 0.6000000000000001 0.0
1.2000000000000002 0.6000000000000001 0.0
1.6 0.6000000000000001 0.0
2.0 0.6000000000000001 0.0
2.4000000000000004 0.6000000000000001 0.0
2.8000000000000003 0.6000000000000001 0.0
3.2 0.6000000000000001 0.0
3.6 0.6000000000000001 0.0
4.0 0.6000000000000001 0.0
4.4 0.6000000000000001 0.0
4.800000000000001 0.6000000000000001 0.0
5.2 0.6000000000000001 0.0
5.6000000000000005 0.6000000000000001 0.0
6.0 0.6000000000000001 0.0
6.4 0.6000000000000001 0.0
6.800000000000001 0.6000000000000001 0.0
7.2 0.6000000000000001 0.0
7.6000000000000005 0.6000000000000001 0.0
8.0 0.6000000000000001 0.0
8.4 0.6000000000000001 0.0
8.8 0.6000000000000001 0.0
9.200000000000001 0.6000000000000001 0.0
9.600000000000001 0.6000000000000001 0.0
10.0 0.6000000000000001 0.0
10.4 0.6000000000000001 0.0
10.8 0.6000000000000001 0.0
11.200000000000001 0.6000000000000001 0.0
11.600000000000001 0.6000000000000001 0.0
12.0 0.6000000000000001 0.0
12.4 0.6000000000000001 0.0
12.8 0.6000000000000001 0.0
13.200000000000001 0.6000000000000001 0.0
13.600000000000001 0.6000000000000001 0.0
14.0 0.6000000000000001 0.0
14.4 0.6000000000000001 0.0
14.8 0.6000000000000001 0.0
15.200000000000001 0.6000000000000001 0.0
15.600000000000001 0.6000000000000001 0.0
16.0 0.6000000000000001 0.0
0.0 0.7000000000000001 0.0
0.4 0.7000000000000001 0.0
0.8 0.7000000000000001 0.0
1.2000000000000002 0.7000000000000001 0.0
1.6 0.7000000000000001 0.0
2.0 0.7000000000000001 0.0
2.4000000000000004 0.7000000000000001 0.0
2.8000000000000003 0.7000000000000001 0.0
3.2 0.7000000000000001 0.0
3.6 0.7000000000000001 0.0
4.0 0.7000000000000001 0.0
4.4 0.7000000000000001 0.0
4.800000000000001 0.7000000000000001 0.0
5.2 0.7000000000000001 0.0
5.6000000000000005 0.7000000000000001 0.0
6.0 0.7000000000000001 0.0
6.4 0.7000000000000001 0.0
6.800000000000001 0.7000000000000001 0.0
7.2 0.7000000000000001 0.0
7.6000000000000005 0.7000000000000001 0.0
8.0 0.7000000000000001 0.0
8.4 0.7000000000000001 0.0
8.8 0.7000000000000001 0.0
9.200000000000001 0.7000000000000001 0.0
9.600000000000001 0.7000000000000001 0.0
10.0 0.7000000000000001 0.0
10.4 0.7000000000000001 0.0
10.8 0.7000000000000001 0.0
11.200000000000001 0.7000000000000001 0.0
11.600000000000001 0.7000000000000001 0.0
12.0 0.7000000000000001 0.0
12.4 0.7000000000000001 0.0
12.8 0.7000000000000001 0.0
13.200000000000001 0.7000000000000001 0.0
13.600000000000001 0.7000000000000001 0.0
14.0 0.7000000000000001 0.0
14.4 0.7000000000000001 0.0
14.8 0.7000000000000001 0.0
15.200000000000001 0.7000000000000001 0.0
15.600000000000001 0.7000000000000001 0.0
16.0 0.7000000000000001 0.0
0.0 0.8 0.0
0.4 0.8 0.0
0.8 0.8 0.0
1.2000000000000002 0.8 0.0
1.6 0.8 0.0
2.0 0.8 0.0
2.4000000000000004 0.8 0.0
2.8000000000000003 0.8 0.0
3.2 0.8 0.0
3.6 0.8 0.0
4.0 0.8 0.0
4.4 0.8 0.0
4.800000000000001 0.8 0.0
5.2 0.8 0.0
5.6000000000000005 0.8 0.0
6.0 0.8 0.0
6.4 0.8 0.0
6.800000000000001 0.8 0.0
7.2 0.8 0.0
7.6000000000000005 0.8 0.0
8.0 0.8 0.0
8.4 0.8 0.0
8.8 0.8 0.0
9.200000000000001 0.8 0.0
9.600000000000001 0.8 0.0
10.0 0.8 0.0
10.4 0.8 0.0
10.8 0.8 0.0
11.200000000000001 0.8 0.0
11.600000000000001 0.8 0.0
12.0 0.8 0.0
12.4 0.8 0.0
12.8 0.8 0.0
13.200000000000001 0.8 0.0
13.600000000000001 0.8 0.0
14.0 0.8 0.0
14.4 0.8 0.0
14.8 0.8 0.0
15.200000000000001 0.8 0.0
15.600000000000001 0.8 0.0
16.0 0.8 0.0
0.0 0.9 0.0
0.4 0.9 0.0
0.8 0.9 0.0
1.2000000000000002 0.9 0.0
1.6 0.9 0.0
2.0 0.9 0.0
2.4000000000000004 0.9 0.0
2.8000000000000003 0.9 0.0
3.2 0.9 0.0
3.6 0.9 0.0
4.0 0.9 0.0
4.4 0.9 0.0
4.800000000000001 0.9 0.0
5.2 0.9 0.0
5.6000000000000005 0.9 0.0
6.0 0.9 0.0
6.4 0.9 0.0
6.800000000000001 0.9 0.0
7.2 0.9 0.0
7.6000000000000005 0.9 0.0
8.0 0.9 0.0
8.4 0.9 0.0
8.8 0.9 0.0
9.200000000000001 0.9 0.0
9.600000000000001 0.9 0.0
10.0 0.9 0.0
10.4 0.9 0.0
10.8 0.9 0.0
11.200000000000001 0.9 0.0
11.600000000000001 0.9 0.0
12.0 0.9 0.0
12.4 0.9 0.0
12.8 0.9 0.0
13.200000000000001 0.9 0.0
13.600000000000001 0.9 0.0
14.0 0.9 0.0
14.4 0.9 0.0
14.8 0.9 0.0
15.200000000000001 0.9 0.0
15.600000000000001 0.9 0.0
16.0 0.9 0.0
0.0 1.0 0.0
0.4 1.0 0.0
0.8 1.0 0.0
1.2000000000000002 1.0 0.0
1.6 1.0 0.0
2.0 1.0 0.0
2.4000000000000004 1.0 0.0
2.8000000000000003 1.0 0.0
3.2 1.0 0.0
3.6 1.0 0.0
4.0 1.0 0.0
4.4 1.0 0.0
4.800000000000001 1.0 0.0
5.2 1.0 0.0
5.6000000000000005 1.0 0.0
6.0 1.0 0.0
6.4 1.0 0.0
6.800000000000001 1.0 0.0
7.2 1.0 0.0
7.6000000000000005 1.0 0.0
8.0 1.0 0.0
8.4 1.0 0.0
8.8 1.0 0.0
9.200000000000001 1.0 0.0
9.600000000000001 1.0 0.0
10.0 1.0 0.0
10.4 1.0 0.0
10.8 1.0 0.0
11.200000000000001 1.0 0.0
11.600000000000001 1.0 0.0
12.0 1.0 0.0
12.4 1.0 0.0
12.8 1.0 0.0
13.200000000000001 1.0 0.0
13.600000000000001 1.0 0.0
14.0 1.0 0.0
14.4 1.0 0.0
14.8 1.0 0.0
15.200000000000001 1.0 0.0
15.600000000000001 1.0 0.0
16.0 1.0 0.0
0.0 1.1 0.0
0.4 1.1 0.0
0.8 1.1 0.0
1.2000000000000002 1.1 0.0
1.6 1.1 0.0
2.0 1.1 0.0
2.4000000000000004 1.1 0.0
2.8000000000000003 1.1 0.0
3.2 1.1 0.0
3.6 1.1 0.0
4.0 1.1 0.0
4.4 1.1 0.0
4.800000000000001 1.1 0.0
5.2 1.1 0.0
5.6000000000000005 1.1 0.0
6.0 1.1 0.0
6.4 1.1 0.0
6.800000000000001 1.1 0.0
7.2 1.1 0.0
7.6000000000000005 1.1 0.0
8.0 1.1 0.0
8.4 1.1 0.0
8.8 1.1 0.0
9.200000000000001 1.1 0.0
9.600000000000001 1.1 0.0
10.0 1.1 0.0
10.4 1.1 0.0
10.8 1.1 0.0
11.200000000000001 1.1 0.0
11.600000000000001 1.1 0.0
12.0 1.1 0.0
12.4 1.1 0.0
12.8 1.1 0.0
13.200000000000001 1.1 0.0
13.600000000000001 1.1 0.0
14.0 1.1 0.0
14.4 1.1 0.0
14.8 1.1 0.0
15.200000000000001 1.1 0.0
15.600000000000001 1.1 0.0
16.0 1.1 0.0
0.0 1.2000000000000002 0.0
0.4 1.2000000000000002 0.0
0.8 1.2000000000000002 0.0
1.2000000000000002 1.2000000000000002 0.0
1.6 1.2000000000000002 0.0
2.0 1.2000000000000002 0.0
2.4000000000000004 1.2000000000000002 0.0
2.8000000000000003 1.2000000000000002 0.0
3.2 1.2000000000000002 0.0
3.6 1.2000000000000002 0.0
4.0 1.2000000000000002 0.0
4.4 1.2000000000000002 0.0
4.800000000000001 1.2000000000000002 0.0
5.2 1.2000000000000002 0.0
5.6000000000000005 1.2000000000000002 0.0
6.0 1.2000000000000002 0.0
6.4 1.2000000000000002 0.0
6.800000000000001 1.2000000000000002 0.0
7.2 1.2000000000000002 0.0
7.6000000000000005 1.2000000000000002 0.0
8.0 1.2000000000000002 0.0
8.4 1.2000000000000002 0.0
8.8 1.2000000000000002 0.0
9.200000000000001 1.2000000000000002 0.0
9.600000000000001 1.2000000000000002 0.0
10.0 1.2000000000000002 0.0
10.4 1.2000000000000002 0.0
10.8 1.2000000000000002 0.0
11.200000000000001 1.2000000000000002 0.0
11.600000000000001 1.2000000000000002 0.0
12.0 1.2000000000000002 0.0
12.4 1.2000000000000002 0.0
12.8 1.2000000000000002 0.0
13.200000000000001 1.2000000000000002 0.0
13.600000000000001 1.2000000000000002 0.0
14.0 1.2000000000000002 0.0
14.4 1.2000000000000002 0.0
14.8 1.2000000000000002 0.0
15.200000000000001 1.2000000000000002 0.0
15.600000000000001 1.2000000000000002 0.0
16.0 1.2000000000000002 0.0
0.0 1.3 0.0
0.4 1.3 0.0
0.8 1.3 0.0
1.2000000000000002 1.3 0.0
1.6 1.3 0.0
2.0 1.3 0.0
2.4000000000000004 1.3 0.0
2.8000000000000003 1.3 0.0
3.2 1.3 0.0
3.6 1.3 0.0
4.0 1.3 0.0
4.4 1.3 0.0
4.800000000000001 1.3 0.0
5.2 1.3 0.0
5.6000000000000005 1.3 0.0
6.0 1.3 0.0
6.4 1.3 0.0
6.800000000000001 1.3 0.0
7.2 1.3 0.0
7.6000000000000005 1.3 0.0
8.0 1.3 0.0
8.4 1.3 0.0
8.8 1.3 0.0
9.200000000000001 1.3 0.0
9.600000000000001 1.3 0.0
10.0 1.3 0.0
10.4 1.3 0.0
10.8 1.3 0.0
11.200000000000001 1.3 0.0
11.600000000000001 1.3 0.0
12.0 1.3 0.0
12.4 1.3 0.0
12.8 1.3 0.0
13.200000000000001 1.3 0.0
13.600000000000001 1.3 0.0
14.0 1.3 0.0
14.4 1.3 0.0
14.8 1.3 0.0
15.200000000000001 1.3 0.0
15.600000000000001 1.3 0.0
16.0 1.3 0.0
0.0 1.4000000000000001 0.0
0.4 1.4000000000000001 0.0
0.8 1.4000000000000001 0.0
1.2000000000000002 1.4000000000000001 0.0
1.6 1.4000000000000001 0.0
2.0 1.4000000000000001 0.0
2.4000000000000004 1.4000000000000001 0.0
2.8000000000000003 1.4000000000000001 0.0
3.2 1.4000000000000001 0.0
3.6 1.4000000000000001 0.0
4.0 1.4000000000000001 0.0
4.4 1.4000000000000001 0.0
4.800000000000001 1.4000000000000001 0.0
5.2 1.4000000000000001 0.0
5.6000000000000005 1.4000000000000001 0.0
6.0 1.4000000000000001 0.0
6.4 1.4000000000000001 0.0
6.800000000000001 1.4000000000000001 0.0
7.2 1.4000000000000001 0.0
7.6000000000000005 1.4000000000000001 0.0
8.0 1.4000000000000001 0.0
8.4 1.4000000000000001 0.0
8.8 1.4000000000000001 0.0
9.200000000000001 1.4000000000000001 0.0
9.600000000000001 1.4000000000000001 0.0
10.0 1.4000000000000001 0.0
10.4 1.4000000000000001 0.0
10.8 1.4000000000000001 0.0
11.200000000000001 1.4000000000000001 0.0
11.600000000000001 1.4000000000000001 0.0
12.0 1.4000000000000001 0.0
12.4 1.4000000000000001 0.0
12.8 1.4000000000000001 0.0
13.200000000000001 1.4000000000000001 0.0
13.600000000000001 1.4000000000000001 0.0
14.0 1.4000000000000001 0.0
14.4 1.4000000000000001 0.0
14.8 1.4000000000000001 0.0
15.200000000000001 1.4000000000000001 0.0
15.600000000000001 1.4000000000000001 0.0
16.0 1.4000000000000001 0.0
0.0 1.5 0.0
0.4 1.5 0.0
0.8 1.5 0.0
1.2000000000000002 1.5 0.0
1.6 1.5 0.0
2.0 1.5 0.0
2.4000000000000004 1.5 0.0
2.8000000000000003 1.5 0.0
3.2 1.5 0.0
3.6 1.5 0.0
4.0 1.5 0.0
4.4 1.5 0.0
4.800000000000001 1.5 0.0
5.2 1.5 0.0
5.6000000000000005 1.5 0.0
6.0 1.5 0.0
6.4 1.5 0.0
6.800000000000001 1.5 0.0
7.2 1.5 0.0
7.6000000000000005 1.5 0.0
8.0 1.5 0.0
8.4 1.5 0.0
8.8 1.5 0.0
9.200000000000001 1.5 0.0
9.600000000000001 1.5 0.0
10.0 1.5 0.0
10.4 1.5 0.0
10.8 1.5 0.0
11.200000000000001 1.5 0.0
11.600000000000001 1.5 0.0
12.0 1.5 0.0
12.4 1.5 0.0
12.8 1.5 0.0
13.200000000000001 1.5 0.0
13.600000000000001 1.5 0.0
14.0 1.5 0.0
14.4 1.5 0.0
14.8 1.5 0.0
15.200000000000001 1.5 0.0
15.600000000000001 1.5 0.0
16.0 1.5 0.0
0.0 1.6 0.0
0.4 1.6 0.0
0.8 1.6 0.0
1.2000000000000002 1.6 0.0
1.6 1.6 0.0
2.0 1.6 0.0
2.4000000000000004 1.6 0.0
2.8000000000000003 1.6 0.0
3.2 1.6 0.0
3.6 1.6 0.0
4.0 1.6 0.0
4.4 1.6 0.0
4.800000000000001 1.6 0.0
5.2 1.6 0.0
5.6000000000000005 1.6 0.0
6.0 1.6 0.0
6.4 1.6 0.0
6.800000000000001 1.6 0.0
7.2 1.6 0.0
7.6000000000000005 1.6 0.0
8.0 1.6 0.0
8.4 1.6 0.0
8.8 1.6 0.0
9.200000000000001 1.6 0.0
9.600000000000001 1.6 0.0
10.0 1.6 0.0
10.4 1.6 0.0
10.8 1.6 0.0
11.200000000000001 1.6 0.0
11.600000000000001 1.6 0.0
12.0 1.6 0.0
12.4 1.6 0.0
12.8 1.6 0.0
13.200000000000001 1.6 0.0
13.600000000000001 1.6 0.0
14.0 1.6 0.0
14.4 1.6 0.0
14.8 1.6 0.0
15.200000000000001 1.6 0.0
15.600000000000001 1.6 0.0
16.0 1.6 0.0
0.0 1.7000000000000002 0.0
0.4 1.7000000000000002 0.0
0.8 1.7000000000000002 0.0
1.2000000000000002 1.7000000000000002 0.0
1.6 1.7000000000000002 0.0
2.0 1.7000000000000002 0.0
2.4000000000000004 1.7000000000000002 0.0
2.8000000000000003 1.7000000000000002 0.0
3.2 1.7000000000000002 0.0
3.6 1.7000000000000002 0.0
4.0 1.7000000000000002 0.0
4.4 1.7000000000000002 0.0
4.800000000000001 1.7000000000000002 0.0
5.2 1.7000000000000002 0.0
5.6000000000000005 1.7000000000000002 0.0
6.0 1.7000000000000002 0.0
6.4 1.7000000000000002 0.0
6.800000000000001 1.7000000000000002 0.0
7.2 1.7000000000000002 0.0
7.6000000000000005 1.7000000000000002 0.0
8.0 1.7000000000000002 0.0
8.4 1.7000000000000002 0.0
8.8 1.7000000000000002 0.0
9.200000000000001 1.7000000000000002 0.0
9.600000000000001 1.7000000000000002 0.0
10.0 1.7000000000000002 0.0
10.4 1.7000000000000002 0.0
10.8 1.7000000000000002 0.0
11.200000000000001 1.7000000000000002 0.0
11.600000000000001 1.7000000000000002 0.0
12.0 1.7000000000000002 0.0
12.4 1.7000000000000002 0.0
12.8 1.7000000000000002 0.0
13.200000000000001 1.7000000000000002 0.0
13.600000000000001 1.7000000000000002 0.0
14.0 1.7000000000000002 0.0
14.4 1.7000000000000002 0.0
14.8 1.7000000000000002 0.0
15.200000000000001 1.7000000000000002 0.0
15.600000000000001 1.7000000000000002 0.0
16.0 1.7000000000000002 0.0
0.0 1.8 0.0
0.4 1.8 0.0
0.8 1.8 0.0
1.2000000000000002 1.8 0.0
1.6 1.8 0.0
2.0 1.8 0.0
2.4000000000000004 1.8 0.0
2.8000000000000003 1.8 0.0
3.2 1.8 0.0
3.6 1.8 0.0
4.0 1.8 0.0
4.4 1.8 0.0
4.800000000000001 1.8 0.0
5.2 1.8 0.0
5.6000000000000005 1.8 0.0
6.0 1.8 0.0
6.4 1.8 0.0
6.800000000000001 1.8 0.0
7.2 1.8 0.0
7.6000000000000005 1.8 0.0
8.0 1.8 0.0
8.4 1.8 0.0
8.8 1.8 0.0
9.200000000000001 1.8 0.0
9.600000000000001 1.8 0.0
10.0 1.8 0.0
10.4 1.8 0.0
10.8 1.8 0.0
11.200000000000001 1.8 0.0
11.600000000000001 1.8 0.0
12.0 1.8 0.0
12.4 1.8 0.0
12.8 1.8 0.0
13.200000000000001 1.8 0.0
13.600000000000001 1.8 0.0
14.0 1.8 0.0
14.4 1.8 0.0
14.8 1.8 0.0
15.200000000000001 1.8 0.0
15.600000000000001 1.8 0.0
16.0 1.8 0.0
0.0 1.9000000000000001 0.0
0.4 1.9000000000000001 0.0
0.8 1.9000000000000001 0.0
1.2000000000000002 1.9000000000000001 0.0
1.6 1.9000000000000001 0.0
2.0 1.9000000000000001 0.0
2.4000000000000004 1.9000000000000001 0.0
2.8000000000000003 1.9000000000000001 0.0
3.2 1.9000000000000001 0.0
3.6 1.9000000000000001 0.0
4.0 1.9000000000000001 0.0
4.4 1.9000000000000001 0.0
4.800000000000001 1.9000000000000001 0.0
5.2 1.9000000000000001 0.0
5.6000000000000005 1.9000000000000001 0.0
6.0 1.9000000000000001 0.0
6.4 1.9000000000000001 0.0
6.800000000000001 1.9000000000000001 0.0
7.2 1.9000000000000001 0.0
7.6000000000000005 1.9000000000000001 0.0
8.0 1.9000000000000001 0.0
8.4 1.9000000000000001 0.0
8.8 1.9000000000000001 0.0
9.200000000000001 1.9000000000000001 0.0
9.600000000000001 1.9000000000000001 0.0
10.0 1.9000000000000001 0.0
10.4 1.9000000000000001 0.0
10.8 1.9000000000000001 0.0
11.200000000000001 1.9000000000000001 0.0
11.600000000000001 1.9000000000000001 0.0
12.0 1.9000000000000001 0.0
12.4 1.9000000000000001 0.0
12.8 1.9000000000000001 0.0
13.200000000000001 1.9000000000000001 0.0
13.600000000000001 1.9000000000000001 0.0
14.0 1.9000000000000001 0.0
14.4 1.9000000000000001 0.0
14.8 1.9000000000000001 0.0
15.200000000000001 1.9000000000000001 0.0
15.600000000000001 1.9000000000000001 0.0
16.0 1.9000000000000001 0.0
0.0 2.0 0.0
0.4 2.0 0.0
0.8 2.0 0.0
1.2000000000000002 2.0 0.0
1.6 2.0 0.0
2.0 2.0 0.0
2.4000000000000004 2.0 0.0
2.8000000000000003 2.0 0.0
3.2 2.0 0.0
3.6 2.0 0.0
4.0 2.0 0.0
4.4 2.0 0.0
4.800000000000001 2.0 0.0
5.2 2.0 0.0
5.6000000000000005 2.0 0.0
6.0 2.0 0.0
6.4 2.0 0.0
6.800000000000001 2.0 0.0
7.2 2.0 0.0
7.6000000000000005 2.0 0.0
8.0 2.0 0.0
8.4 2.0 0.0
8.8 2.0 0.0
9.200000000000001 2.0 0.0
9.600000000000001 2.0 0.0
10.0 2.0 0.0
10.4 2.0 0.0
10.8 2.0 0.0
11.200000000000001 2.0 0.0
11.600000000000001 2.0 0.0
12.0 2.0 0.0
12.4 2.0 0.0
12.8 2.0 0.0
13.200000000000001 2.0 0.0
13.600000000000001 2.0 0.0
14.0 2.0 0.0
14.4 2.0 0.0
14.8 2.0 0.0
15.200000000000001 2.0 0.0
15.600000000000001 2.0 0.0
16.0 2.0 0.0
CELLS 800 4000
4 0 1 42 41
4 1 2 43 42
4 2 3 44 43
4 3 4 45 44
4 4 5 46 45
4 5 6 47 46
4 6 7 48 47
4 7 8 49 48
4 8 9 50 49
4 9 10 51 50
4 10 11 52 51
4 11 12 53 52
4 12 13 54 53
4 13 14 55 54
4 14 15 56 55
4 15 16 57 56
4 16 17 58 57
4 17 18 59 58
4 18 19 60 59
4 19 20 61 60
4 20 21 62 61
4 21 22 63 62
4 22 23 64 63
4 23 24 65 64
4 24 25 66 65
4 25 26 67 66
4 26 27 68 67
4 27 28 69 68
4 28 29 70 69
4 29 30 71 70
4 30 31 72 71
4 31 32 73 72
4 32 33 74 73
4 33 34 75 74
4 34 35 76 75
4 35 36 77 76
4 36 37 78 77
4 37 38 79 78
4 38 39 80 79
4 39 40 81 80
4 41 42 83 82
4 42 43 84 83
4 43 44 85 84
4 44 45 86 85
4 45 46 87 86
4 46 47 88 87
4 47 48 89 88
4 48 49 90 89
4 49 50 91 90
4 50 51 92 91
4 51 52 93 92
4 52 53 94 93
4 53 54 95 94
4 54 55 96 95
4 55 56 97 96
4 56 57 98 97
4 57 58 99 98
4 58 59 100 99
4 59 60 101 100
4 60 61 102 101
4 61 62 103 102
4 62 63 104 103
4 63 64 105 104
4 64 65 106 105
4 65 66 107 106
4 66 67 108 107
4 67 68 109 108
4 68 69 110 109
4 69 70 111 110
4 70 71 112 111
4 71 72 113 112
4 72 73 114 113
4 73 74 115 114
4 74 75 116 115
4 75 76 117 116
4 76 77 118 117
4 77 78 119 118
4 78 79 120 119
4 79 80 121 120
4 80 81 122 121
4 82 83 124 123
4 83 84 125 124
4 84 85 126 125
4 85 86 127 126
4 86 87 128 127
4 87 88 129 128
4 88 89 130 129
4 89 90 131 130
4 90 91 132 131
4 91 92 133 132
4 92 93 134 133
4 93 94 135 134
4 94 95 136 135
4 95 96 137 136
4 96 97 138 137
4 97 98 139 138
4 98 99 140 139
4 99 100 141 140
4 100 101 142 141
4 101 102 143 142
4 102 103 144 143
4 103 104 145 144
4 104 105 146 145
4 105 106 147 146
4 106 107 148 147
4 107 108 149 148
4 108 109 150 149
4 109 110 151 150
4 110 111 152 151
4 111 112 153 152
4 112 113 154 153
4 113 114 155 154
4 114 115 156 155
4 115 116 157 156
4 116 117 158 157
4 117 118 159 158
4 118 119 160 159
4 119 120 161 160
4 120 121 162 161
4 121 122 163 162
4 123 124 165 164
4 124 125 166 165
4 125 126 167 166
4 126 127 168 167
4 127 128 169 168
4 128 129 170 169
4 129 130 171 170
4 130 131 172 171
4 131 132 173 172
4 132 133 174 173
4 133 134 175 174
4 134 135 176 175
4 135 136 177 176
4 136 137 178 177
4 137 138 179 178
4 138 139 180 179
4 139 140 181 180
4 140 141 182 181
4 141 142 183 182
4 142 143 184 183
4 143 144 185 184
4 144 145 186 185
4 145 146 187 186
4 146 147 188 187
4 147 148 189 188
4 148 149 190 189
4 149 150 191 190
4 150 151 192 191
4 151 152 193 192
4 152 153 194 193
4 153 154 195 194
4 154 155 196 195
4 155 156 197 196
4 156 157 198 197
4 157 158 199 198
4 158 159 200 199
4 159 160 201 200
4 160 161 202 201
4 161 162 203 202
4 162 163 204 203
4 164 165 206 205
4 165 166 207 206
4 166 167 208 207
4 167 168 209 208
4 168 169 210 209
4 169 170 211 210
4 170 171 212 211
4 171 172 213 212
4 172 173 214 213
4 173 174 215 214
4 174 175 216 215
4 175 176 217 216
4 176 177 218 217
4 177 178 219 218
4 178 179 220 219
4 179 180 221 220
4 180 181 222 221
4 181 182 223 222
4 182 183 224 223
4 183 184 225 224
4 184 185 226 225
4 185 186 227 226
4 186 187 228 227
4 187 188 229 228
4 188 189 230 229
4 189 190 231 230
4 190 191 232 231
4 191 192 233 232
4 192 193 234 233
4 193 194 235 234
4 194 195 236 235
4 195 196 237 236
4 196 197 238 237
4 197 198 239 238
4 198 199 240 239
4 199 200 241 240
4 200 201 242 241
4 201 202 243 242
4 202 203 244 243
4 203 204 245 244
4 205 206 247 246
4 206 207 248 247
4 207 208 249 248
4 208 209 250 249
4 209 210 251 250
4 210 211 252 251
4 211 212 253 252
4 212 213 254 253
4 213 214 255 254
4 214 215 256 255
4 215 216 257 256
4 216 217 258 257
4 217 218 259 258
4 218 219 260 259
4 219 220 261 260
4 220 221 262 261
4 221 222 263 262
4 222 223 264 263
4 223 224 265 264
4 224 225 266 265
4 225 226 267 266
4 226 227 268 267
4 227 228 269 268
4 228 229 270 269
4 229 230 271 270
4 230 231 272 271
4 231 232 273 272
4 232 233 274 273
4 233 234 275 274
4 234 235 276 275
4 235 236 277 276
4 236 237 278 277
4 237 238 279 278
4 238 239 280 279
4 239 240 281 280
4 240 241 282 281
4 241 242 283 282
4 242 243 284 283
4 243 244 285 284
4 244 245 286 285
4 246 247 288 287
4 247 248 289 288
4 248 249 290 289
4 249 250 291 290
4 250 251 292 291
4 251 252 293 292
4 252 253 294 293
4 253 254 295 294
4 254 255 296 295
4 255 256 297 296
4 256 257 298 297
4 257 258 299 298
4 258 259 300 299
4 259 260 301 300
4 260 261 302 301
4 261 262 303 302
4 262 263 304 303
4 263 264 305 304
4 264 265 306 305
4 265 266 307 306
4 266 267 308 307
4 267 268 309 308
4 268 269 310 309
4 269 270 311 310
4 270 271 312 311
4 271 272 313 312
4 272 273 314 313
4 273 274 315 314
4 274 275 316 315
4 275 276 317 316
4 276 277 318 317
4 277 278 319 318
4 278 279 320 319
4 279 280 321 320
4 280 281 322 321
4 281 282 323 322
4 282 283 324 323
4 283 284 325 324
4 284 285 326 325
4 285 286 327 326
4 287 288 329 328
4 288 289 330 329
4 289 290 331 330
4 290 291 332 331
4 291 292 333 332
4 292 293 334 333
4 293 294 335 334
4 294 295 336 335
4 295 296 337 336
4 296 297 338 337
4 297 298 339 338
4 298 299 340 339
4 299 300 341 340
4 300 301 342 341
4 301 302 343 342
4 302 303 344 343
4 303 304 345 344
4 304 305 346 345
4 305 306 347 346
4 306 307 348 347
4 307 308 349 348
4 308 309 350 349
4 309 310 351 350
4 310 311 352 351
4 311 312 353 352
4 312 313 354 353
4 313 314 355 354
4 314 315 356 355
4 315 316 357 356
4 316 317 358 357
4 317 318 359 358
4 318 319 360 359
4 319 320 361 360
4 320 321 362 361
4 321 322 363 362
4 322 323 364 363
4 323 324 365 364
4 324 325 366 365
4 325 326 367 366
4 326 327 368 367
4 328 329 370 369
4 329 330 371 370
4 330 331 372 371
4 331 332 373 372
4 332 333 374 373
4 333 334 375 374
4 334 335 376 375
4 335 336 377 376
4 336 337 378 377
4 337 338 379 378
4 338 339 380 379
4 339 340 381 380
4 340 341 382 381
4 341 342 383 382
4 342 343 384 383
4 343 344 385 384
4 344 345 386 385
4 345 346 387 386
4 346 347 388 387
4 347 348 389 388
4 348 349 390 389
4 349 350 391 390
4 350 351 392 391
4 351 352 393 392
4 352 353 394 393
4 353 354 395 394
4 354 355 396 395
4 355 356 397 396
4 356 357 398 397
4 357 358 399 398
4 358 359 400 399
4 359 360 401 400
4 360 361 402 401
4 361 362 403 402
4 362 363 404 403
4 363 364 405 404
4 364 365 406 405
4 365 366 407 406
4 366 367 408 407
4 367 368 409 408
4 369 370 411 410
4 370 371 412 411
4 371 372 413 412
4 372 373 414 413
4 373 374 415 414
4 374 375 416 415
4 375 376 417 416
4 376 377 418 417
4 377 378 419 418
4 378 379 420 419
4 379 380 421 420
4 380 381 422 421
4 381 382 423 422
4 382 383 424 423
4 383 384 425 424
4 384 385 426 425
4 385 386 427 426
4 386 387 428 427
4 387 388 429 428
4 388 389 430 429
4 389 390 431 430
4 390 391 432 431
4 391 392 433 432
4 392 393 434 433
4 393 394 435 434
4 394 395 436 435
4 395 396 437 436
4 396 397 438 437
4 397 398 439 438
4 398 399 440 439
4 399 400 441 440
4 400 401 442 441
4 401 402 443 442
4 402 403 444 443
4 403 404 445 444
4 404 405 446 445
4 405 406 447 446
4 406 407 448 447
4 407 408 449 448
4 408 409 450 449
4 410 411 452 451
4 411 412 453 452
4 412 413 454 453
4 413 414 455 454
4 414 415 456 455
4 415 416 457 456
4 416 417 458 457
4 417 418 459 458
4 418 419 460 459
4 419 420 461 460
4 420 421 462 461
4 421 422 463 462
4 422 423 464 463
4 423 424 465 464
4 424 425 466 465
4 425 426 467 466
4 426 427 468 467
4 427 428 469 468
4 428 429 470 469
4 429 430 471 470
4 430 431 472 471
4 431 432 473 472
4 432 433 474 473
4 433 434 475 474
4 434 435 476 475
4 435 436 477 476
4 436 437 478 477
4 437 438 479 478
4 438 439 480 479
4 439 440 481 480
4 440 441 482 481
4 441 442 483 482
4 442 443 484 483
4 443 444 485 484
4 444 445 486 485
4 445 446 487 486
4 446 447 488 487
4 447 448 489 488
4 448 449 490 489
4 449 450 491 490
4 451 452 493 492
4 452 453 494 493
4 453 454 495 494
4 454 455 496 495
4 455 456 497 496
4 456 457 498 497
4 457 458 499 498
4 458 459 500 499
4 459 460 501 500
4 460 461 502 501
4 461 462 503 502
4 462 463 504 503
4 463 464 505 504
4 464 465 506 505
4 465 466 507 506
4 466 467 508 507
4 467 468 509 508
4 468 469 510 509
4 469 470 511 510
4 470 471 512 511
4 471 472 513 512
4 472 473 514 513
4 473 474 515 514
4 474 475 516 515
4 475 476 517 516
4 476 477 518 517
4 477 478 519 518
4 478 479 520 519
4 479 480 521 520
4 480 481 522 521
4 481 482 523 522
4 482 483 524 523
4 483 484 525 524
4 484 485 526 525
4 485 486 527 526
4 486 487 528 527
4 487 488 529 528
4 488 489 530 529
4 489 490 531 530
4 490 491 532 531
4 492 493 534 533
4 493 494 535 534
4 494 495 536 535
4 495 496 537 536
4 496 497 538 537
4 497 498 539 538
4 498 499 540 539
4 499 500 541 540
4 500 501 542 541
4 501 502 543 542
4 502 503 544 543
4 503 504 545 544
4 504 505 546 545
4 505 506 547 546
4 506 507 548 547
4 507 508 549 548
4 508 509 550 549
4 509 510 551 550
4 510 511 552 551
4 511 512 553 552
4 512 513 554 553
4 513 514 555 554
4 514 515 556 555
4 515 516 557 556
4 516 517 558 557
4 517 518 559 558
4 518 519 560 559
4 519 520 561 560
4 520 521 562 561
4 521 522 563 562
4 522 523 564 563
4 523 524 565 564
4 524 525 566 565
4 525 526 567 566
4 526 527 568 567
4 527 528 569 568
4 528 529 570 569
4 529 530 571 570
4 530 531 572 571
4 531 532 573 572
4 533 534 575 574
4 534 535 576 575
4 535 536 577 576
4 536 537 578 577
4 537 538 579 578
4 538 539 580 579
4 539 540 581 580
4 540 541 582 581
4 541 542 583 582
4 542 543 584 583
4 543 544 585 584
4 544 545 586 585
4 545 546 587 586
4 546 547 588 587
4 547 548 589 588
4 548 549 590 589
4 549 550 591 590
4 550 551 592 591
4 551 552 593 592
4 552 553 594 593
4 553 554 595 594
4 554 555 596 595
4 555 556 597 596
4 556 557 598 597
4 557 558 599 598
4 558 559 600 599
4 559 560 601 600
4 560 561 602 601
4 561 562 603 602
4 562 563 604 603
4 563 564 605 604
4 564 565 606 605
4 565 566 607 606
4 566 567 608 607
4 567 568 609 608
4 568 569 610 609
4 569 570 611 610
4 570 571 612 611
4 571 572 613 612
4 572 573 614 613
4 574 575 616 615
4 575 576 617 616
4 576 577 618 617
4 577 578 619 618
4 578 579 620 619
4 579 580 621 620
4 580 581 622 621
4 581 582 623 622
4 582 583 624 623
4 583 584 625 624
4 584 585 626 625
4 585 586 627 626
4 586 587 628 627
4 587 588 629 628
4 588 589 630 629
4 589 590 631 630
4 590 591 632 631
4 591 592 633 632
4 592 593 634 633
4 593 594 635 634
4 594 595 636 635
4 595 596 637 636
4 596 597 638 637
4 597 598 639 638
4 598 599 640 639
4 599 600 641 640
4 600 601 642 641
4 601 602 643 642
4 602 603 644 643
4 603 604 645 644
4 604 605 646 645
4 605 606 647 646
4 606 607 648 647
4 607 608 649 648
4 608 609 650 649
4 609 610 651 650
4 610 611 652 651
4 611 612 653 652
4 612 613 654 653
4 613 614 655 654
4 615 616 657 656
4 616 617 658 657
4 617 618 659 658
4 618 619 660 659
4 619 620 661 660
4 620 621 662 661
4 621 622 663 662
4 622 623 664 663
4 623 624 665 664
4 624 625 666 665
4 625 626 667 666
4 626 627 668 667
4 627 628 669 668
4 628 629 670 669
4 629 630 671 670
4 630 631 672 671
4 631 632 673 672
4 632 633 674 673
4 633 634 675 674
4 634 635 676 675
4 635 636 677 676
4 636 637 678 677
4 637 638 679 678
4 638 639 680 679
4 639 640 681 680
4 640 641 682 681
4 641 642 683 682
4 642 643 684 683
4 643 644 685 684
4 644 645 686 685
4 645 646 687 686
4 646 647 688 687
4 647 648 689 688
4 648 649 690 689
4 649 650 691 690
4 650 651 692 691
4 651 652 693 692
4 652 653 694 693
4 653 654 695 694
4 654 655 696 695
4 656 657 698 697
4 657 658 699 698
4 658 659 700 699
4 659 660 701 700
4 660 661 702 701
4 661 662 703 702
4 662 663 704 703
4 663 664 705 704
4 664 665 706 705
4 665 666 707 706
4 666 667 708 707
4 667 668 709 708
4 668 669 710 709
4 669 670 711 710
4 670 671 712 711
4 671 672 713 712
4 672 673 714 713
4 673 674 715 714
4 674 675 716 715
4 675 676 717 716
4 676 677 718 717
4 677 678 719 718
4 678 679 720 719
4 679 680 721 720
4 680 681 722 721
4 681 682 723 722
4 682 683 724 723
4 683 684 725 724
4 684 685 726 725
4 685 686 727 726
4 686 687 728 727
4 687 688 729 728
4 688 689 730 729
4 689 690 731 730
4 690 691 732 731
4 691 692 733 732
4 692 693 734 733
4 693 694 735 734
4 694 695 736 735
4 695 696 737 736
4 697 698 739 738
4 698 699 740 739
4 699 700 741 740
4 700 701 742 741
4 701 702 743 742
4 702 703 744 743
4 703 704 745 744
4 704 705 746 745
4 705 706 747 746
4 706 707 748 747
4 707 708 749 748
4 708 709 750 749
4 709 710 751 750
4 710 711 752 751
4 711 712 753 752
4 712 713 754 753
4 713 714 755 754
4 714 715 756 755
4 715 716 757 756
4 716 717 758 757
4 717 718 759 758
4 718 719 760 759
4 719 720 761 760
4 720 721 762 761
4 721 722 763 762
4 722 723 764 763
4 723 724 765 764
4 724 725 766 765
4 725 726 767 766
4 726 727 768 767
4 727 728 769 768
4 728 729 770 769
4 729 730 771 770
4 730 731 772 771
4 731 732 773 772
4 732 733 774 773
4 733 734 775 774
4 734 735 776 775
4 735 736 777 776
4 736 737 778 777
4 738 739 780 779
4 739 740 781 780
4 740 741 782 781
4 741 742 783 782
4 742 743 784 783
4 743 744 785 784
4 744 745 786 785
4 745 746 787 786
4 746 747 788 787
4 747 748 789 788
4 748 749 790 789
4 749 750 791 790
4 750 751 792 791
4 751 752 793 792
4 752 753 794 793
4 753 754 795 794
4 754 755 796 795
4 755 756 797 796
4 756 757 798 797
4 757 758 799 798
4 758 759 800 799
4 759 760 801 800
4 760 761 802 801
4 761 762 803 802
4 762 763 804 803
4 763 764 805 804
4 764 765 806 805
4 765 766 807 806
4 766 767 808 807
4 767 768 809 808
4 768 769 810 809
4 769 770 811 810
4 770 771 812 811
4 771 772 813 812
4 772 773 814 813
4 773 774 815 814
4 774 775 816 815
4 775 776 817 816
4 776 777 818 817
4 777 778 819 818
4 779 780 821 820
4 780 781 822 821
4 781 782 823 822
4 782 783 824 823
4 783 784 825 824
4 784 785 826 825
4 785 786 827 826
4 786 787 828 827
4 787 788 829 828
4 788 789 830 829
4 789 790 831 830
4 790 791 832 831
4 791 792 833 832
4 792 793 834 833
4 793 794 835 834
4 794 795 836 835
4 795 796 837 836
4 796 797 838 837
4 797 798 839 838
4 798 799 840 839
4 799 800 841 840
4 800 801 842 841
4 801 802 843 842
4 802 803 844 843
4 803 804 845 844
4 804 805 846 845
4 805 806 847 846
4 806 807 848 847
4 807 808 849 848
4 808 809 850 849
4 809 810 851 850
4 810 811 852 851
4 811 812 853 852
4 812 813 854 853
4 813 814 855 854
4 814 815 856 855
4 815 816 857 856
4 816 817 858 857
4 817 818 859 858
4 818 819 860 859
CELL_TYPES 800
9
9
9
9
9
9
9
9
9
9
9
9
9
9
9
9
9
9
9
9
9
9
9
9
9
9
9
9
9
9
9
9
9
9
9
9
9
9
9
9
9
9
9
9
9
9
9
9
9
9
9
9
9
9
9
9
9
9
9
9
9
9
9
9
9
9
9
9
9
9
9
9
9
9
9
9
9
9
9
9
9
9
9
9
9
9
9
9
9
9
9
9
9
9
9
9
9
9
9
9
9
9
9
9
9
9
9
9
9
9
9
9
9
9
9
9
9
9
9
9
9
9
9
9
9
9
9
9
9
9
9
9
9
9
9
9
9
9
9
9
9
9
9
9
9
9
9
9
9
9
9
9
9
9
9
9
9
9
9
9
9
9
9
9
9
9
9
9
9
9
9
9
9
9
9
9
9
9
9
9
9
9
9
9
9
9
9
9
9
9
9
9
9
9
9
9
9
9
9
9
9
9
9
9
9
9
9
9
9
9
9
9
9
9
9
9
9
9
9
9
9
9
9
9
9
9
9
9
9
9
9
9
9
9
9
9
9
9
9
9
9
9
9
9
9
9
9
9
9
9
9
9
9
9
9
9
9
9
9
9
9
9
9
9
9
9
9
9
9
9
9
9
9
9
9
9
9
9
9
9
9
9
9
9
9
9
9
9
9
9
9
9
9
9
9
9
9
9
9
9
9
9
9
9
9
9
9
9
9
9
9
9
9
9
9
9
9
9
9
9
9
9
9
9
9
9
9
9
9
9
9
9
9
9
9
9
9
9
9
9
9
9
9
9
9
9
9
9
9
9
9
9
9
9
9
9
9
9
9
9
9
9
9
9
9
9
9
9
9
9
9
9
9
9
9
9
9
9
9
9
9
9
9
9
9
9
9
9
9
9
9
9
9
9
9
9
9
9
9
9
9
9
9
9
9
9
9
9
9
9
9
9
9
9
9
9
9
9
9
9
9
9
9
9
9
9
9
9
9
9
9
9
9
9
9
9
9
9
9
9
9
9
9
9
9
9
9
9
9
9
9
9
9
9
9
9
9
9
9
9
9
9
9
9
9
9
9
9
9
9
9
9
9
9
9
9
9
9
9
9
9
9
9
9
9
9
9
9
9
9
9
9
9
9
9
9
9
9
9
9
9
9
9
9
9
9
9
9
9
9
9
9
9
9
9
9
9
9
9
9
9
9
9
9
9
9
9
9
9
9
9
9
9
9
9
9
9
9
9
9
9
9
9
9
9
9
9
9
9
9
9
9
9
9
9
9
9
9
9
9
9
9
9
9
9
9
9
9
9
9
9
9
9
9
9
9
9
9
9
9
9
9
9
9
9
9
9
9
9
9
9
9
9
9
9
9
9
9
9
9
9
9
9
9
9
9
9
9
9
9
9
9
9
9
9
9
9
9
9
9
9
9
9
9
9
9
9
9
9
9
9
9
9
9
9
9
9
9
9
9
9
9
9
9
9
9
9
9
9
9
9
9
9
9
9
9
9
9
9
9
9
9
9
9
9
9
9
9
9
9
9
9
9
9
9
9
9
9
9
9
9
9
9
9
9
9
9
9
9
9
9
9
9
9
9
9
9
9
9
9
9
9
9
9
9
9
9
9
9
9
9
9
9
9
9
9
9
9
9
9
9
9
9
9
9
9
9
9
9
9
9
9
9
9
9
9
9
9
9
9
9
9
9
9
9
9
9
9
9
9
9
9
9
9
9
9
9
9
9
9
9
9
9
9
9
9
9
9
9
9
9
9
9
9
9
9
9
9
9
9
9
9
9
9
9
9
9
9
9
9
9
9
9
9
9
9
9
9
9
9
POINT_DATA 861
SCALARS Disp float 2
LOOKUP_TABLE default
0.0 0.0
0.006259014967421045 -0.29815233870578944
0.0077060488589775385 -0.5864548931710112
0.00851673809913638 -0.8735819807768932
0.009599563390592716 -1.1603013680997671
0.011444057092422098 -1.4461276503158071
0.014798076477328368 -1.7304074187336476
0.02059256693253023 -2.0123152898415864
0.029927403642741823 -2.290812593647565
0.04399920530955527 -2.5645316390618906
0.06399187065145578 -2.831618508776501
0.09100008220643119 -3.0896557409786594
0.12599445336170792 -3.3357140725476677
0.16981059477328472 -3.566490209839362
0.22313959281140658 -3.7784012670520823
0.28645639685956026 -3.96766666666397
0.35989779201392297 -4.130418479889038
0.4431228366697297 -4.262874262884064
0.5352005412395562 -4.361599026958817
0.6345724279011449 -4.423759841896172
0.7387794747236984 -4.447467272374424
0.8429865215462446 -4.423759841896031
0.9423584082078124 -4.361599026958532
1.0344361127776018 -4.26287426288365
1.1176611574333613 -4.130418479888521
1.191102552587674 -3.9676666666633804
1.2544193566357762 -3.7784012670514358
1.3077483546738466 -3.566490209838678
1.3515644960853725 -3.3357140725469674
1.3865588672406013 -3.089655740977964
1.413567078795534 -2.8316185087758305
1.4335597441373984 -2.5645316390612596
1.4476315458041837 -2.290812593646983
1.456966382514375 -2.012315289841062
1.462760872969563 -1.7304074187331857
1.4661148923544607 -1.4461276503154166
1.4679593860562863 -1.1603013680994476
1.4690422113477415 -0.8735819807766491
1.4698529005879 -0.5864548931708411
1.4712999344794548 -0.29815233870569635
1.4775589494468726 0.0
0.07436734347555185 -0.0025748198625637933
0.07879126739429658 -0.29846237188068553
0.07953626882141575 -0.5865189927520564
0.0802506973164526 -0.8736758211039033
0.08119269328122652 -1.160467252912033
0.0827509587568467 -1.4465124637776028
0.08562866073660629 -1.731220322753979
0.09070442675842678 -2.013806970726102
0.09900954757462266 -2.293263342357579
0.11163486836805799 -2.5682266051290146
0.12963623965860194 -2.836826532693279
0.15397590320014426 -3.0966190305171093
0.18551318938869155 -3.344646393014399
0.22500645330105545 -3.5775751913773695
0.27308548115355935 -3.791783542921107
0.33019355647913423 -3.9834286333078666
0.3964807317495993 -4.148547877687126
0.4716798226208404 -4.28323244468443
0.554990851263042 -4.383895333401329
0.6449103389281378 -4.4475215556495975
0.7387794747236811 -4.4718385103983245
0.8326486105192172 -4.447521555649453
0.9225680981842938 -4.383895333401037
1.0058791268264626 -4.283232444684007
1.081078217697663 -4.148547877686599
1.147365392968083 -3.9834286333072644
1.2044734682936116 -3.7917835429204487
1.2525524961460692 -3.577575191376673
1.2920457600583872 -3.344646393013687
1.3235830462468914 -3.096619030516403
1.347922709788395 -2.836826532692599
1.3659240810789064 -2.568226605128376
1.3785494018723163 -2.2932633423569913
1.3868545226884936 -2.0138069707255735
1.3919302887103016 -1.7312203227535148
1.394807990690054 -1.4465124637772109
1.396366256165671 -1.160467252911713
1.3973082521304439 -0.873675821103659
1.3980226806254805 -0.5865189927518863
1.3987676820525996 -0.29846237188059205
1.4031916059713385 -0.00257481986256129
0.1476950009573717 -0.00463126807765173
0.15096265922876054 -0.2986183260916401
0.15138607087854494 -0.5865499879533081
0.1519671733213884 -0.873757910746906
0.15277974319052134 -1.1605976173858428
0.154080617777766 -1.4468170097198452
0.1564948798380557 -1.7318955700272232
0.16085491136307195 -2.015090320728802
0.16811137185325742 -2.2954142463882863
0.17925248150092699 -2.5715017838819265
0.19521254447273548 -2.841462981050155
0.21683185591262447 -3.1028286628923576
0.2448601721673913 -3.352618743095104
0.27996761630132183 -3.5874767124126494
0.32272732932755493 -3.8037470093181565
0.37355449309894523 -3.9975342409959294
0.4326250784610597 -4.164795737790005
0.4997609236439431 -4.3015107111912485
0.5742736432410697 -4.403943026048438
0.6547206314649432 -4.46885231133805
0.738779474723664 -4.493712851591862
0.8228383179823786 -4.468852311337902
0.9032853062062344 -4.40394302604814
0.9777980258033324 -4.301510711190817
1.0449338709861804 -4.164795737789467
1.1040044563482545 -3.9975342409953165
1.1548316201196038 -3.803747009317487
1.197591333145795 -3.5874767124119424
1.2326987772796856 -3.3526187430943812
1.2607270935344141 -3.102828662891642
1.2823464049742685 -2.8414629810494665
1.2983064679460483 -2.5715017838812817
1.309447577593695 -2.2954142463876934
1.3167040380838635 -2.01509032072827
1.321064069608869 -1.7318955700267566
1.323478331669152 -1.4468170097194522
1.3247792062563946 -1.160597617385523
1.325591776125527 -0.8737579107466618
1.3261728785683704 -0.586549987953138
1.3265962902181545 -0.2986183260915462
1.3298639484895378 -0.004631268077646398
0.2204709771774029 -0.006289764874079732
0.22295618212894347 -0.29872468531101676
0.22321316256650628 -0.5865666854983157
0.22366694677415805 -0.8738232430270902
0.22435613464642287 -1.160701568203186
0.22543000230559937 -1.4470503623796966
0.2274076808304511 -1.7324378226871964
0.23106109341357298 -2.0161661092904866
0.2372622788349235 -2.2972609205262953
0.24689752025078884 -2.5743493145575034
0.26078482943668047 -2.8455181466058757
0.27964698414735134 -3.10827489387588
0.30412830681417613 -3.3596207567696608
0.3348097569725901 -3.596181865198833
0.3721983602576106 -3.814277094311624
0.4166883317116442 -4.009968993643612
0.4684857653748181 -4.179149746089486
0.5274988096873028 -4.317699630383769
0.593162164331869 -4.4217323814221965
0.6642420963686033 -4.487809012631847
0.7387794747236475 -4.513218333990719
0.8133168530786862 -4.487809012631697
0.8843967851154045 -4.421732381421894
0.9500601397599461 -4.31769963038333
1.0090731840723992 -4.17914974608894
1.0608706177355383 -4.00996899364299
1.1053605891895357 -3.814277094310945
1.1427491924745194 -3.5961818651981163
1.1734306426328984 -3.359620756768929
1.19791196529969 -3.108274893875156
1.2167741200103306 -2.8455181466051798
1.2306614291961968 -2.574349314556853
1.240296670612042 -2.297260920525698
1.2464978560333777 -2.0161661092899514
1.2501512686164902 -1.732437822686728
1.2521289471413368 -1.4470503623793032
1.2532028148005114 -1.1607015682028659
1.253892002672776 -0.873823243026846
1.2543457868804277 -0.5865666854981457
1.2546027673179907 -0.2987246853109224
1.2570879722695258 -0.006289764874071785
0.2929335352440791 -0.00763412740539198
0.29483002517300605 -0.2988067113186206
0.29499716063934767 -0.5865761943332558
0.2953444798309904 -0.8738735691868804
0.2959178498643126 -1.1607844045953386
0.2967916956986239 -1.4472254553988655
0.29837472294582235 -1.7328559734400686
0.30133881258762607 -2.0170374583349844
0.30649194904819366 -2.2988031088076926
0.3146152313899644 -2.5767656968917714
0.32641518515097134 -2.8489870251576686
0.3425013555062158 -3.112951640135884
0.36341213095922487 -3.3656458602946793
0.38964131939922925 -3.6036834253666576
0.4216337600626563 -3.8233645443710755
0.45974967397474303 -4.02072160342619
0.504219596091055 -4.191596348687952
0.5550412048570841 -4.331783857096041
0.6118178849958916 -4.4372659580946765
0.6735915571724471 -4.504434763165651
0.7387794747236314 -4.530423794478866
0.8039673922748107 -4.504434763165498
0.8657410644513517 -4.437265958094368
0.9225177445901378 -4.331783857095595
0.9733393533561401 -4.191596348687398
1.0178092754724217 -4.020721603425559
1.055925189384477 -3.823364544370388
1.0879176300478728 -3.603683425365933
1.1141468184878471 -3.36564586029394
1.1350575939408278 -3.1129516401351527
1.1511437642960463 -2.848987025156967
1.1629437180570317 -2.576765696891116
1.171067000398785 -2.298803108807091
1.1762201368593401 -2.017037458334446
1.1791842265011359 -1.7328559734395985
1.1807672537483305 -1.4472254553984714
1.1816410995826405 -1.160784404595018
1.1822144696159624 -0.8738735691866363
1.1825617888076052 -0.5865761943330858
1.1827289242739467 -0.2988067113185259
1.1846254142028692 -0.0076341274053817
0.36518976529583574 -0.008717535036622051
0.36662079244590995 -0.2988729091944285
0.36673607201458747 -0.5865832047541241
0.3669962563781579 -0.8739109127099668
0.3674593447030804 -1.1608504182357613
0.36815960699463435 -1.4473545002838422
0.3693896106616992 -1.733164405018585
0.37171023794808694 -2.0177111881809915
0.3758300414319837 -2.3000440551831525
0.38245062899225757 -2.5787519170325677
0.3921652331924348 -2.851868870355845
0.40547274727318733 -3.1168574220982816
0.422808524579704 -3.3706917881830645
0.44457812669612734 -3.609978501628811
0.47116159712559474 -3.831006103034604
0.502889301601879 -4.029785430771804
0.5399957116526787 -4.2021223782130415
0.5825604040480626 -4.343748437109593
0.6303931982563556 -4.450541603036136
0.6828622218662546 -4.518751864612772
0.738779474723615 -4.5453701397991715
0.7946967275809714 -4.518751864612615
0.8471657511908578 -4.450541603035823
0.8949985453991328 -4.3437484371091415
0.9375632377944938 -4.202122378212481
0.9746696478452681 -4.029785430771167
1.0063973523215255 -3.8310061030339098
1.032980822750967 -3.609978501628079
1.0547504248673651 -3.370691788182318
1.0720862021738586 -3.1168574220975445
1.0853937162545897 -2.851868870355138
1.0951083204547487 -2.5787519170319078
1.1017289080150083 -2.3000440551825476
1.1058487114988949 -2.0177111881804515
1.1081693387852765 -1.733164405018114
1.109399342452338 -1.4473545002834476
1.1100996047438911 -1.1608504182354409
1.1105626930688135 -0.8739109127097227
1.110822877432384 -0.5865832047539541
1.1109381570010615 -0.29887290919433346
1.112369184151132 -0.00871753503660985
0.4372951404250731 -0.009580607175795206
0.4383533150818816 -0.29892672214750005
0.43843547946709976 -0.5865900641382157
0.43862205260685017 -0.8739368393802155
0.4389780022344255 -1.1609023535666718
0.4395252506010552 -1.447448394001647
0.44044375523488327 -1.733380708758326
0.44217550970436836 -2.0182028082702557
0.44530932918986177 -2.3009912298242114
0.45044935752560666 -2.580313151893167
0.45809714695074044 -2.8541676578615536
0.4686408351630989 -3.1199953737381807
0.48241402490924 -3.3747612569255945
0.4997351307709105 -3.6150693292468064
0.5209194088630403 -3.8372028064731762
0.546258210762257 -4.037159162794583
0.5759849072097603 -4.210719755792454
0.6102445864669235 -4.353578105820444
0.6490517880922051 -4.4615465992974
0.6921457969812754 -4.530762046322931
0.7387794747235986 -4.558075472594226
0.7854131524659186 -4.530762046322773
0.8285071613549783 -4.461546599297083
0.8673143629802448 -4.353578105819987
0.9015740422373895 -4.210719755791887
0.9313007386848721 -4.037159162793939
0.9566395405840667 -3.837202806472476
0.9778238186761758 -3.6150693292460687
0.9951449245378271 -3.3747612569248426
1.0089181142839494 -3.1199953737374386
1.019461802496291 -2.854167657860842
1.0271095919214102 -2.5803131518925033
1.0322496202571436 -2.3009912298236044
1.0353834397426294 -2.0182028082697143
1.0371151942121095 -1.7333807087578545
1.0380336988459355 -1.4474483940012521
1.0385809472125649 -1.1609023535663514
1.03893689684014 -0.8739368393799714
1.0391234699798904 -0.5865900641380457
1.0392056343651086 -0.2989267221474049
1.040263809021914 -0.009580607175781373
0.50928627316772 -0.010256193177237104
0.5100460482208666 -0.2989707286895876
0.5101034457169024 -0.5865972600714654
0.510223968756397 -0.8739525978650202
0.5104743441648155 -1.160940949516506
0.5108793008938153 -1.4475159068840806
0.5115312945884958 -1.733522823938771
0.5127322258996797 -2.018533651907963
0.5149470247040798 -2.301661179459213
0.5186599104945361 -2.5814598404891167
0.5242751565770998 -2.855892041191119
0.5320852070169052 -3.122373648911097
0.5423276305759718 -3.3778624667548813
0.5552313558677473 -3.6189635757220167
0.571041464032826 -3.8419612654260242
0.590011772366609 -4.042847049307251
0.6123680351008366 -4.2173868908003795
0.6382909029885983 -4.361259383381477
0.6679725553329462 -4.470256779623583
0.7015452678397982 -4.540444592337893
0.7387794747235816 -4.568535029600081
0.776013681607363 -4.5404445923377335
0.8095863941142067 -4.470256779623264
0.839268046458543 -4.361259383381018
0.8651909143462905 -4.217386890799809
0.8875471770805016 -4.042847049306603
0.9065174854142681 -3.841961265425319
0.922327593579331 -3.6189635757212755
0.9352313188710931 -3.3778624667541246
0.945473742430146 -3.122373648910351
0.9532837928699386 -2.8558920411904043
0.9588990389524916 -2.5814598404884497
0.9626119247429397 -2.3016611794586037
0.964826723547334 -2.0185336519074197
0.9660276548585147 -1.7335228239382987
0.966679648553194 -1.4475159068836858
0.9670846052821934 -1.1609409495161853
0.967334980690612 -0.8739525978647762
0.9674555037301065 -0.5865972600712952
0.9675129012261421 -0.29897072868949237
0.9682726762792866 -0.010256193177221911
0.5811860088084201 -0.010774887786918777
0.5817158762429584 -0.299007285004348
0.5817474130005347 -0.5866039519351655
0.5818054756382162 -0.8739591636986588
0.5819523080654261 -1.1609656755862314
0.5822158242536011 -1.447562331189726
0.5826360633286366 -1.7336098929202988
0.5833759010676496 -2.01873020919924
0.5847516395429544 -2.302079799512844
0.587117577217942 -2.5822121103807794
0.5907641495281867 -2.857057254342319
0.5958920536384874 -3.124006504694551
0.602651140825327 -3.3800098935852416
0.6111872164232981 -3.621675620082272
0.6216703953190285 -3.845293995831729
0.6343056447479684 -4.046859501669244
0.6493175006658043 -4.222131575482915
0.6669171031245505 -4.366785099790052
0.6873751368249883 -4.476638175071089
0.711190947411657 -4.547753010438455
0.7387794747235643 -4.576718216088826
0.7663680020354702 -4.547753010438295
0.790183812622134 -4.476638175070767
0.8106418463225634 -4.36678509978959
0.8282414487812989 -4.222131575482342
0.8432533046991236 -4.046859501668593
0.8558885541280525 -3.845293995831021
0.866371733023773 -3.6216756200815277
0.8749078086217361 -3.3800098935844822
0.8816668958085667 -3.124006504693802
0.8867947999188589 -2.857057254341602
0.8904413722290968 -2.5822121103801106
0.8928073099040794 -2.3020797995122337
0.8941830483793808 -2.0187302091986963
0.8949228861183918 -1.7336098929198265
0.8953431251934266 -1.4475623311893313
0.8956066413816015 -1.160965675585911
0.8957534738088113 -0.8739591636984146
0.8958115364464927 -0.5866039519349953
0.8958430732040689 -0.29900728500425267
0.8963729406386058 -0.010774887786902543
0.653011166230842 -0.0111669460410143
0.6533736636470063 -0.2990392957921217
0.6533743878607963 -0.5866082782921397
0.653370680527196 -0.8739572731450209
0.653416751395495 -1.1609761091197308
0.6535349873335331 -1.4475887899264048
0.6537408283645658 -1.7336574601020527
0.6540896980469714 -2.0188252835662506
0.6547237109168464 -2.3022851733177765
0.6558465688812863 -2.5826039554235622
0.6576173405380726 -2.857691479305109
0.660141590930072 -3.1249185616404076
0.6634836763441806 -3.3812270632699173
0.6677156115696528 -3.6232294159247442
0.6729352046805923 -3.8472235037625424
0.6792852786017451 -4.049214496463998
0.6869759026286979 -4.224969809165095
0.6962793341920831 -4.370166955914116
0.707511547041598 -4.480661399218318
0.7212820835565192 -4.55260968014307
0.7387794747235465 -4.5825578992193785
0.7562768658905734 -4.552609680142909
0.7700474024054926 -4.480661399217995
0.7812796152550023 -4.3701669559136525
0.790583046818381 -4.22496980916452
0.7982736708453284 -4.049214496463345
0.8046237447664761 -3.847223503761832
0.8098433378774119 -3.623229415923998
0.8140752731028811 -3.3812270632691566
0.8174173585169859 -3.124918561639657
0.8199416089089812 -2.857691479304391
0.8217123805657645 -2.582603955422892
0.8228352385302022 -2.3022851733171654
0.8234692514000759 -2.018825283565707
0.8238181210824806 -1.7336574601015802
0.8240239621135131 -1.44758878992601
0.8241421980515512 -1.16097610911941
0.8241882689198502 -0.8739572731447769
0.82418456158625 -0.5866082782919695
0.8241852858000398 -0.2990392957920264
0.8245477832162031 -0.011166946040997274
0.7247798651219596 -0.01145881482707781
0.7250238247203938 -0.2990700933064347
0.7249895661213747 -0.5866081520574727
0.7249242910187526 -0.8739473652346434
0.7248720788749685 -1.160972282873639
0.7248450671895408 -1.4475945109083006
0.7248343405964155 -1.7336722963368574
0.724830183663794 -2.0188527166866352
0.7248284343320229 -2.3023376175274883
0.7248281853697452 -2.582702277402827
0.7248282175011826 -2.857855410515478
0.7248259943936706 -3.125164357592974
0.7248148749307353 -3.3815661861853186
0.7247935711481609 -3.623675329422995
0.724784616095679 -3.8477977732676973
0.7248708108700166 -4.0499541879904735
0.7252419107708453 -4.22593632695909
0.7262417381364845 -4.371446355370816
0.7283345525310698 -4.482355310673693
0.7320401082121095 -4.554935954730188
0.7387794747235282 -4.58593782947704
0.7455188412349472 -4.554935954730026
0.7492243969159867 -4.482355310673369
0.7513172113105702 -4.3714463553703515
0.7523170386762088 -4.225936326958514
0.7526881385770385 -4.04995418798982
0.7527743333513769 -3.847797773266987
0.7527653782988968 -3.6236753294222486
0.7527440745163244 -3.3815661861845574
0.7527329550533912 -3.125164357592223
0.75273073194588 -2.8578554105147593
0.7527307640773183 -2.5827022774021575
0.7527305151150413 -2.3023376175268777
0.7527287657832704 -2.0188527166860912
0.7527246088506492 -1.733672296336385
0.752713882257524 -1.4475945109079058
0.7526868705720963 -1.1609722828733182
0.7526346584283123 -0.8739473652343993
0.7525693833256902 -0.5866081520573025
0.752535124726671 -0.29907009330633944
0.7527790843251047 -0.011458814827060302
0.7965035878208999 -0.011676680145763065
0.7966651384467033 -0.2991010555393649
0.7965975765613804 -0.5866025576923447
0.7964716301314905 -0.8739296093723873
0.7963237700034517 -1.1609545560551036
0.7961537443107713 -1.4475792000652887
0.7959268602973447 -1.7336549210698025
0.795569310165208 -2.0188243846921217
0.7949324478295747 -2.302284892511051
0.7938096815154657 -2.5826039374981034
0.7920391108903005 -2.8576911713579727
0.7895087594543511 -3.124915469864032
0.786143796798514 -3.38121905020298
0.7818711413993429 -3.6232198756244545
0.7766393666328101 -3.847234128842882
0.770468956565949 -4.049304771298005
0.7635122803430855 -4.22525887076489
0.7561140594873523 -4.37084387061578
0.7487921449120885 -4.48193375754961
0.7422937656336017 -4.554846840917199
0.7387794747235091 -4.586944214526871
0.735265183813416 -4.554846840917039
0.7287668045349301 -4.481933757549287
0.7214448899596704 -4.370843870615316
0.7140466691039435 -4.225258870764315
0.7070899928810876 -4.049304771297353
0.7009195828142329 -3.847234128842172
0.6956878080477075 -3.623219875623709
0.6914151526485437 -3.3812190502022212
0.6880501899927141 -3.1249154698632817
0.6855198385567708 -2.857691171357255
0.6837492679316108 -2.5826039374974337
0.6826265016175052 -2.3022848925104404
0.6819896392818736 -2.018824384691577
0.6816320891497382 -1.7336549210693302
0.6814052051363119 -1.4475792000648942
0.6812351794436318 -1.1609545560547831
0.6810873193155931 -0.8739296093721431
0.6809613728857031 -0.5866025576921743
0.6808938110003803 -0.29910105553926974
0.6810553616261834 -0.011676680145745267
0.8681929373718756 -0.011841911698768692
0.8682994258123454 -0.29913080050627117
0.8682022486930309 -0.5865917798903513
0.8680182627707553 -0.8739041310273918
0.8677781580803062 -1.1609235321564815
0.8674687674392074 -1.447543288432999
0.8670275032727957 -1.7336044891056235
0.8662799922265106 -2.018728169868595
0.8649034044104579 -2.3020793689204235
0.8625387599407772 -2.5822122172244475
0.858891595315893 -2.857056192624263
0.85375684686659 -3.123999939938457
0.8469779377073575 -3.3799939344494523
0.8384094720792403 -3.6216575851491344
0.8279252807184868 -3.8453179891904443
0.8154744885169058 -4.047044590411537
0.8011664942362609 -4.222709030804552
0.7853314541128827 -4.368112493583774
0.7685874051555768 -4.479188815901736
0.7522010900652499 -4.552462531349007
0.738779474723491 -4.585756173238124
0.725357859381732 -4.552462531348846
0.7089715442914082 -4.479188815901415
0.6922274953341099 -4.368112493583312
0.6763924552107432 -4.222709030803981
0.6620844609301119 -4.047044590410888
0.6496336687285431 -3.8453179891897364
0.639149477367802 -3.6216575851483914
0.6305810117396978 -3.3799939344486956
0.6238021025804777 -3.123999939937709
0.6186673541311858 -2.8570561926235465
0.6150201895063113 -2.5822122172237796
0.612655545036637 -2.3020793689198134
0.611278957220588 -2.018728169868051
0.6105314461743054 -1.7336044891051516
0.6100901820078942 -1.447543288432604
0.6097807913667957 -1.1609235321561613
0.609540686676347 -0.8739041310271476
0.6093567007540714 -0.586591779890181
0.6092595236347569 -0.299130800506176
0.6093660120752267 -0.011841911698750686
0.9398655265942352 -0.011965169229708462
0.9399313656723903 -0.2991576478718741
0.9398082618930924 -0.5865764167102816
0.939569733993639 -0.8738712736036418
0.9392412377194284 -1.160880036662906
0.9387974657512915 -1.4474875252816173
0.9381261034972523 -1.7335139111144715
0.936920612338931 -2.0185309070134068
0.9347080715132213 -2.301661111733627
0.9309964823151242 -2.5814599755938556
0.9253793369008051 -2.8558899363080608
0.9175631524493663 -3.122364143152735
0.9073094027609205 -3.3778409440866137
0.8943925350732183 -3.6189409267931643
0.8786008211844175 -3.842000881629178
0.8597988258100018 -4.043119547592484
0.8380282787056237 -4.218221280825604
0.81363048290696 -4.363182443242434
0.7874644113093767 -4.474074343838483
0.7612909817133473 -4.547677022757511
0.7387794747234733 -4.582445609209116
0.7162679677336006 -4.547677022757351
0.6900945381375764 -4.474074343838163
0.6639284665400038 -4.363182443241975
0.6395306707413564 -4.218221280825037
0.6177601236369967 -4.043119547591838
0.5989581282625989 -3.842000881628474
0.583166414373816 -3.618940926792425
0.5702495466861323 -3.377840944085861
0.5599957969977037 -3.122364143151991
0.5521796125462807 -2.855889936307348
0.5465624671319749 -2.58145997559319
0.542850877933888 -2.3016611117330186
0.5406383371081842 -2.0185309070128636
0.5394328459498663 -1.7335139111139994
0.5387614836958287 -1.4474875252812225
0.5383177117276924 -1.1608800366625858
0.5379892154534819 -0.8738712736033976
0.5377506875540287 -0.5865764167101113
0.5376275837747309 -0.299157647871779
0.5376934228528859 -0.011965169229690266
1.011535180049072 -0.012053146586913515
1.011567118693024 -0.2991801073885323
1.0114201814064392 -0.5865568849654397
1.0111307725919227 -0.8738315919524006
1.0107182648808484 -1.1608251246104575
1.0101414537285915 -1.4474107429168874
1.0092074931008674 -1.7333684791791986
1.0074767820791624 -2.018200525690898
1.0043464964439475 -2.300991755394886
0.9992067560381862 -2.5803129958633315
0.9915557755773942 -2.8541643463887865
0.9810083141287934 -3.1199842300119838
0.9672372253775952 -3.3747386319951183
0.9499325322058674 -3.61504901961388
0.928794355164999 -3.837260004331351
0.9035899504315608 -4.037499989036616
0.8742858471307379 -4.211758388812179
0.8412778748152766 -4.356030354535946
0.8057146575942083 -4.466589862327338
0.7700305707188355 -4.5405816136496995
0.738779474723456 -4.577118477882746
0.7075283787280789 -4.54058161364954
0.6718442918527142 -4.466589862327021
0.6362810746316602 -4.35603035453549
0.6032731023162187 -4.211758388811616
0.5739689990154188 -4.037499989035974
0.5487645942820037 -3.8372600043306515
0.5276264172411587 -3.615049019613145
0.5103217240694546 -3.3747386319943704
0.4965506353182787 -3.1199842300112444
0.48600317386969794 -2.854164346388078
0.47835219340892343 -2.580312995862669
0.47321245300317527 -2.30099175539428
0.47008216736796865 -2.0182005256903564
0.46835145634626896 -1.7333684791787272
0.46741749571854707 -1.447410742916493
0.46684068456629096 -1.1608251246101373
0.4664281768552169 -0.8738315919521564
0.46613876804070076 -0.5865568849652694
0.465991830754116 -0.2991801073884372
0.4660237693980678 -0.012053146586895186
1.083210393191787 -0.012111861801337139
1.0832131286696043 -0.29919692090877975
1.0830432512902188 -0.5865333910730408
1.0827064938267754 -0.87378577767035
1.0822150812475149 -1.1607599406395557
1.0814974943542572 -1.447308726068913
1.0802602047219427 -1.7331503597247377
1.0779430997567576 -2.0177101543959646
1.073826612893425 -2.3000450134825856
1.0672048444708728 -2.5787511088608137
1.0574864606453698 -2.8518644298417253
1.0441791603488733 -3.116846562141751
1.0268617954954742 -3.3706739549575166
1.0051431740297339 -3.609969744151032
0.9786398242800532 -3.831083425885656
0.9470195542277127 -4.030172149119924
0.9101856878982609 -4.203308896304635
0.8686003247488265 -4.346654492980147
0.8237491717051418 -4.456766309481975
0.7787148735887108 -4.531230344435224
0.7387794747234391 -4.569794227529941
0.6988440758581701 -4.531230344435066
0.65380977774175 -4.456766309481661
0.6089586246980832 -4.346654492979697
0.5673732615486724 -4.203308896304078
0.530539395219248 -4.030172149119289
0.4989191251669361 -3.831083425884963
0.47241577541728386 -3.6099697441503036
0.45069715395157245 -3.3706739549567746
0.43337978909820085 -3.116846562141017
0.4200724888017288 -2.851864429841022
0.41035410497624697 -2.5787511088601556
0.4037323365537106 -2.300045013481982
0.3996158496903892 -2.0177101543954246
0.3972987447252109 -1.733150359724267
0.3960614550928999 -1.447308726068519
0.39534386819964307 -1.1607599406392353
0.39485245562038285 -0.8737857776701058
0.3945156981569398 -0.5865333910728705
0.3943458207775544 -0.2991969209086846
0.39434855625537174 -0.012111861801318723
1.1548969237422617 -0.012147056881457941
1.1548750235997653 -0.29920730851296595
1.1546830502842733 -0.5865059605569509
1.1543017752228817 -0.8737346217000416
1.1537337834666102 -1.1606844001839496
1.1528588122108208 -1.4471739162076613
1.151276722978929 -1.7328417659953523
1.1483168846495873 -2.0170376426456587
1.1431651825560336 -2.2988041400982957
1.1350393121761961 -2.576763963266475
1.1232360408201336 -2.8489818698585965
1.1071558316062913 -3.11294341619004
1.086279869899933 -3.365638934172201
1.060133353958834 -3.6036959444754615
1.0282607543919948 -3.8234676827096337
0.9902622124002513 -4.021139896749657
0.9459788143635801 -4.192883780980292
0.8959303809261708 -4.33507508652663
0.8419066392863149 -4.44462932453199
0.7875422532978218 -4.519626998894351
0.7387794747234222 -4.560438780143754
0.6900166961490264 -4.519626998894195
0.635652310160547 -4.44462932453168
0.5816285685207124 -4.335075086526184
0.5315801350833302 -4.192883780979743
0.4872967370466914 -4.02113989674903
0.44929819505498114 -3.8234676827089484
0.41742559548817576 -3.603695944474741
0.39127907954711083 -3.3656389341714665
0.3704031178407845 -3.1129434161893124
0.35432290862697113 -2.8489818698578997
0.34251963727093343 -2.576763963265822
0.334393766891115 -2.2988041400976957
0.32924206479757473 -2.017037642645121
0.3262822264682418 -1.732841765994883
0.32470013723635427 -1.4471739162072672
0.3238251659805665 -1.1606844001836294
0.32325717422429556 -0.8737346216997975
0.32287589916290405 -0.5865059605567805
0.3226839258474122 -0.2992073085128708
0.32266202570491587 -0.012147056881439453
1.226598487968475 -0.012164409200080743
1.2265574652612903 -0.2992110259642127
1.2263452705695483 -0.5864746050658204
1.2259216901069874 -0.8736787996663867
1.2252759754149907 -1.1605973890110854
1.2242195300291236 -1.4469968260541908
1.2222484828299944 -1.732424469556142
1.2185973208027459 -2.016166905036347
1.2123949438287873 -2.2972615483184398
1.202755951006381 -2.574346559494258
1.1888671313564467 -2.8455130893405207
1.1700179993729931 -3.1082718560899765
1.1455856707485652 -3.3596298867117764
1.1150104393910898 -3.596224130499047
1.0777831859926923 -3.814416726623668
1.03347346917164 -4.0104226455131515
0.9819009953536498 -4.180517615329144
0.9235896384242621 -4.321327637510614
0.8605006765682258 -4.430187888903414
0.7966941346048882 -4.505731745927879
0.7387794747234057 -4.548974641235086
0.6808648148419272 -4.505731745927725
0.6170582728786053 -4.430187888903108
0.5539693110225945 -4.3213276375101755
0.49565795409323793 -4.180517615328604
0.4440854802752849 -4.0104226455125325
0.3997757634542707 -3.8144167266229916
0.3625485100559124 -3.596224130498335
0.33197327869847554 -3.359629886711051
0.3075409500740847 -3.1082718560892575
0.28869181809066435 -2.8455130893398306
0.27480299844075845 -2.574346559493611
0.26516400561837383 -2.2972615483178442
0.258961628644431 -2.0161669050358118
0.2553104666171932 -1.7324244695556739
0.25333941941806964 -1.4469968260537975
0.2522829740322047 -1.1605973890107657
0.2516372593402085 -0.8736787996661426
0.2512136788776477 -0.5864746050656499
0.25100148418590584 -0.2992110259641176
0.2509604614787213 -0.012164409200062214
1.2983167313107933 -0.012169649101547839
1.2982640559815288 -0.2992084423758164
1.2980360457244848 -0.5864394826032684
1.2975717114082934 -0.8736188578808469
1.2968408211178157 -1.1604955959273164
1.2955727517749547 -1.4467653962400566
1.2931673127816432 -1.731882955636252
1.2888061978744545 -2.015090859725699
1.2815455011075563 -2.2954139623501435
1.2704000744105743 -2.571498136977591
1.2544414646158684 -2.8414591757840233
1.232842692471749 -3.1028332798695053
1.2048744920569072 -3.352647650615122
1.1698887608177133 -3.5875550199676596
1.1273282214790097 -3.803937506885059
1.076787768113285 -3.998050186931562
1.018141216720613 -4.166269806427101
0.9518790640721634 -4.305465781665076
0.8798621923442232 -4.4134384052426165
0.8064018015522861 -4.489462072993348
0.7387794747233888 -4.5352715996750375
0.6711571478944962 -4.489462072993197
0.597696757102577 -4.4134384052423155
0.5256798853746663 -4.305465781664645
0.4594177327262525 -4.16626980642657
0.4007711813336224 -3.9980501869309526
0.350230727967941 -3.803937506884392
0.30767018862928114 -3.587555019966958
0.272684457390131 -3.352647650614407
0.24471625697533092 -3.1028332798687948
0.22311748483124932 -2.8414591757833416
0.20715887503657504 -2.5714981369769503
0.19601344833961723 -2.295413962349553
0.18875275157273735 -2.0150908597251678
0.18439163666556102 -1.7318829556357858
0.18198619767225646 -1.4467653962396643
0.18071812832939813 -1.1604955959269967
0.17998723803892105 -0.8736188578806028
0.17952290372273 -0.586439482603098
0.17929489346568622 -0.2992084423757213
0.17924221813642194 -0.0121696491015293
1.370050608583881 -0.012168577602208748
1.369997254026384 -0.2992007408132809
1.3697625645444864 -0.5864012032771855
1.3692573370218868 -0.8735543618878703
1.368424799144282 -1.1603737755345673
1.3669094934070902 -1.446465201787251
1.3640401284881123 -1.7312077609332948
1.3589587226468463 -2.0138062380293493
1.3506467687379717 -2.2932617311648325
1.338017245689112 -2.5682223997758573
1.3200208385901586 -2.8368252962782194
1.2957088144636013 -3.0966334918108926
1.2642402766606733 -3.344697650834417
1.2248800620341853 -3.5776941503195436
1.1770355934080485 -3.792040535998177
1.1203389108600506 -3.98405153925274
1.0547942321544177 -4.150209519021746
0.980981782511096 -4.287587089785656
0.9004755314782238 -4.394392726815881
0.817036289428066 -4.4706763809043215
0.7387794747233715 -4.519117867673864
0.6605226600186829 -4.470676380904174
0.5770834179685453 -4.394392726815586
0.4965771669357062 -4.287587089785234
0.42276471729242576 -4.1502095190212245
0.3572200385868393 -3.9840515392521425
0.3005233560388906 -3.7920405359975216
0.25267888741280264 -3.577694150318853
0.21331867278636307 -3.344697650833713
0.1818501349834815 -3.0966334918101928
0.15753811085696576 -2.836825296277546
0.1395417037580472 -2.5682223997752245
0.12691218070921487 -2.293261731164247
0.11860022680036043 -2.0138062380288217
0.11351882095910847 -1.731207760932831
0.11064945604013844 -1.4464652017868593
0.10913415030295041 -1.160373775534248
0.10830161242534658 -0.8735543618876264
0.10779638490274732 -0.5864012032770152
0.10756169542084974 -0.2992007408131859
0.10750834086335297 -0.012168577602190212
1.4417950500014172 -0.012166879922426061
1.441758228079869 -0.29919048051681624
1.4415344329477717 -0.5863610812088308
1.4409831359536387 -0.8734828053061694
1.4400217568964604 -1.1602227629002386
1.438226691291915 -1.4460859238173072
1.4348762158040749 -1.7303935974145943
1.4290718448941038 -2.0123124607633223
1.4197285299191853 -2.2908094091903033
1.4056530915563548 -2.564527311911168
1.3856687759627335 -2.831621107390135
1.3586942594833986 -3.0896819024570874
1.3237762103372641 -3.33578976989421
1.2801054820981792 -3.56665425175609
1.2270510334626636 -3.7787412823959867
1.164277144490714 -3.96844802925789
1.0919273370746045 -4.132386357007584
1.0108278504571022 -4.267812882508268
0.9226210247492355 -4.373214695704359
0.8299338620337262 -4.449199242272699
0.7387794747233539 -4.499999999999992
0.6476250874129877 -4.449199242272554
0.5549379246975009 -4.373214695704071
0.46673109898967224 -4.267812882507857
0.385631612372217 -4.132386357007074
0.31328180495615876 -3.968448029257305
0.2505079159842636 -3.7787412823953437
0.19745346734880254 -3.5666542517554123
0.15378273910977067 -3.3357897698935184
0.11886468996368706 -3.0896819024563995
0.09189017348439826 -2.831621107389472
0.0719058578908146 -2.564527311910543
0.05783041952801395 -2.2908094091897246
0.048487104553117916 -2.0123124607627996
0.04268273364316241 -1.7303935974141333
0.039332258155331416 -1.4460859238169168
0.03753719255079042 -1.1602227628999195
0.03657581349361334 -0.8734828053059255
0.036024516499480796 -0.5863610812086606
0.03580072136738386 -0.29919048051672126
0.035763899445835745 -0.01216687992240752
SCALARS Stress float 6
LOOKUP_TABLE default
-1305.6493639232076 -2111.6896979823473 -1632.9915416371064 -30.239061227463697 0.0 0.0
1393.1373610614994 822.3508478676096 1050.6264534516647 -19.519718902757923 0.0 0.0
640.2846360338599 180.53859285432702 269.75582320743734 -42.56485438869997 0.0 0.0
507.5316983869782 35.853006700836886 170.86024212076356 -0.5647103007661392 0.0 0.0
638.7676111783975 90.17708409506997 271.2056142008548 3.3525251270510688 0.0 0.0
769.0058836726339 147.84801785694935 408.14946870177926 1.7175919589331188 0.0 0.0
907.0021070137986 210.09429699619673 536.202144400672 0.26735973819438974 0.0 0.0
1050.2047565007827 290.30781516309884 656.9124841418917 -1.2524146214150806 0.0 0.0
1204.3123146601067 386.9497941978093 784.1433267141736 -3.063848050316493 0.0 0.0
1377.278087446859 507.23425423049014 930.9492031483054 -5.043517071629287 0.0 0.0
1574.8114572987379 656.5535965977347 1104.0634227607602 -6.880334382854812 0.0 0.0
1796.6098202629287 834.865850305057 1303.6908310895099 -8.247569977892104 0.0 0.0
2036.6972688359142 1034.9417978556226 1523.3289539343946 -9.081173748396518 0.0 0.0
2287.151341512902 1248.6573605113442 1754.9957640021717 -9.71079582234832 0.0 0.0
2537.9220476206656 1465.7803809899362 1988.544530186939 -10.096916343133813 0.0 0.0
2777.2358366637877 1674.564107023001 2212.241338406743 -10.132840591530018 0.0 0.0
2992.690833424383 1862.9514668098914 2413.8935906775814 -9.652444957606445 0.0 0.0
3172.2478928624228 2019.3609670426727 2581.700404284728 -8.645048223354983 0.0 0.0
3315.4058278010198 2143.7878561504594 2715.2686231336606 -7.625762286954842 0.0 0.0
3406.859020211803 2221.7273454205792 2799.67829483171 -10.42299044717876 0.0 0.0
3398.564564361499 2212.8232082442296 2791.23063607557 2.241229424271296e-11 0.0 0.0
3406.859020210864 2221.727345419676 2799.6782948308996 10.422990447280016 0.0 0.0
3315.4058277950094 2143.787856144501 2715.268623128966 7.625762287132449 0.0 0.0
3172.247892860724 2019.3609670410406 2581.700404283216 8.645048223535563 0.0 0.0
2992.690833422972 1862.9514668086154 2413.8935906759098 9.652444957884416 0.0 0.0
2777.235836661175 1674.5641070205165 2212.241338404501 10.132840591418368 0.0 0.0
2537.922047618699 1465.780380988131 1988.5445301850987 10.096916343049106 0.0 0.0
2287.1513415112663 1248.6573605099015 1754.9957640007704 9.710795822369441 0.0 0.0
2036.6972688355738 1034.9417978555193 1523.3289539338357 9.081173748608034 0.0 0.0
1796.609820261496 834.8658503038455 1303.6908310883537 8.247569977812425 0.0 0.0
1574.8114572976597 656.5535965969434 1104.0634227597025 6.88033438295424 0.0 0.0
1377.2780874460354 507.23425422991926 930.9492031475764 5.043517071696634 0.0 0.0
1204.3123146593323 386.9497941973201 784.1433267134796 3.0638480501974 0.0 0.0
1050.2047564998586 290.3078151624452 656.9124841411686 1.2524146213335285 0.0 0.0
907.0021070130477 210.0942969957506 536.202144400001 -0.2673597382014741 0.0 0.0
769.0058836724631 147.84801785710707 408.14946870142916 -1.7175919587859223 0.0 0.0
638.7676111780722 90.17708409505335 271.2056142004923 -3.3525251269843004 0.0 0.0
507.5316983869748 35.85300670123279 170.86024212081 0.564710300677282 0.0 0.0
640.284636033301 180.53859285392 269.75582320708173 42.56485438859248 0.0 0.0
1393.1373610611167 822.3508478672062 1050.6264534511954 19.51971890292468 0.0 0.0
-1305.64936392025 -2111.689697979534 -1632.9915416342844 30.23906122672617 0.0 0.0
-1662.5161457253835 -2440.260959653641 -1945.4881903194025 -32.97037296687678 0.0 0.0
950.9345837077367 453.3693492241912 661.305943606418 -27.17072852921512 0.0 0.0
448.64381403091215 70.6311365793206 155.13179499505634 -37.38187769284937 0.0 0.0
446.54781368547975 8.860842194768601 140.03170646934063 -15.537619738585345 0.0 0.0
564.5405957477967 40.83468257153693 216.66490673787908 -17.167487513001102 0.0 0.0
670.4938606917294 59.134513523484024 319.45277530223757 -23.223722741341767 0.0 0.0
762.0049300006665 80.33003012800012 408.2043069192236 -24.51868011995655 0.0 0.0
849.2845730272973 102.98602432832149 473.20645836557605 -24.820103483563113 0.0 0.0
928.3313744678242 124.02085232812118 525.0419274199762 -25.580198654031644 0.0 0.0
1000.6884969308787 144.01713643542848 571.6148690312887 -26.518847093923267 0.0 0.0
1069.6297077394495 165.44186060294808 616.8945175769305 -27.054574206242258 0.0 0.0
1137.6523023321527 189.95242786952593 663.1840668579176 -27.08644351142812 0.0 0.0
1204.3597621988536 217.65149431839808 710.4061879601063 -26.70553865921612 0.0 0.0
1267.1579812245777 244.18333972868768 755.0845988725839 -26.122599186375442 0.0 0.0
1320.7904542120416 264.64497979166333 792.1483871094578 -25.33038550123961 0.0 0.0
1361.0131623236766 274.7504075032196 817.332222800788 -24.082360641983477 0.0 0.0
1385.3214908012378 272.2167120469196 828.2333833006335 -22.143817254769765 0.0 0.0
1394.1926152876413 257.9653812621472 825.5459313888522 -19.63505145901575 0.0 0.0
1380.6113750646161 225.7164861997319 802.747106749094 -17.48154479258162 0.0 0.0
1296.0604998675237 128.2153705639257 712.4401877771547 -18.711999172819162 0.0 0.0
1157.4719513765003 -10.083201939136217 575.0829513891115 -1.9898749314961606e-11 0.0 0.0
1296.0604998657734 128.21537056217136 712.4401877758797 18.71199917280081 0.0 0.0
1380.611375062989 225.7164861981973 802.7471067478639 17.481544792535686 0.0 0.0
1394.1926152879432 257.9653812625509 825.5459313892005 19.635051459067647 0.0 0.0
1385.3214908014352 272.21671204723356 828.2333833009345 22.143817254980615 0.0 0.0
1361.0131623230452 274.75040750270153 817.3322228002803 24.082360641834157 0.0 0.0
1320.7904542121232 264.64497979190935 792.1483871095412 25.330385501150403 0.0 0.0
1267.1579812236869 244.1833397279747 755.0845988719904 26.122599186284177 0.0 0.0
1204.3597621996746 217.65149431949504 710.406187960663 26.705538659556517 0.0 0.0
1137.6523023316777 189.95242786925263 663.1840668577587 27.086443511390478 0.0 0.0
1069.6297077393288 165.44186060311233 616.894517576838 27.05457420632994 0.0 0.0
1000.6884969300519 144.01713643483757 571.614869030779 26.518847093975666 0.0 0.0
928.3313744679981 124.02085232858727 525.04192742005 25.58019865399052 0.0 0.0
849.2845730268853 102.98602432818231 473.20645836528826 24.82010348353196 0.0 0.0
762.0049300007107 80.33003012838152 408.2043069191359 24.518680119961388 0.0 0.0
670.493860691516 59.134513523598784 319.45277530192016 23.223722741252423 0.0 0.0
564.5405957471535 40.83468257112369 216.664906737401 17.167487513002097 0.0 0.0
446.54781368529143 8.860842194968791 140.03170646933182 15.537619738541718 0.0 0.0
448.64381403066045 70.63113657918225 155.13179499495044 37.38187769283606 0.0 0.0
950.934583707194 453.36934922367215 661.3059436057594 27.170728529184096 0.0 0.0
-1662.5161457234683 -2440.2609596516854 -1945.4881903173582 32.97037296630584 0.0 0.0
-1401.4586863225506 -2144.14303272176 -1657.1879705095112 -71.41408884638236 0.0 0.0
771.5948689060009 361.0828351253908 518.457420873736 -95.17419091695491 0.0 0.0
310.32930616997015 80.84904036442643 117.41109570998725 -41.58227415009603 0.0 0.0
383.5157905143769 2.7664725121068408 116.20812399157674 -37.414688754410015 0.0 0.0
519.26979140598 30.660580399792345 185.1841855476407 -39.69879371822595 0.0 0.0
636.5280773018343 53.12692841867793 287.5588937541697 -43.511262924713265 0.0 0.0
731.4772064208073 74.49007286890269 384.2163784827156 -45.28721651278445 0.0 0.0
818.1133311709177 93.15153918238141 451.1962281864669 -46.14427127042593 0.0 0.0
893.7552542924896 110.28745509506595 500.49320498028504 -47.66908255691962 0.0 0.0
962.067966937715 126.26021659982045 543.1311324147222 -48.97678074520511 0.0 0.0
1027.7409363872844 144.93652312413178 585.3967663091348 -49.3318489101305 0.0 0.0
1092.9199689726365 167.7595640777605 629.4293791810403 -48.840446285940516 0.0 0.0
1157.0905470452549 192.78277493356444 674.0675328020079 -47.933665030663676 0.0 0.0
1216.7622146904384 217.3244724242504 716.2019843297436 -46.72778461973093 0.0 0.0
1268.963313414901 236.87120474164595 752.0850040661834 -45.1685313043013 0.0 0.0
1309.591846877045 247.75393702345602 777.8465851756825 -42.945310751686215 0.0 0.0
1335.989262420506 247.44563136814173 790.9131909381473 -39.74985121311881 0.0 0.0
1343.5531231945358 231.84743876006783 786.9881772015428 -35.905068509628684 0.0 0.0
1317.7002836085137 187.3822991788133 752.1147531686784 -32.5484519443579 0.0 0.0
1270.664815290886 127.71546857594484 699.1219371338541 -30.836123205184332 0.0 0.0
1111.8912866459332 -29.99857949915581 542.1023852638589 -8.258993489107525e-11 0.0 0.0
1270.6648152893877 127.7154685745181 699.1219371326871 30.836123205292214 0.0 0.0
1317.7002836091801 187.3822991795475 752.1147531692312 32.54845194451169 0.0 0.0
1343.5531231950472 231.84743876067347 786.9881772020826 35.90506850976634 0.0 0.0
1335.989262419605 247.4456313673521 790.9131909377185 39.74985121309518 0.0 0.0
1309.5918468768596 247.75393702336436 777.8465851755628 42.945310751632796 0.0 0.0
1268.9633134151816 236.87120474209405 752.0850040663927 45.16853130427829 0.0 0.0
1216.7622146897313 217.32447242375622 716.2019843292545 46.727784619720204 0.0 0.0
1157.090547045566 192.78277493411514 674.0675328022505 47.93366503090773 0.0 0.0
1092.9199689727723 167.75956407814348 629.4293791812329 48.84044628594804 0.0 0.0
1027.7409363870986 144.93652312417728 585.3967663089734 49.3318489101458 0.0 0.0
962.0679669364332 126.26021659877804 543.1311324139326 48.97678074510378 0.0 0.0
893.7552542924028 110.28745509529065 500.49320498021416 47.66908255701528 0.0 0.0
818.1133311702577 93.15153918200139 451.19622818602244 46.144271270510444 0.0 0.0
731.4772064209221 74.49007286937231 384.2163784826828 45.28721651274115 0.0 0.0
636.5280773011169 53.12692841817127 287.5588937535107 43.51126292457663 0.0 0.0
519.2697914054032 30.660580399482125 185.18418554727387 39.69879371809233 0.0 0.0
383.5157905141112 2.7664725119856945 116.20812399146894 37.41468875446631 0.0 0.0
310.3293061697346 80.84904036398915 117.4110957097812 41.5822741500549 0.0 0.0
771.5948689054056 361.0828351253074 518.4574208731897 95.17419091689982 0.0 0.0
-1401.4586863203172 -2144.143032719538 -1657.1879705072638 71.41408884602933 0.0 0.0
-1151.2750177777966 -1863.2391040464627 -1386.1280081006805 -85.20631762882937 0.0 0.0
591.7931310633396 265.7826457622367 385.3270239128589 -145.88281160822956 0.0 0.0
224.08057486197174 67.23631236087796 87.39506616685492 -62.90371854448361 0.0 0.0
318.8597013652307 8.418646743576396 97.93310190326288 -60.53432460624005 0.0 0.0
463.38494875183494 18.360440685259878 153.19629397407638 -64.80404597833667 0.0 0.0
590.4487291883738 45.59323351083684 250.06020476787882 -65.00286979058659 0.0 0.0
697.2596739324915 66.79658072353374 354.36715571513525 -67.35910708512755 0.0 0.0
782.0767483031483 83.50047650734238 425.7025125288051 -67.63657387102205 0.0 0.0
855.0503434316281 96.83299784794576 473.7273834647811 -69.33596633382454 0.0 0.0
919.6936283789191 109.13763863524092 512.980334471671 -70.62670339291745 0.0 0.0
981.7179230259097 124.70693951328207 551.8798040295362 -70.65288135450527 0.0 0.0
1044.0876988922553 144.92939280274635 593.2131604247186 -69.75564411401952 0.0 0.0
1105.2400013885058 168.20017299566314 635.4998424505769 -68.32414022989303 0.0 0.0
1162.27940299166 189.84334517961298 674.8782689547854 -66.58817820898615 0.0 0.0
1212.689535886797 208.28088817373015 709.30115555272 -64.32901593004948 0.0 0.0
1254.2859276173342 220.6492921947388 736.2869027897125 -61.27906217121973 0.0 0.0
1282.274261477289 221.82779741010418 750.9194310333668 -57.27784583993717 0.0 0.0
1288.848817510577 205.05162658677096 745.9841420762305 -52.56928156647187 0.0 0.0
1270.6509658416255 167.97998059064406 718.5931137847978 -47.44897413031446 0.0 0.0
1243.051087845556 127.09038180713097 684.5479562081857 -41.28800497111888 0.0 0.0
1021.5103216921907 -92.8429448142214 465.6983494146623 -3.6770586575585185e-11 0.0 0.0
1243.0510878453365 127.09038180692025 684.5479562079059 41.28800497115045 0.0 0.0
1270.6509658414043 167.97998059051395 718.5931137846765 47.44897413026824 0.0 0.0
1288.8488175103432 205.05162658660225 745.9841420761868 52.56928156662292 0.0 0.0
1282.2742614764256 221.827797409368 750.9194310326172 57.277845839817914 0.0 0.0
1254.2859276179815 220.64929219553142 736.2869027902766 61.27906217126047 0.0 0.0
1212.6895358859736 208.28088817304655 709.3011555521898 64.3290159300274 0.0 0.0
1162.2794029918255 189.84334518000716 674.8782689548291 66.58817820909306 0.0 0.0
1105.2400013890447 168.20017299644653 635.4998424509657 68.32414022995428 0.0 0.0
1044.087698891647 144.92939280235316 593.2131604243449 69.75564411409823 0.0 0.0
981.7179230247184 124.70693951220616 551.8798040287083 70.65288135422755 0.0 0.0
919.6936283775929 109.13763863412545 512.9803344708687 70.62670339274008 0.0 0.0
855.0503434316985 96.83299784835198 473.7273834648158 69.33596633389473 0.0 0.0
782.0767483029679 83.50047650755928 425.7025125286586 67.6365738712338 0.0 0.0
697.2596739321269 66.79658072342424 354.367155714713 67.35910708497629 0.0 0.0
590.4487291876796 45.59323351049723 250.06020476731703 65.00286979061778 0.0 0.0
463.3849487519819 18.36044068606105 153.19629397426678 64.80404597829124 0.0 0.0
318.8597013650316 8.418646743293403 97.9331019031213 60.53432460618737 0.0 0.0
224.0805748619988 67.23631236081363 87.39506616684372 62.903718544335696 0.0 0.0
591.7931310627315 265.78264576207033 385.32702391231203 145.8828116083158 0.0 0.0
-1151.275017776023 -1863.2391040446566 -1386.1280080987397 85.20631762855916 0.0 0.0
-932.5823512635121 -1618.912152687997 -1147.3184912456181 -83.628670392327 0.0 0.0
458.7271059249899 180.27400413483332 280.2050534539043 -179.03190593031866 0.0 0.0
163.60343923984598 51.96273131326032 64.66985116593187 -93.77116114759146 0.0 0.0
259.35875145948785 14.702865092718827 82.1949418594583 -85.7354908284508 0.0 0.0
397.45764823072295 10.477269620848611 124.44991798134696 -91.41489165256618 0.0 0.0
534.7435964053325 32.71832431756211 207.73899485714355 -90.19027691791969 0.0 0.0
651.8515921369386 57.80209376868494 315.83854124937585 -89.69702472494444 0.0 0.0
740.2305988815689 74.41622603630725 395.92226280134577 -89.52557208955132 0.0 0.0
811.6078638903496 83.99671222915612 444.320533198716 -90.50232112494423 0.0 0.0
872.6532083504305 92.38381663660385 480.4793515869357 -91.43315161986854 0.0 0.0
931.3306433670296 104.59777677979812 516.0897775880701 -91.0420149301252 0.0 0.0
990.3693975529554 122.0237299937346 554.3774466103577 -89.73241462634131 0.0 0.0
1048.6149041894357 142.4632222138955 593.8207732192245 -87.94507415777205 0.0 0.0
1102.934710777438 162.78345453268864 631.2089493915126 -85.65753977104157 0.0 0.0
1151.6682026343713 179.5607159144651 663.9708836992606 -82.74430477597659 0.0 0.0
1192.9845976158979 191.489327880015 690.580771770271 -79.12341471736758 0.0 0.0
1223.0581625858088 195.08798656950043 707.4803434224759 -74.6851325286807 0.0 0.0
1235.2378132247482 183.64826755072914 708.0276701880445 -69.30625147286484 0.0 0.0
1226.3420161745512 155.06213641686253 689.5120096620825 -62.171465351625315 0.0 0.0
1208.0108492724405 121.92685246341395 663.925925794636 -51.97701914224823 0.0 0.0
909.7472561929707 -174.0009255956607 369.63608724543604 5.736389141475229e-11 0.0 0.0
1208.0108492713807 121.92685246234447 663.9259257941758 51.977019142336644 0.0 0.0
1226.3420161748445 155.06213641728013 689.5120096621848 62.171465351735684 0.0 0.0
1235.2378132245753 183.64826755068663 708.0276701879177 69.3062514731012 0.0 0.0
1223.0581625845803 195.0879865683952 707.4803434214917 74.68513252879191 0.0 0.0
1192.984597617293 191.48932788158444 690.5807717713681 79.12341471758977 0.0 0.0
1151.6682026334747 179.56071591367615 663.9708836986958 82.74430477583799 0.0 0.0
1102.9347107766425 162.78345453201808 631.2089493909504 85.65753977098649 0.0 0.0
1048.6149041903457 142.4632222150392 593.8207732198535 87.9450741578038 0.0 0.0
990.3693975512049 122.02372999213206 554.3774466092239 89.73241462622707 0.0 0.0
931.3306433659606 104.59777677888488 516.0897775872947 91.04201492997387 0.0 0.0
872.6532083501968 92.38381663668247 480.4793515868592 91.43315161988897 0.0 0.0
811.6078638902525 83.99671222935635 444.32053319865446 90.50232112498685 0.0 0.0
740.2305988817103 74.416226036903 395.9222628013931 89.52557208973566 0.0 0.0
651.8515921362174 57.80209376827434 315.8385412487616 89.69702472498966 0.0 0.0
534.7435964050574 32.71832431769117 207.73899485687474 90.190276917869 0.0 0.0
397.45764823057124 10.477269621178976 124.44991798137228 91.41489165246747 0.0 0.0
259.3587514593839 14.702865092528004 82.19494185936802 85.73549082835251 0.0 0.0
163.603439239978 51.962731313608856 64.66985116607604 93.7711611474717 0.0 0.0
458.72710592442843 180.27400413458815 280.2050534534045 179.03190593020474 0.0 0.0
-932.5823512619116 -1618.9121526862548 -1147.3184912438444 83.62867039218285 0.0 0.0
-739.8133641201805 -1403.123070263733 -934.4790540314168 -78.79463020354288 0.0 0.0
354.1385578312835 113.52132107491107 198.7547481150286 -198.77855276443753 0.0 0.0
118.3562435681019 35.482560474346656 46.151641212734575 -123.53155812791202 0.0 0.0
206.88892425551143 19.16052683891283 67.82049587596018 -111.22812132955939 0.0 0.0
326.2488046102733 6.62561779892582 99.34728455623689 -118.21169912045671 0.0 0.0
464.1332883762457 19.96775915591627 164.96866965129632 -116.82895434502154 0.0 0.0
590.6384479126386 48.018445553800134 268.6491567976881 -113.23704469013879 0.0 0.0
690.8840054852665 63.06027528624678 357.9501124773912 -112.34880557534339 0.0 0.0
760.641171098687 71.49007763589782 410.31061257445606 -111.17351424775308 0.0 0.0
820.1257120615705 75.8064256051013 444.92520912623075 -111.38772633248016 0.0 0.0
875.3653876051906 84.57104458867761 477.30573367435494 -110.46444325849677 0.0 0.0
931.0673633997566 99.13296538742739 512.5227825158997 -108.7128497709887 0.0 0.0
986.0854423553826 117.1285025819222 549.1566171112763 -106.57265291919961 0.0 0.0
1037.563774167197 134.6107663486848 583.7361002959161 -103.95305214991271 0.0 0.0
1084.1598308549874 149.93741767082767 614.7318123170119 -100.49293984465122 0.0 0.0
1124.7766408731616 161.71957157822487 640.926945993422 -96.27927119251704 0.0 0.0
1157.8158260184164 167.66545924999815 660.4399823448798 -91.6829527537869 0.0 0.0
1178.6641959312974 164.6364265866853 669.506693775539 -85.9728516309479 0.0 0.0
1180.3289991869253 145.61810393525164 661.0860264382877 -77.27935140231106 0.0 0.0
1167.5916717271004 115.70417185744506 639.9190552564231 -63.69064626300775 0.0 0.0
779.13994318313 -269.12960151391366 257.3604416279858 8.062706058353797e-11 0.0 0.0
1167.5916717247355 115.70417185500722 639.919055255023 63.690646263048535 0.0 0.0
1180.328999187684 145.61810393614428 661.0860264387394 77.27935140239681 0.0 0.0
1178.664195930631 164.63642658609348 669.5066937750468 85.97285163101338 0.0 0.0
1157.8158260180076 167.66545924973462 660.4399823445148 91.68295275386089 0.0 0.0
1124.7766408732164 161.71957157837357 640.9269459935474 96.27927119253678 0.0 0.0
1084.159830855232 149.93741767127196 614.7318123170728 100.4929398446462 0.0 0.0
1037.5637741657117 134.61076634731103 583.7361002948672 103.95305214981623 0.0 0.0
986.0854423557256 117.12850258247329 549.1566171114032 106.57265291927226 0.0 0.0
931.0673633990821 99.13296538691459 512.5227825155015 108.71284977084204 0.0 0.0
875.3653876049573 84.57104458870224 477.3057336741895 110.46444325859835 0.0 0.0
820.1257120618536 75.80642560574636 444.92520912638287 111.38772633256356 0.0 0.0
760.6411710972814 71.4900776346212 410.31061257354935 111.17351424763632 0.0 0.0
690.8840054848134 63.06027528615007 357.95011247703206 112.34880557534777 0.0 0.0
590.6384479115735 48.018445552988084 268.6491567968662 113.23704469004326 0.0 0.0
464.13328837572 19.967759155728956 164.96866965091377 116.82895434487376 0.0 0.0
326.24880460962544 6.625617798390273 99.34728455590175 118.21169912024286 0.0 0.0
206.88892425556733 19.160526838898694 67.82049587597092 111.22812132954432 0.0 0.0
118.3562435682386 35.48256047447398 46.15164121281378 123.5315581276549 0.0 0.0
354.1385578306857 113.52132107461328 198.75474811456277 198.77855276440638 0.0 0.0
-739.8133641188903 -1403.1230702622893 -934.4790540299068 78.79463020341807 0.0 0.0
-572.4892286829013 -1206.8443426809965 -744.5934591631252 -74.07462185479883 0.0 0.0
271.2134349620644 61.00921453361599 135.94051387338322 -211.35669345676754 0.0 0.0
82.33156630781414 19.839611728856198 30.65148171533517 -148.13927177288357 0.0 0.0
158.5296796080681 22.134746820394803 54.1994155165739 -134.75676632334483 0.0 0.0
253.87420480377236 6.678467616425077 77.61787209663018 -141.79557644674034 0.0 0.0
382.0126995420507 6.910747632191921 123.65567751646172 -146.61235202242074 0.0 0.0
514.2129783991263 33.1970296867949 212.95463101998837 -139.79963975739906 0.0 0.0
623.9667509157794 52.46074357030118 308.39690994677284 -134.9934353347669 0.0 0.0
702.7754611831216 56.56262594869703 369.0061109895471 -132.90250612975046 0.0 0.0
758.9916267872745 59.3299849912868 404.2558473997255 -130.37122584393973 0.0 0.0
812.4257886711481 64.72124740221452 434.5993991728128 -128.8119314746361 0.0 0.0
864.6717191805556 76.17244027233797 466.6375325720824 -126.62529377989455 0.0 0.0
915.989898369434 91.24358924741935 500.0048377214904 -124.16708073717736 0.0 0.0
964.4532622681389 106.6537967335991 532.0726791096453 -121.31172595703256 0.0 0.0
1008.3894282166151 119.87922011488638 560.7503677078075 -117.54964260246962 0.0 0.0
1047.3526021088433 129.491441513886 585.046084462065 -112.94768802262165 0.0 0.0
1083.153520536278 139.26110955696666 607.7887169800347 -107.87802749568243 0.0 0.0
1115.2484451335376 146.59067712755464 627.5957495578094 -102.33817249556346 0.0 0.0
1130.0803669710476 138.81248801943184 631.4222478631355 -93.2175554627193 0.0 0.0
1122.6054241527056 111.2238491933297 614.1555584705961 -77.27974606285939 0.0 0.0
628.1468955629854 -377.02600678042876 128.7517868430838 -6.790301654291397e-11 0.0 0.0
1122.6054241530842 111.2238491939325 614.1555584708856 77.27974606300018 0.0 0.0
1130.0803669703216 138.81248801871217 631.4222478626011 93.21755546288242 0.0 0.0
1115.248445132334 146.59067712636514 627.5957495571752 102.33817249543719 0.0 0.0
1083.153520536292 139.261109557256 607.7887169800754 107.87802749612484 0.0 0.0
1047.3526021074695 129.49144151247143 585.0460844612974 112.94768802247604 0.0 0.0
1008.3894282172956 119.87922011582538 560.750367708193 117.54964260266428 0.0 0.0
964.4532622665548 106.65379673195255 532.0726791085056 121.31172595672167 0.0 0.0
915.9898983705821 91.24358924896502 500.0048377221436 124.16708073742961 0.0 0.0
864.6717191805168 76.17244027258495 466.6375325720862 126.62529378000488 0.0 0.0
812.4257886707983 64.72124740205427 434.59939917260107 128.81193147464944 0.0 0.0
758.9916267877509 59.32998499212066 404.25584740000284 130.37122584401365 0.0 0.0
702.7754611827991 56.56262594875589 369.0061109893036 132.9025061297732 0.0 0.0
623.9667509159594 52.46074357096465 308.39690994679387 134.99343533482295 0.0 0.0
514.2129783985107 33.19702968658454 212.95463101948204 139.7996397572885 0.0 0.0
382.012699541172 6.9107476314626135 123.65567751593554 146.61235202237305 0.0 0.0
253.87420480370417 6.678467616660656 77.61787209669366 141.79557644662904 0.0 0.0
158.5296796079381 22.13474682017485 54.19941551646918 134.75676632328006 0.0 0.0
82.3315663079244 19.839611729199333 30.651481715471178 148.13927177265344 0.0 0.0
271.2134349614653 61.00921453316745 135.94051387291952 211.3566934566711 0.0 0.0
-572.489228681836 -1206.844342679713 -744.5934591618036 74.07462185469018 0.0 0.0
-424.8659250731393 -1035.15877498004 -575.9580113224227 -76.80831255439031 0.0 0.0
201.12576172327613 21.274612493177052 86.92532690272913 -216.05656397139342 0.0 0.0
51.851691698430194 6.980044518646598 17.64910611471719 -166.61139432426222 0.0 0.0
111.94088477958772 23.444126224346736 40.615722833799126 -154.78898751518332 0.0 0.0
185.0331286595749 8.461641834232033 57.782766493029904 -161.8617182835008 0.0 0.0
288.4671190576043 -0.22638227206920636 87.51030781685516 -174.37868659307034 0.0 0.0
416.05597887564574 16.164461297838827 152.8972835598215 -168.78072868013393 0.0 0.0
536.3950616636035 36.75749496608225 243.17644315041855 -158.97523383951642 0.0 0.0
625.7904076894109 43.14361222629901 314.444630287792 -153.3891424970973 0.0 0.0
687.3660901059002 40.65688307572774 354.6632284252902 -149.56960350610711 0.0 0.0
738.1471682321859 44.16298544101394 384.5089708926345 -145.9264012525337 0.0 0.0
787.4034945493586 53.25568391822674 414.30967990246734 -143.1962131757988 0.0 0.0
835.0213095051234 65.30595813603306 444.4241150167082 -140.4406811804722 0.0 0.0
879.4725417918568 77.85469007406473 473.0915900041196 -137.49225642289855 0.0 0.0
920.9175171406519 89.22830439626789 499.6410938690834 -133.82721478925845 0.0 0.0
957.8738638724432 97.84250895275102 522.5433580289885 -128.97490104844348 0.0 0.0
993.7227512303662 106.44684472968825 544.7378166331272 -123.36724349738509 0.0 0.0
1036.3693295677488 124.15651723102802 574.814374248531 -117.91974352884044 0.0 0.0
1071.246967187272 135.51572177549255 598.275908817494 -109.94520766995802 0.0 0.0
1073.8273076803857 113.8072591702746 589.2797634862264 -93.81077363467826 0.0 0.0
451.21641799368433 -496.8827409468089 -18.43380881892024 2.0116530663472076e-10 0.0 0.0
1073.8273076805472 113.8072591702331 589.2797634864128 93.81077363478404 0.0 0.0
1071.24696718664 135.51572177499241 598.2759088169944 109.94520766992136 0.0 0.0
1036.369329567386 124.15651723082493 574.814374248397 117.91974352896953 0.0 0.0
993.7227512279248 106.44684472717877 544.737816631222 123.3672434974282 0.0 0.0
957.8738638709925 97.84250895137649 522.5433580280462 128.97490104821279 0.0 0.0
920.9175171400087 89.22830439578601 499.64109386873537 133.82721478943944 0.0 0.0
879.4725417908592 77.85469007316992 473.0915900034046 137.4922564227549 0.0 0.0
835.0213095058119 65.30595813712296 444.42411501723575 140.44068118085752 0.0 0.0
787.4034945491057 53.25568391818584 414.30967990233137 143.1962131758248 0.0 0.0
738.1471682319575 44.16298544091155 384.5089708923862 145.92640125242383 0.0 0.0
687.3660901059708 40.65688307612554 354.6632284254128 149.56960350610944 0.0 0.0
625.7904076890972 43.14361222635105 314.4446302875877 153.38914249721154 0.0 0.0
536.3950616634431 36.7574949663711 243.17644315025152 158.97523383956826 0.0 0.0
416.055978875269 16.16446129780838 152.89728355952835 168.78072868009752 0.0 0.0
288.4671190570663 -0.2263822724100537 87.51030781658547 174.3786865928638 0.0 0.0
185.03312865968823 8.461641834760417 57.78276649323153 161.86171828323248 0.0 0.0
111.94088477949526 23.444126224233234 40.61572283374249 154.78898751489024 0.0 0.0
51.851691698600646 6.9800445190758875 17.649106114895496 166.6113943241762 0.0 0.0
201.12576172286128 21.274612492933585 86.92532690243104 216.05656397114896 0.0 0.0
-424.86592507220803 -1035.1587749788325 -575.9580113212776 76.80831255434708 0.0 0.0
-308.1266149018152 -871.1282831390438 -435.2929682292953 -81.01285045422316 0.0 0.0
141.10510679117232 -10.914433286484433 49.26919023166337 -214.46741187507132 0.0 0.0
23.792155379698904 -1.9042888435897696 6.566203814455498 -179.5925707212987 0.0 0.0
66.28618844783881 23.23670901250268 26.848318095471154 -170.74556274836323 0.0 0.0
118.30658472162278 11.45986507363263 38.80242675768183 -177.4644752508257 0.0 0.0
189.2836542041486 -0.6015427826276352 56.45732227447256 -195.2714629189766 0.0 0.0
293.5357755748903 0.5872993459150009 94.33452565552992 -200.78045596058925 0.0 0.0
417.0652636987352 14.372480638950396 161.7182438919429 -187.35641871009258 0.0 0.0
519.9902831790639 23.629351721321324 234.94331262389002 -173.55659097517605 0.0 0.0
590.3973971592703 21.97511674544514 285.15889075213664 -166.38652061611887 0.0 0.0
643.0607451825557 23.24194573715995 319.14978694522233 -161.16190375790475 0.0 0.0
689.877616753108 29.379819169751585 347.8303015136321 -157.90401568432793 0.0 0.0
733.5148100099797 39.06155724482707 375.40908566290796 -154.92165285190077 0.0 0.0
773.3172342929515 48.65192273551483 400.464394715046 -152.02549311455113 0.0 0.0
811.0658142248966 58.06221424090138 424.293833158078 -148.83271744885917 0.0 0.0
847.2715948473392 66.59243509855405 446.9589199222718 -144.51704047391758 0.0 0.0
882.2556473319686 74.06800017473734 468.5419260715461 -138.5225402283248 0.0 0.0
926.2886500731964 91.57294013031304 499.229677686412 -132.14765526742906 0.0 0.0
986.7484988718143 126.08900893620253 546.7661847978719 -126.71729044035975 0.0 0.0
1019.4031385593073 129.52398333700663 566.0645517692524 -115.11512999416205 0.0 0.0
238.8542712437798 -624.0868592016406 -186.28232039788432 -3.042899265892629e-11 0.0 0.0
1019.403138559418 129.5239833375238 566.0645517694609 115.11512999434699 0.0 0.0
986.7484988725668 126.08900893721204 546.7661847984288 126.71729044087384 0.0 0.0
926.2886500734279 91.57294013076373 499.2296776867584 132.14765526785357 0.0 0.0
882.2556473303931 74.06800017298828 468.54192607030393 138.52254022818357 0.0 0.0
847.271594846435 66.59243509768712 446.95891992169635 144.51704047380377 0.0 0.0
811.0658142244863 58.06221424077969 424.29383315788607 148.8327174488685 0.0 0.0
773.3172342935214 48.65192273661844 400.4643947154578 152.0254931149779 0.0 0.0
733.5148100096259 39.061557244640795 375.40908566263954 154.92165285209114 0.0 0.0
689.8776167523047 29.379819169060674 347.8303015131636 157.9040156843371 0.0 0.0
643.0607451828537 23.24194573773812 319.149786945434 161.16190375791655 0.0 0.0
590.3973971592344 21.975116745641408 285.158890752043 166.38652061609432 0.0 0.0
519.9902831783046 23.629351720593547 234.94331262323863 173.5565909749371 0.0 0.0
417.0652636976643 14.372480638100598 161.71824389125138 187.35641871011518 0.0 0.0
293.5357755744085 0.5872993458216338 94.33452565529079 200.78045596048398 0.0 0.0
189.28365420393578 -0.6015427824790924 56.45732227446911 195.27146291872063 0.0 0.0
118.30658472187388 11.459865074426908 38.802426758003726 177.46447525055933 0.0 0.0
66.28618844771907 23.236709012297503 26.84831809537249 170.74556274816302 0.0 0.0
23.792155379511666 -1.9042888438297396 6.5662038143264905 179.59257072122932 0.0 0.0
141.105106790769 -10.914433286655424 49.26919023143172 214.46741187492142 0.0 0.0
-308.1266149010155 -871.1282831378667 -435.29296822834806 81.01285045429357 0.0 0.0
-212.9669382149878 -724.6969167978075 -319.0319751794616 -93.34921180363776 0.0 0.0
87.24244198033836 -36.76564615214838 19.51596767636658 -206.8378550046252 0.0 0.0
-3.438624486659891 -6.05924536885965 -2.866885793823167 -187.07435717772142 0.0 0.0
21.092021579888993 21.966985883019806 12.914361761935494 -181.70912214479904 0.0 0.0
51.69554723184213 14.623541245040057 19.854446965196807 -188.45890104258396 0.0 0.0
91.12239624764466 2.869272570159327 28.107140415645123 -208.44394566229667 0.0 0.0
148.93716526710503 -2.7117023602541375 44.46019159585733 -223.70995423805067 0.0 0.0
240.77309337366896 -6.857429366178547 74.11721267904007 -221.44124866203845 0.0 0.0
351.3738447215481 -13.283286037093546 115.40867615226048 -200.84533776958952 0.0 0.0
435.9793942625318 -12.349810833628435 159.47137471676518 -178.25877495446375 0.0 0.0
493.4983236928211 -3.417567507973793 198.91759140909875 -170.33774923999542 0.0 0.0
536.9102621236399 4.472103710363321 230.44526692648776 -168.3897943979008 0.0 0.0
573.8054734330973 12.268560801825927 256.9573653103176 -167.5813978163084 0.0 0.0
607.4638520167067 20.083622085857385 280.3843843474049 -166.71450246896316 0.0 0.0
640.1748641676829 28.202367721122556 303.2210732485986 -165.37242391834218 0.0 0.0
674.6125310953752 36.737225300000546 327.3706580970506 -162.89721700283906 0.0 0.0
711.8088772587175 44.60515323696593 352.9920230308195 -157.75912283540157 0.0 0.0
751.3701711015822 51.187304615898725 379.08133043391626 -150.03017986061755 0.0 0.0
819.5880745244265 84.32363122038818 429.96764051782213 -144.23177263505494 0.0 0.0
921.8847308835913 147.58126203844665 515.6280789635952 -143.92506554061978 0.0 0.0
-42.302013836468916 -749.9951398912877 -384.9973580256852 2.934399390142062e-10 0.0 0.0
921.8847308854213 147.58126204048602 515.6280789649796 143.9250655412493 0.0 0.0
819.5880745252566 84.32363122129232 429.9676405183314 144.23177263530877 0.0 0.0
751.370171101473 51.187304615992446 379.0813304339399 150.0301798606732 0.0 0.0
711.8088772587425 44.605153236959254 352.99202303078897 157.75912283544218 0.0 0.0
674.612531095428 36.73722530043641 327.3706580971301 162.89721700286813 0.0 0.0
640.1748641673819 28.202367720612813 303.2210732485145 165.37242391846308 0.0 0.0
607.4638520172705 20.08362208668219 280.3843843478352 166.71450246908483 0.0 0.0
573.8054734339215 12.26856080293782 256.9573653107892 167.58139781640978 0.0 0.0
536.9102621229954 4.472103709819528 230.4452669260483 168.389794397881 0.0 0.0
493.49832369295416 -3.4175675076918104 198.91759140913527 170.33774923998496 0.0 0.0
435.97939426263434 -12.349810833159347 159.47137471689575 178.258774954526 0.0 0.0
351.3738447207715 -13.28328603804481 115.40867615172945 200.8453377695403 0.0 0.0
240.77309337322885 -6.857429366266236 74.11721267885477 221.4412486619571 0.0 0.0
148.93716526685535 -2.711702360221822 44.46019159579081 223.70995423795185 0.0 0.0
91.12239624752779 2.86927257020196 28.10714041563769 208.44394566204693 0.0 0.0
51.69554723191385 14.623541245171113 19.854446965258752 188.45890104237077 0.0 0.0
21.09202157993408 21.966985883097095 12.914361761972389 181.70912214458525 0.0 0.0
-3.4386244867257147 -6.059245369030949 -2.8668857938968006 187.07435717764753 0.0 0.0
87.24244198003987 -36.76564615233004 19.515967676192936 206.8378550045566 0.0 0.0
-212.96693821448696 -724.696916796904 -319.031975178814 93.34921180371703 0.0 0.0
-147.60321174366447 -589.4233730417722 -232.35917904360093 -106.62292802630076 0.0 0.0
37.29686350468886 -56.343364839665306 -4.28974213856006 -192.5258466772072 0.0 0.0
-30.22421651902756 -6.626913681232609 -11.055933837914933 -190.96045152377042 0.0 0.0
-23.513553778293023 20.23981158976424 -0.9963552312010111 -188.04588973245097 0.0 0.0
-14.132378720957588 17.49392117277688 1.0062258594451006 -194.16226296570306 0.0 0.0
-6.923303765013314 7.214186845865617 0.09734561405385733 -213.4639663170408 0.0 0.0
-3.1990121110754615 0.927415071209658 -0.683025925644011 -230.62500512663595 0.0 0.0
-1.2271865524421557 0.11895505312073151 -0.33599842405481617 -233.38345061839402 0.0 0.0
-0.4049009326716728 -0.00955920528141263 -0.13245682842591222 -226.91787494267305 0.0 0.0
-0.06049175256792694 -0.01120912805482277 -0.01900474925762552 -222.92752529047652 0.0 0.0
-0.4919855837399467 0.005399131854950667 -0.11290575376352763 -213.56161678410336 0.0 0.0
-1.0767482868285896 0.19454208317530686 0.2725406144053011 -200.39572873767878 0.0 0.0
-1.8151695655349727 1.036306377676759 0.5470020869621237 -191.50924367535364 0.0 0.0
0.6593279945876418 3.1193995579697145 1.160251263909018 -184.75746785187508 0.0 0.0
11.29669264593582 7.682787024368196 2.7326456395777967 -179.9093220620073 0.0 0.0
37.12765996223584 15.909000416811779 7.085426580723464 -175.65863886764163 0.0 0.0
87.77947319750626 29.69488247698054 16.701186385237463 -170.13393596441273 0.0 0.0
177.14470653495908 40.324013698777605 23.145625746268593 -160.93319565963958 0.0 0.0
400.75740892897636 0.4553009136327688 41.872759192178904 -156.6509509844992 0.0 0.0
637.3762973984082 38.96577370276903 258.8323638666718 -204.85098366291578 0.0 0.0
-741.3076634713434 -1005.5247147255571 -794.7477512615642 3.8980374483799096e-11 0.0 0.0
637.3762973966126 38.96577369986329 258.8323638655181 204.85098366278862 0.0 0.0
400.75740892950125 0.4553009132796433 41.872759191915065 156.65095098524233 0.0 0.0
177.1447065355312 40.32401369969406 23.145625746937185 160.93319565985013 0.0 0.0
87.77947319632476 29.694882475267633 16.701186384043893 170.13393596469265 0.0 0.0
37.12765996220503 15.909000416649675 7.085426580590109 175.65863886737836 0.0 0.0
11.29669264634066 7.682787024870919 2.7326456398876644 179.90932206194265 0.0 0.0
0.6593279950731841 3.11939955799086 1.1602512640960185 184.75746785188076 0.0 0.0
-1.8151695660936724 1.0363063764522238 0.5470020862784253 191.5092436758701 0.0 0.0
-1.0767482866180842 0.19454208309791454 0.2725406144082143 200.3957287375603 0.0 0.0
-0.49198558374637 0.005399131577430438 -0.11290575387413071 213.56161678417016 0.0 0.0
-0.060491751899100166 -0.011209127854964862 -0.019004748993083354 222.92752529008789 0.0 0.0
-0.40490093279001727 -0.0095592062052825 -0.13245682874536513 226.91787494274757 0.0 0.0
-1.2271865518373346 0.118955054230522 -0.3359984235278777 233.38345061845223 0.0 0.0
-3.1990121111008687 0.927415070903535 -0.683025925742875 230.6250051265112 0.0 0.0
-6.9233037650181295 7.214186845744442 0.09734561401432495 213.46396631681043 0.0 0.0
-14.132378721490955 17.49392117157311 1.0062258589238016 194.16226296551667 0.0 0.0
-23.51355377823225 20.23981158995409 -0.9963552311272488 188.0458897322435 0.0 0.0
-30.224216518980597 -6.626913680986125 -11.055933837828253 190.96045152357894 0.0 0.0
37.296863504343165 -56.34336483980822 -4.289742138727162 192.52584667688458 0.0 0.0
-147.60321174347806 -589.4233730411347 -232.35917904326328 106.62292802632453 0.0 0.0
-112.84436666034301 -468.16007801481896 -174.7994522977883 -114.61564179692328 0.0 0.0
-3.272486887199566 -68.34499135437804 -21.407558549249075 -175.62100799425812 0.0 0.0
-55.70612045060011 -5.829966330256344 -18.476192423260276 -189.9949590493717 0.0 0.0
-67.12177256041299 18.64396716926221 -14.565775185110674 -189.48097743642728 0.0 0.0
-78.72173137019871 19.651454581294626 -17.73156826682373 -194.14039752267811 0.0 0.0
-103.64281095950219 11.33285003226553 -27.702417135024717 -209.89082167387357 0.0 0.0
-154.60726062512126 4.580582691699579 -45.72658495849866 -224.73326809887172 0.0 0.0
-242.26953775174908 6.879616462596687 -74.75082596704036 -221.84651072939337 0.0 0.0
-351.64921117206086 13.12749700842717 -115.62467426450866 -200.91007744216824 0.0 0.0
-436.0012371345224 12.31160193553361 -159.49550589779855 -178.22265791612904 0.0 0.0
-494.03076183763255 3.272723127100761 -199.27352144859475 -170.35214660385765 0.0 0.0
-537.776397128712 -4.34618582250728 -231.4045881225318 -168.1918353435782 0.0 0.0
-574.7488029223173 -10.620366397462377 -257.5127753932892 -166.87290383353178 0.0 0.0
-604.9030484753864 -14.314674543193249 -276.6904458938785 -165.9731880718106 0.0 0.0
-625.4989476343117 -14.198573942492288 -287.20780616391005 -166.16738245874402 0.0 0.0
-634.5255189190556 -9.022741959398559 -286.8867228578041 -168.13926541591087 0.0 0.0
-630.6867690757671 0.9750148006817199 -273.85853349948377 -172.62401864067894 0.0 0.0
-622.7469725619546 8.507266963517623 -251.19047117321614 -181.91247714851778 0.0 0.0
-597.9524954588994 62.34468783204491 -185.8389210743565 -195.61079125487487 0.0 0.0
-321.2126771162039 190.56137887903054 56.29088333110859 -166.51673139801778 0.0 0.0
-1318.8432965988186 -1283.2320361255097 -1336.6477076008396 -1.5335643865910242e-10 0.0 0.0
-321.21267711849316 190.56137887413462 56.290883328689375 166.51673139898267 0.0 0.0
-597.9524954609146 62.34468782980068 -185.8389210754419 195.6107912554189 0.0 0.0
-622.7469725598476 8.507266966146005 -251.19047117179053 181.912477148361 0.0 0.0
-630.6867690782199 0.9750147974685035 -273.85853350122466 172.62401864083938 0.0 0.0
-634.5255189195866 -9.022741960394484 -286.8867228581058 168.1392654158646 0.0 0.0
-625.498947632881 -14.198573940695113 -287.20780616287027 166.16738245879657 0.0 0.0
-604.9030484754926 -14.314674543672787 -276.6904458941139 165.97318807181665 0.0 0.0
-574.7488029238759 -10.620366400127594 -257.5127753943407 166.87290383369867 0.0 0.0
-537.7763971282907 -4.346185822074222 -231.40458812207152 168.19183534347823 0.0 0.0
-494.03076183698823 3.2727231275729594 -199.27352144806054 170.3521466036512 0.0 0.0
-436.0012371343657 12.31160193534391 -159.49550589769535 178.2226579162952 0.0 0.0
-351.64921117081235 13.127497009457247 -115.62467426375301 200.91007744216384 0.0 0.0
-242.2695377506538 6.879616463533353 -74.7508259664048 221.84651072947707 0.0 0.0
-154.60726062512222 4.580582690906712 -45.72658495873503 224.73326809880933 0.0 0.0
-103.64281095930271 11.332850032346894 -27.702417134948345 209.89082167351066 0.0 0.0
-78.72173137047415 19.651454580369396 -17.731568267186432 194.14039752252194 0.0 0.0
-67.1217725603588 18.643967169288924 -14.565775185089969 189.48097743622844 0.0 0.0
-55.70612045061299 -5.82996633027101 -18.476192423270632 189.99495904923126 0.0 0.0
-3.2724868873559805 -68.34499135458114 -21.407558549355187 175.6210079940759 0.0 0.0
-112.84436666030774 -468.1600780141475 -174.7994522976067 114.61564179682087 0.0 0.0
-94.74295323166237 -357.66132478245294 -135.70788126209456 -108.67706554094246 0.0 0.0
-29.524398064606437 -74.83457005068072 -31.302287435781196 -162.07205398502464 0.0 0.0
-79.62728920952514 -5.28740829885712 -25.45974832763116 -185.86956498238254 0.0 0.0
-108.94974657522624 17.27079811770221 -27.5382626315154 -185.88430407045186 0.0 0.0
-142.1434337568592 21.220957209974706 -36.21362517647877 -189.46175336914789 0.0 0.0
-198.63011550190384 14.252331667587878 -55.59451168101615 -199.66385492417584 0.0 0.0
-295.4322456058213 0.35712750668272086 -95.38450150846896 -200.62733805938151 0.0 0.0
-417.23959507066184 -14.579039799362295 -162.04895730404385 -188.01829995389608 0.0 0.0
-519.9627172100895 -23.8215697896917 -235.0339480240678 -173.6874228632287 0.0 0.0
-590.3196307864714 -21.998878485980725 -285.157414211194 -166.3930522873277 0.0 0.0
-643.1484331414547 -23.22643669469494 -319.2331767510385 -161.06472529620282 0.0 0.0
-690.3917537323478 -29.214662123401865 -348.1128112367037 -157.32903654113545 0.0 0.0
-733.8351953569877 -37.8412941603259 -375.1674616594912 -153.69678747091123 0.0 0.0
-770.0844954902547 -43.74044340445961 -396.71360092502823 -150.93407385803604 0.0 0.0
-796.5176329710367 -44.274252416452214 -410.45480681293225 -150.0448029654006 0.0 0.0
-810.1576168141343 -37.24834972345627 -413.7763210521286 -151.41154816994506 0.0 0.0
-812.1645132904792 -25.009931016886384 -408.24720999211 -155.2560069359945 0.0 0.0
-803.0126362896426 -9.841915293897785 -395.50769048217455 -161.42911969352312 0.0 0.0
-751.7423718536264 38.96629847758351 -345.1671785737044 -168.54880610934197 0.0 0.0
-625.0066054033741 148.4935295004291 -228.898044927359 -176.27862925674438 0.0 0.0
-2124.154381589025 -1583.24238424074 -1823.109116983562 5.094591415399918e-12 0.0 0.0
-625.0066054037572 148.49352949950276 -228.8980449276244 176.27862925717068 0.0 0.0
-751.7423718550425 38.96629847575568 -345.16717857474225 168.54880610970818 0.0 0.0
-803.0126362880222 -9.841915292125464 -395.50769048115046 161.42911969350502 0.0 0.0
-812.1645132915394 -25.009931018201783 -408.24720999287734 155.2560069362077 0.0 0.0
-810.157616812682 -37.248349722043386 -413.77632105107887 151.41154816973065 0.0 0.0
-796.5176329700222 -44.274252415584485 -410.45480681219317 150.04480296541837 0.0 0.0
-770.0844954897545 -43.740443404154625 -396.71360092467455 150.93407385803226 0.0 0.0
-733.8351953565884 -37.841294160143434 -375.1674616592819 153.69678747086414 0.0 0.0
-690.3917537321945 -29.21466212352275 -348.1128112365816 157.32903654115285 0.0 0.0
-643.1484331410413 -23.2264366944473 -319.23317675084877 161.06472529616562 0.0 0.0
-590.3196307863999 -21.99887848627575 -285.15741421110096 166.39305228719098 0.0 0.0
-519.962717209188 -23.821569789185904 -235.03394802347376 173.68742286335734 0.0 0.0
-417.2395950704468 -14.579039799723153 -162.04895730389296 188.0182999540754 0.0 0.0
-295.43224560571787 0.35712750610575283 -95.38450150850909 200.62733805929517 0.0 0.0
-198.6301155015536 14.252331667723892 -55.59451168087515 199.6638549239932 0.0 0.0
-142.14343375666328 21.22095720973033 -36.21362517650703 189.46175336887663 0.0 0.0
-108.94974657500468 17.270798117810084 -27.538262631421425 185.88430407028474 0.0 0.0
-79.6272892095253 -5.287408299039418 -25.459748327691436 185.86956498229662 0.0 0.0
-29.524398064626453 -74.83457005074585 -31.30228743580507 162.07205398491433 0.0 0.0
-94.7429532314884 -357.6613247819412 -135.70788126188788 108.677065540746 0.0 0.0
-77.55151747914395 -265.36261534253197 -102.87423984650275 -97.69101687942091 0.0 0.0
-47.71760133464205 -74.63491018360544 -36.70513234862416 -148.12155393045745 0.0 0.0
-101.67091354230331 -5.104809995735696 -32.00676340236096 -177.37777981364238 0.0 0.0
-149.1535381739613 16.017543630216046 -39.906426517938016 -178.3239708426049 0.0 0.0
-203.12310859567955 21.08102244699517 -54.60670025824797 -177.87081468975182 0.0 0.0
-290.06394872484015 10.934138557536347 -86.46528841366404 -177.8768857931529 0.0 0.0
-416.0156345771972 -14.29798787880295 -152.694944206955 -171.48227290312252 0.0 0.0
-536.4897669734976 -37.28759845017554 -243.38218035299957 -159.6183442164923 0.0 0.0
-625.7098129982046 -43.32561924797453 -314.5120187890558 -153.47221628315873 0.0 0.0
-687.231264897846 -40.57574456134037 -354.59872051126735 -149.61012258313045 0.0 0.0
-737.9691159769973 -43.91505913210864 -384.33140229828433 -145.81463486340564 0.0 0.0
-787.4474027025075 -52.82035130281933 -414.1662672388519 -142.53280054767092 0.0 0.0
-835.0816936616047 -64.2658067393078 -444.03222385574196 -138.93551678833134 0.0 0.0
-877.0478124450926 -74.16614464734661 -470.23569008618836 -135.9474229954055 0.0 0.0
-909.3612003901551 -78.13264025313913 -488.6123011332959 -134.89072150776065 0.0 0.0
-927.6962297157174 -73.2046606888589 -495.4347215395891 -136.71149815297832 0.0 0.0
-930.8264763501929 -58.226536017018844 -489.55632109897215 -141.2966039033888 0.0 0.0
-909.3431831728154 -25.375431121859293 -462.35088878875746 -146.81089195906964 0.0 0.0
-849.9549259719943 37.06240960494867 -401.9117936444387 -150.8533939419716 0.0 0.0
-680.7448759132507 195.64194034318228 -240.68818235245814 -150.99621236316503 0.0 0.0
-2565.6088275880943 -1812.9052322322752 -2166.631289076474 3.072031518058793e-11 0.0 0.0
-680.7448759109549 195.64194034540625 -240.6881823508154 150.99621236327292 0.0 0.0
-849.9549259718935 37.06240960471543 -401.9117936444926 150.8533939423352 0.0 0.0
-909.343183173288 -25.37543112258288 -462.35088878896295 146.81089195954618 0.0 0.0
-930.8264763501206 -58.22653601714441 -489.55632109896317 141.29660390357338 0.0 0.0
-927.6962297144169 -73.20466068759526 -495.4347215387577 136.71149815288751 0.0 0.0
-909.3612003895447 -78.13264025258695 -488.612301132836 134.89072150772623 0.0 0.0
-877.0478124436652 -74.16614464598621 -470.2356900852704 135.94742299533996 0.0 0.0
-835.0816936609127 -64.26580673876609 -444.0322238553634 138.9355167882284 0.0 0.0
-787.447402702958 -52.820351303710936 -414.1662672391757 142.53280054787106 0.0 0.0
-737.9691159779499 -43.91505913335762 -384.33140229897333 145.81463486343316 0.0 0.0
-687.2312648970459 -40.57574456058376 -354.5987205107327 149.61012258288167 0.0 0.0
-625.7098129980698 -43.325619248348815 -314.5120187889134 153.47221628322998 0.0 0.0
-536.4897669734959 -37.28759845060675 -243.38218035281957 159.6183442164546 0.0 0.0
-416.01563457676366 -14.29798787880405 -152.69494420662667 171.48227290309237 0.0 0.0
-290.06394872468303 10.93413855703228 -86.46528841371804 177.87688579300348 0.0 0.0
-203.12310859544633 21.081022446893794 -54.606700258224116 177.87081468951015 0.0 0.0
-149.15353817383374 16.01754363016714 -39.906426517919385 178.3239708425233 0.0 0.0
-101.67091354228702 -5.104809995855462 -32.006763402390156 177.3777798137074 0.0 0.0
-47.71760133466998 -74.6349101836691 -36.705132348652775 148.12155393027612 0.0 0.0
-77.55151747895489 -265.36261534210996 -102.87423984631943 97.69101687915875 0.0 0.0
-63.13316558727255 -188.2576991293611 -75.41725941499008 -84.08223202216071 0.0 0.0
-61.35855507230186 -69.45418935244021 -39.24399948477795 -132.37185445006048 0.0 0.0
-122.0944775466821 -4.9596489579309555 -38.09809358152741 -164.71349700056584 0.0 0.0
-187.03233327736723 13.967783506544075 -51.89344549408338 -165.55312626755898 0.0 0.0
-263.6918316741973 19.084910995325536 -73.47731052704331 -161.83688962945263 0.0 0.0
-378.51889620923583 2.7226038008798863 -121.43803831880467 -152.92006119733165 0.0 0.0
-512.0799329025714 -32.30024670278127 -212.16112695367553 -140.84122525604425 0.0 0.0
-624.2277327929849 -53.276598097458596 -308.73703607890695 -135.33009971867867 0.0 0.0
-702.7340154423966 -56.6834701948828 -369.1031623695769 -132.97670065573908 0.0 0.0
-758.7873697285478 -59.142642732623145 -404.1036965295592 -130.4128591278607 0.0 0.0
-811.9613367887879 -64.16892807881689 -434.1297626643534 -128.69461983782685 0.0 0.0
-864.033827987849 -75.22544793481751 -465.8820714915606 -125.95185642620396 0.0 0.0
-915.5429096598997 -90.09925888758829 -499.248710537351 -122.61202009111592 0.0 0.0
-963.3992866284182 -104.74974628758423 -530.6882446258257 -119.55466318098459 0.0 0.0
-1002.0100238237005 -113.75911783620938 -554.7051084762228 -118.25783070440072 0.0 0.0
-1024.5251636204364 -110.35373163102261 -564.4424447624187 -120.08385907112859 0.0 0.0
-1022.575649486241 -88.70772872132156 -552.8025795444669 -124.31004238700685 0.0 0.0
-987.4393250789458 -39.07621221654421 -510.6022673193071 -129.00315119377248 0.0 0.0
-897.7566287374682 56.812523352560646 -418.5350636217744 -130.70735676714094 0.0 0.0
-712.630700444331 233.8250370280943 -238.9878250882965 -128.11820639257476 0.0 0.0
-2915.993426127781 -2052.448000960536 -2466.974369196066 1.0818368423315405e-10 0.0 0.0
-712.6307004431487 233.82503702926664 -238.98782508745393 128.11820639267302 0.0 0.0
-897.7566287366791 56.81252335332107 -418.53506362117184 130.70735676715626 0.0 0.0
-987.4393250791691 -39.07621221711568 -510.60226731940145 129.00315119405084 0.0 0.0
-1022.5756494864174 -88.70772872171435 -552.8025795446714 124.31004238729957 0.0 0.0
-1024.5251636195044 -110.3537316301636 -564.4424447618111 120.08385907102429 0.0 0.0
-1002.0100238233713 -113.75911783610492 -554.7051084759103 118.25783070451944 0.0 0.0
-963.3992866277476 -104.74974628705733 -530.6882446254042 119.55466318098703 0.0 0.0
-915.54290965883 -90.09925888662873 -499.2487105367225 122.61202009092719 0.0 0.0
-864.0338279874657 -75.22544793473467 -465.8820714913044 125.95185642628348 0.0 0.0
-811.9613367889681 -64.16892807934325 -434.12976266446634 128.6946198378245 0.0 0.0
-758.7873697283245 -59.14264273275978 -404.1036965295026 130.41285912800467 0.0 0.0
-702.7340154420541 -56.683470194803846 -369.1031623692586 132.9767006555968 0.0 0.0
-624.2277327923011 -53.27659809713678 -308.73703607834614 135.3300997186475 0.0 0.0
-512.079932901967 -32.30024670266914 -212.16112695318634 140.8412252560798 0.0 0.0
-378.5188962089966 2.7226038005622444 -121.43803831872407 152.92006119732466 0.0 0.0
-263.6918316737983 19.08491099536941 -73.47731052692693 161.83688962929614 0.0 0.0
-187.0323332770035 13.967783506803446 -51.89344549391262 165.55312626748275 0.0 0.0
-122.09447754666279 -4.959648958053623 -38.09809358155708 164.7134970005257 0.0 0.0
-61.35855507236696 -69.45418935246082 -39.24399948480367 132.3718544498814 0.0 0.0
-63.133165587294435 -188.25769912912523 -75.41725941492588 84.08223202201637 0.0 0.0
-52.33782909085806 -125.62862405479893 -53.38993594369708 -69.53302328136459 0.0 0.0
-71.94263481638315 -60.72390330993686 -39.799961437895995 -114.41438891700741 0.0 0.0
-141.14254716807503 -4.504584468882635 -43.688623909246274 -147.8575835270691 0.0 0.0
-223.30470479072955 11.524977009104676 -63.40091801062007 -148.8518271516613 0.0 0.0
-322.7381756538628 13.028607034170985 -94.10403543413999 -139.00254142759968 0.0 0.0
-457.8615687679412 -10.855560753551178 -161.01392589571947 -124.2585353332256 0.0 0.0
-589.6124767943331 -47.41686365987236 -267.68432336785287 -114.33170174742709 0.0 0.0
-691.3875879226025 -63.89547185634957 -358.50421994561344 -112.5074599723407 0.0 0.0
-760.5618383989229 -71.4796709721812 -410.32980283067644 -111.24408584295566 0.0 0.0
-819.836544420504 -75.50504010550371 -444.672078367146 -111.42133850223374 0.0 0.0
-874.594972741542 -83.72656754294482 -476.53971049004554 -110.31639817815501 0.0 0.0
-929.689010056766 -97.59526342812023 -511.0968903399025 -108.07365996408326 0.0 0.0
-984.8529327703181 -115.60970132162404 -547.7842580770927 -105.20696215580757 0.0 0.0
-1037.7748938346206 -134.48105297961234 -583.7882167776847 -102.34845562133104 0.0 0.0
-1083.2402910824549 -149.18004411561327 -614.0379867728434 -100.70914637534621 0.0 0.0
-1109.0118453798814 -148.00865373756196 -626.5840221084666 -101.70960478732229 0.0 0.0
-1100.9550746637908 -117.16710943190503 -607.3766604900582 -105.37964285872071 0.0 0.0
-1045.1654018128274 -45.51692359901688 -543.9702719985721 -109.20105639117811 0.0 0.0
-929.1925520897079 77.27589560410186 -425.1458302138079 -110.3270153404245 0.0 0.0
-739.1611586708007 259.4426716014349 -239.80523812216464 -109.7036903192012 0.0 0.0
-3212.617880850399 -2276.4674237610016 -2730.918929498827 2.3007373783912044e-11 0.0 0.0
-739.1611586710729 259.4426716011972 -239.8052381224706 109.7036903191436 0.0 0.0
-929.1925520896367 77.27589560410405 -425.1458302138068 110.32701534041762 0.0 0.0
-1045.165401811274 -45.51692359753531 -543.9702719975634 109.20105639124588 0.0 0.0
-1100.9550746650243 -117.16710943329741 -607.3766604909871 105.37964285883066 0.0 0.0
-1109.0118453793466 -148.00865373714544 -626.584022108192 101.70960478737297 0.0 0.0
-1083.240291082225 -149.1800441155641 -614.0379867726335 100.70914637539319 0.0 0.0
-1037.7748938352 -134.48105298044564 -583.788216777981 102.34845562148831 0.0 0.0
-984.852932768887 -115.60970132034488 -547.7842580762384 105.20696215573369 0.0 0.0
-929.6890100556944 -97.59526342725853 -511.09689033923854 108.07365996406423 0.0 0.0
-874.594972742345 -83.72656754399814 -476.53971049058885 110.31639817811683 0.0 0.0
-819.8365444203706 -75.5050401057312 -444.67207836713203 111.42133850228885 0.0 0.0
-760.5618383983773 -71.47967097187848 -410.3298028302419 111.24408584288322 0.0 0.0
-691.3875879222968 -63.89547185642189 -358.5042199453279 112.50745997235393 0.0 0.0
-589.6124767938168 -47.41686365964444 -267.6843233672878 114.33170174724994 0.0 0.0
-457.8615687671077 -10.855560752886866 -161.01392589512346 124.25853533304932 0.0 0.0
-322.73817565365727 13.028607034000606 -94.10403543413815 139.0025414275383 0.0 0.0
-223.30470479047955 11.524977009206333 -63.40091801051682 148.85182715171828 0.0 0.0
-141.14254716787647 -4.504584468823255 -43.688623909167546 147.85758352681356 0.0 0.0
-71.94263481633229 -60.72390330986411 -39.79996143785891 114.41438891701601 0.0 0.0
-52.33782909079646 -125.62862405457099 -53.38993594361023 69.53302328135536 0.0 0.0
-45.0562874939695 -77.05423172117057 -36.63315576454201 -54.62732271773194 0.0 0.0
-80.11417649595131 -49.83470798500434 -38.98466534428669 -94.38051045668217 0.0 0.0
-159.00320910028614 -3.546567824706818 -48.76544057597143 -126.84715409222127 0.0 0.0
-258.2709670126738 7.526246779435799 -75.10203089781521 -127.14753247643708 0.0 0.0
-383.48033284168343 4.926212196217796 -116.9186907173059 -113.11072945397281 0.0 0.0
-523.8599275109407 -28.276417660099654 -203.77642282490612 -94.06190535178156 0.0 0.0
-651.3540722753305 -57.53910796309719 -315.0861240439757 -90.27289894741021 0.0 0.0
-740.5083637796496 -74.8271670834871 -396.2538344024274 -89.56058659263357 0.0 0.0
-811.5515517623178 -83.94953613271032 -444.3187976085793 -90.55982585840354 0.0 0.0
-872.2627171970962 -91.9630034601666 -480.1144478897587 -91.45339641901764 0.0 0.0
-930.2790564626913 -103.49335832386222 -515.0516883922321 -90.86133826747215 0.0 0.0
-988.3967576540169 -120.02534531639557 -552.4195927184417 -89.16700665444125 0.0 0.0
-1046.5790383337094 -140.49176167710408 -591.8071152997896 -86.93711668136498 0.0 0.0
-1103.197487766775 -163.19384524537455 -631.5217294865902 -84.48967088170039 0.0 0.0
-1154.0259362877914 -182.1551528874199 -666.5342299698698 -82.48323394621814 0.0 0.0
-1184.8603781660977 -184.31169250705796 -683.28143015476 -82.27660629185107 0.0 0.0
-1172.2248743179582 -147.8765937593765 -659.0907644970739 -84.66634908984747 0.0 0.0
-1097.0334580851304 -55.359228029342006 -575.5780633415767 -88.22737831070792 0.0 0.0
-956.8274252666918 92.30489276749942 -432.0057888143081 -91.05121968951863 0.0 0.0
-756.3177081351986 284.3721746191429 -236.0360499284999 -94.31612365903463 0.0 0.0
-3466.731868360177 -2476.9393247920093 -2960.836287710071 2.0089530039513193e-10 0.0 0.0
-756.3177081350104 284.3721746193859 -236.0360499284311 94.31612365911337 0.0 0.0
-956.8274252658906 92.30489276811832 -432.00578881383944 91.05121968957899 0.0 0.0
-1097.033458084496 -55.35922802875842 -575.5780633410213 88.22737831092044 0.0 0.0
-1172.224874319459 -147.87659376104628 -659.0907644980736 84.6663490897585 0.0 0.0
-1184.8603781663887 -184.3116925075562 -683.2814301549208 82.27660629208755 0.0 0.0
-1154.0259362871384 -182.15515288687487 -666.5342299693925 82.48323394605637 0.0 0.0
-1103.197487766424 -163.19384524532333 -631.521729486237 84.48967088186559 0.0 0.0
-1046.5790383335263 -140.491761677148 -591.8071152997088 86.93711668150443 0.0 0.0
-988.3967576537223 -120.02534531627909 -552.419592718288 89.16700665430623 0.0 0.0
-930.279056463485 -103.49335832501475 -515.0516883927814 90.86133826750206 0.0 0.0
-872.2627171971582 -91.96300346054406 -480.11444788985636 91.4533964191206 0.0 0.0
-811.5515517623691 -83.94953613305024 -444.31879760858595 90.55982585838224 0.0 0.0
-740.5083637791001 -74.82716708317695 -396.253834401966 89.56058659241745 0.0 0.0
-651.3540722744399 -57.539107962502165 -315.0861240432044 90.27289894727997 0.0 0.0
-523.8599275099689 -28.276417659412978 -203.77642282421584 94.06190535177225 0.0 0.0
-383.48033284147607 4.926212195692752 -116.91869071734364 113.11072945395884 0.0 0.0
-258.2709670124207 7.526246779530112 -75.10203089772074 127.1475324765338 0.0 0.0
-159.00320910018402 -3.5465678246017185 -48.76544057590918 126.84715409203318 0.0 0.0
-80.11417649578405 -49.834707984937275 -38.984665344216396 94.38051045657215 0.0 0.0
-45.056287493743504 -77.05423172092306 -36.633155764399966 54.62732271766832 0.0 0.0
-40.645410656956706 -42.24607719353695 -24.86744635514809 -39.80800520556883 0.0 0.0
-85.87154551399149 -38.04809406691472 -37.17589187427185 -72.50637871991249 0.0 0.0
-175.6093079252052 -2.209435732961689 -53.34584357515434 -101.51763397903578 0.0 0.0
-293.848992008076 2.257772543476859 -87.30870414721761 -100.80066887399661 0.0 0.0
-441.27908279672243 -7.33676208751351 -143.2235621977553 -82.84258560467772 0.0 0.0
-583.9143975674067 -41.27572358125195 -245.6928254627063 -68.58681610584289 0.0 0.0
-696.5582126291584 -66.53586752151105 -353.7607885850544 -67.49148733744563 0.0 0.0
-782.1612746673821 -83.56376364477416 -425.77953754360914 -67.60760864964895 0.0 0.0
-854.9866659009095 -96.7354157560817 -473.68967069012325 -69.37950152368539 0.0 0.0
-919.2008583431634 -108.6094663564554 -512.506748303694 -70.62944928180634 0.0 0.0
-980.4401937284554 -123.41556724611743 -550.6288234591456 -70.45678456455826 0.0 0.0
-1041.8151326201935 -142.74890913152075 -591.0080368381925 -69.305731570216 0.0 0.0
-1102.6169557995947 -165.876671511241 -633.0224686803166 -67.70710587384119 0.0 0.0
-1161.1188739773802 -189.1727905831979 -673.9500383569555 -65.93701404177102 0.0 0.0
-1214.0538179914936 -210.1464022022547 -710.9666055265865 -63.87531945606706 0.0 0.0
-1250.8696421413883 -217.8116017773729 -733.4133602437587 -62.215174095607885 0.0 0.0
-1243.5863038305095 -185.08811703043216 -713.7834132729295 -62.76966461120382 0.0 0.0
-1155.9089194813573 -78.8306386552068 -617.1975288687127 -66.46849031298245 0.0 0.0
-986.6818257553889 98.47917456016191 -444.189012478577 -72.24272935604019 0.0 0.0
-759.6159930917829 317.42184048026627 -221.24224789528776 -80.46605605841471 0.0 0.0
-3678.462057278261 -2644.430684487635 -3152.480938293947 2.2524737630646996e-10 0.0 0.0
-759.6159930915599 317.4218404805109 -221.24224789501562 80.46605605857275 0.0 0.0
-986.681825754518 98.47917456098162 -444.1890124782649 72.24272935590271 0.0 0.0
-1155.908919481026 -78.83063865502245 -617.1975288685179 66.46849031315138 0.0 0.0
-1243.5863038307323 -185.0881170308121 -713.783413273027 62.76966461135641 0.0 0.0
-1250.8696421405173 -217.8116017766101 -733.4133602431714 62.215174095550076 0.0 0.0
-1214.0538179901716 -210.14640220112085 -710.9666055257411 63.87531945610463 0.0 0.0
-1161.1188739759932 -189.1727905819278 -673.9500383559586 65.9370140417466 0.0 0.0
-1102.616955800967 -165.87667151280806 -633.022468681278 67.70710587373523 0.0 0.0
-1041.8151326190418 -142.74890913056007 -591.008036837482 69.30573156994605 0.0 0.0
-980.4401937283302 -123.41556724630652 -550.6288234590864 70.45678456466754 0.0 0.0
-919.2008583426036 -108.60946635618407 -512.5067483033047 70.62944928180751 0.0 0.0
-854.9866659009073 -96.73541575638694 -473.68967069013956 69.37950152364918 0.0 0.0
-782.1612746669499 -83.56376364459337 -425.7795375432568 67.60760864952485 0.0 0.0
-696.5582126281698 -66.53586752084102 -353.7607885842687 67.49148733739969 0.0 0.0
-583.9143975669425 -41.27572358116105 -245.69282546224974 68.5868161058426 0.0 0.0
-441.27908279644333 -7.336762087634132 -143.2235621976199 82.84258560458987 0.0 0.0
-293.8489920077312 2.257772543579082 -87.30870414710911 100.80066887399155 0.0 0.0
-175.60930792495563 -2.2094357325835072 -53.345843574965734 101.5176339789705 0.0 0.0
-85.87154551397339 -38.048094066976525 -37.17589187428498 72.50637871973822 0.0 0.0
-40.64541065680161 -42.246077193396545 -24.867446355059435 39.80800520554156 0.0 0.0
-37.85939592491841 -20.80611707551165 -17.599653900129013 -25.875392972402487 0.0 0.0
-88.5277544700996 -26.638102540165207 -34.54975710307944 -49.10369628321261 0.0 0.0
-190.65339178040065 -1.0472902853265476 -57.51020461971813 -71.2730389691373 0.0 0.0
-331.60735860833313 -3.869906830778403 -100.44366743748188 -69.21183199362628 0.0 0.0
-494.4741545009907 -22.558210373042407 -173.28371466781886 -51.902703998662396 0.0 0.0
-631.5210486523487 -50.990003480869014 -284.3709906252263 -45.39895874261544 0.0 0.0
-730.4219780541121 -73.61988436952126 -383.2827682704501 -45.23340641949868 0.0 0.0
-818.0233565133782 -92.91753492113504 -451.02388737710993 -46.09047813799244 0.0 0.0
-893.6868670269475 -110.16180709176598 -500.4356067873872 -47.70457768665028 0.0 0.0
-961.4604048541604 -125.62340612325416 -542.5397003273158 -48.962521114938845 0.0 0.0
-1026.3161837473685 -143.54937262496185 -584.0154996397811 -49.1555475188168 0.0 0.0
-1090.6011467707754 -165.62612010974726 -627.2198847612738 -48.535501437617114 0.0 0.0
-1154.1046927246052 -190.21320723479207 -671.2996904136673 -47.631523976592945 0.0 0.0
-1213.4850167201098 -214.70777046171386 -713.2758752461519 -46.474172757890884 0.0 0.0
-1265.1093208695738 -233.83093423338278 -748.7036214374134 -44.7990896855544 0.0 0.0
-1302.0505649939535 -241.13431310584969 -770.927444868779 -42.4789272952284 0.0 0.0
-1309.496047122986 -222.5911758969146 -765.6120341862475 -40.89589701737387 0.0 0.0
-1244.4380887101202 -137.57177114010577 -691.0110629980608 -43.44497980257157 0.0 0.0
-1036.6336760862591 79.96036274064079 -478.71054274480485 -52.47297847084674 0.0 0.0
-734.2309696622051 375.5684045363824 -179.62338900153267 -66.97891291670892 0.0 0.0
-3834.1299254674254 -2761.379569952821 -3290.465137642672 5.46176437410395e-11 0.0 0.0
-734.2309696633033 375.56840453521886 -179.62338900220692 66.97891291691595 0.0 0.0
-1036.6336760855359 79.96036274132608 -478.710542744671 52.472978470845035 0.0 0.0
-1244.438088710226 -137.5717711402553 -691.0110629980901 43.444979802363434 0.0 0.0
-1309.4960471215352 -222.5911758956274 -765.6120341852107 40.89589701744105 0.0 0.0
-1302.0505649941363 -241.13431310614052 -770.9274448689481 42.478927295155046 0.0 0.0
-1265.1093208692378 -233.83093423319076 -748.703621437224 44.799089685628005 0.0 0.0
-1213.4850167201153 -214.7077704619135 -713.2758752460302 46.47417275781244 0.0 0.0
-1154.1046927249781 -190.21320723543826 -671.2996904139696 47.63152397662742 0.0 0.0
-1090.601146769683 -165.62612010881293 -627.2198847605633 48.53550143749365 0.0 0.0
-1026.3161837465386 -143.54937262441024 -584.0154996393023 49.15554751874235 0.0 0.0
-961.4604048532412 -125.62340612259942 -542.5397003266157 48.96252111489531 0.0 0.0
-893.6868670269638 -110.16180709209317 -500.4356067873873 47.70457768671661 0.0 0.0
-818.0233565124184 -92.91753492046963 -451.02388737641724 46.09047813790447 0.0 0.0
-730.4219780539573 -73.61988436971471 -383.28276827018 45.233406419497015 0.0 0.0
-631.5210486514361 -50.99000348020866 -284.370990624428 45.39895874232197 0.0 0.0
-494.47415450030866 -22.5582103726472 -173.28371466737818 51.902703998574424 0.0 0.0
-331.60735860820097 -3.8699068312470066 -100.44366743759593 69.21183199366673 0.0 0.0
-190.65339178014014 -1.0472902852050399 -57.51020461960355 71.27303896906666 0.0 0.0
-88.52775446995055 -26.638102540124247 -34.54975710302243 49.103696283181364 0.0 0.0
-37.859395924815345 -20.806117075486135 -17.59965390009044 25.875392972384677 0.0 0.0
-34.314118052729604 -11.662996614029497 -13.793134400027725 -14.524198043018334 0.0 0.0
-86.57528691163513 -17.36538779712679 -31.18220241262858 -24.609354001429416 0.0 0.0
-203.77895664575482 -1.1784600597259236 -61.48722501164423 -34.622325138529156 0.0 0.0
-370.94778636447535 -10.030928861297859 -114.99322320799838 -32.153100503819815 0.0 0.0
-544.9250354754091 -35.34556359289302 -205.04909248534727 -23.657812559112898 0.0 0.0
-666.3723587653781 -58.024678826991234 -317.3410656399361 -23.84814511248054 0.0 0.0
-760.3829106113199 -78.78166003945546 -406.6716003567167 -24.437398283511065 0.0 0.0
-849.1110548115867 -102.74231135842815 -472.99907172681935 -24.79986876261362 0.0 0.0
-928.2608171315377 -123.83670780737454 -524.9426740436896 -25.602180483252713 0.0 0.0
-999.9618758843018 -143.2757579112114 -570.9060425302442 -26.495463440696028 0.0 0.0
-1068.1247492932778 -164.02408979360055 -615.4496921369255 -26.938788843523593 0.0 0.0
-1135.3974183199155 -187.94337523819712 -661.0668813259056 -26.92958564625193 0.0 0.0
-1201.070934933995 -214.82378333134824 -707.373747839559 -26.60090642514222 0.0 0.0
-1261.639908133677 -239.38555799407354 -749.9810378376318 -26.05328989024781 0.0 0.0
-1310.2527089484652 -255.1628920887215 -782.2426601145614 -25.05905040681807 0.0 0.0
-1340.956027835733 -256.27559223357804 -798.2249792702294 -23.19373323362935 0.0 0.0
-1351.905251188331 -241.3915735607913 -796.2848445552281 -20.703334633790664 0.0 0.0
-1338.0442555741124 -206.73403225879565 -772.161742770436 -20.402822351611185 0.0 0.0
-1207.3687098738012 -63.47937212592856 -635.8112492513314 -28.878651638112487 0.0 0.0
-704.4814910212008 436.29235005512334 -134.76952919314112 -50.91687508038935 0.0 0.0
-3770.480351097006 -2661.258627372824 -3210.280214781258 -3.501376966141834e-11 0.0 0.0
-704.4814910212933 436.29235005489227 -134.76952919296258 50.91687508061155 0.0 0.0
-1207.3687098721734 -63.47937212427951 -635.8112492502053 28.878651638119184 0.0 0.0
-1338.0442555747165 -206.73403225955354 -772.1617427708246 20.402822351488144 0.0 0.0
-1351.9052511877608 -241.3915735602913 -796.2848445547896 20.703334633805177 0.0 0.0
-1340.956027836208 -256.27559223422526 -798.2249792705088 23.193733233461764 0.0 0.0
-1310.2527089483497 -255.16289208878305 -782.2426601145153 25.059050406925362 0.0 0.0
-1261.6399081340062 -239.38555799463697 -749.9810378378731 26.05328989038311 0.0 0.0
-1201.070934933078 -214.82378333065938 -707.3737478389845 26.60090642522713 0.0 0.0
-1135.39741832028 -187.94337523880796 -661.0668813261597 26.929585646220684 0.0 0.0
-1068.124749293005 -164.02408979356235 -615.4496921368059 26.93878884338427 0.0 0.0
-999.9618758839105 -143.27575791111727 -570.9060425299273 26.495463440576284 0.0 0.0
-928.2608171321345 -123.8367078082866 -524.9426740440598 25.602180483341236 0.0 0.0
-849.1110548109035 -102.74231135803358 -472.9990717263436 24.799868762569318 0.0 0.0
-760.3829106112094 -78.78166003969986 -406.6716003565051 24.437398283560665 0.0 0.0
-666.3723587644488 -58.02467882632826 -317.3410656391677 23.848145112349194 0.0 0.0
-544.92503547455 -35.34556359234932 -205.0490924847577 23.65781255914472 0.0 0.0
-370.94778636425116 -10.030928861627785 -114.99322320802654 32.15310050387656 0.0 0.0
-203.77895664562584 -1.178460059768538 -61.487225011618314 34.62232513858082 0.0 0.0
-86.57528691145626 -17.36538779702766 -31.18220241254517 24.60935400151103 0.0 0.0
-34.31411805259522 -11.662996614049783 -13.7931343999935 14.524198043074263 0.0 0.0
-22.825124369579754 -6.051031800819894 -8.662846851119891 -8.8144085084999 0.0 0.0
-75.86885867140731 -9.965123024722995 -25.75019450883908 -10.231621011848475 0.0 0.0
-214.55361745681634 -3.771180328444469 -65.49743933557824 -11.286304141066669 0.0 0.0
-418.5380155134805 -30.7328207565327 -138.36878729513455 -6.873477628061277 0.0 0.0
-620.2265419204364 -87.37011877357298 -260.1180812402787 0.9177963682528407 0.0 0.0
-770.0518981597627 -143.72662890221838 -405.7948059594323 1.4441901382135462 0.0 0.0
-906.1826600539337 -209.36794140838035 -535.41080366709 0.3210884999301804 0.0 0.0
-1050.6454685928582 -290.5403932259468 -657.2314861012756 -1.2665692376458217 0.0 0.0
-1204.2459981809197 -386.79200721190364 -784.0729580544596 -3.0911579642923765 0.0 0.0
-1376.0792979079242 -506.03336340483395 -929.7942380228991 -5.048714141056095 0.0 0.0
-1572.3770272659317 -654.23463437943 -1101.7139435301951 -6.842218939049028 0.0 0.0
-1793.047308258545 -831.5756985318785 -1300.2837401010452 -8.207799856437607 0.0 0.0
-2030.9829290938276 -1029.696924000743 -1517.9013116326867 -9.112115222666876 0.0 0.0
-2274.3723363855493 -1236.6213999580768 -1742.7489930123156 -9.793807904877028 0.0 0.0
-2505.2622590083 -1434.327013816972 -1956.8537208856785 -10.033097190021095 0.0 0.0
-2699.5563961959 -1598.9546167135259 -2136.249255379373 -9.525922054138242 0.0 0.0
-2830.739882650158 -1704.6197275959405 -2254.6390899490198 -7.9957349326569265 0.0 0.0
-2893.013290166327 -1746.2672068470724 -2306.128319408447 -6.942417222476294 0.0 0.0
-2975.045159222009 -1813.9981826209555 -2379.5438651572945 -14.538416075849623 0.0 0.0
-3092.0077581375153 -1929.633995689741 -2493.6338542374706 -40.963507166245556 0.0 0.0
-6694.333865490006 -5557.125970578127 -6102.1859325352525 2.5977442419389263e-11 0.0 0.0
-3092.007758134665 -1929.6339956868928 -2493.633854234961 40.96350716618811 0.0 0.0
-2975.0451592197473 -1813.9981826187613 -2379.5438651552868 14.538416075756466 0.0 0.0
-2893.0132901652205 -1746.2672068460915 -2306.1283194075536 6.942417222519275 0.0 0.0
-2830.739882650815 -1704.6197275967122 -2254.6390899490925 7.995734932691949 0.0 0.0
-2699.5563961942585 -1598.9546167120318 -2136.2492553779116 9.525922053915497 0.0 0.0
-2505.2622590069195 -1434.3270138157575 -1956.8537208844937 10.033097189967812 0.0 0.0
-2274.372336384537 -1236.6213999572815 -1742.7489930114548 9.793807904951422 0.0 0.0
-2030.982929092056 -1029.6969239991922 -1517.901311631199 9.112115222802139 0.0 0.0
-1793.0473082579958 -831.5756985315747 -1300.2837401004379 8.207799856359749 0.0 0.0
-1572.3770272662828 -654.2346343800585 -1101.713943530173 6.842218938842652 0.0 0.0
-1376.0792979068765 -506.033363404082 -929.7942380219897 5.0487141409061564 0.0 0.0
-1204.2459981812622 -386.7920072125664 -784.0729580544967 3.0911579641384925 0.0 0.0
-1050.645468593104 -290.5403932265518 -657.2314861012528 1.2665692376854842 0.0 0.0
-906.1826600533076 -209.3679414080955 -535.4108036664481 -0.32108849979827525 0.0 0.0
-770.0518981590501 -143.7266289018077 -405.7948059587253 -1.4441901381365128 0.0 0.0
-620.2265419192183 -87.37011877253514 -260.1180812393826 -0.9177963682539527 0.0 0.0
-418.5380155131073 -30.732820756548936 -138.36878729499156 6.87347762803217 0.0 0.0
-214.55361745647542 -3.771180328261444 -65.49743933542105 11.286304141156343 0.0 0.0
-75.8688586712942 -9.965123024647587 -25.75019450878254 10.231621011989386 0.0 0.0
-22.825124369704916 -6.051031800952793 -8.662846851197308 8.814408508610923 0.0 0.0
SCALARS Strain float 6
LOOKUP_TABLE default
0.015647537418552626 -0.025748198625637958 0.0 -0.0017074120089550244 0.0 0.0
0.009632561073721931 -0.003100331748960378 0.0 -0.00774609219500859 0.0 0.0
0.0028221539146441703 -0.0006409958104529222 0.0 -0.00098485296449736 0.0 0.0
0.0023668931645189693 -0.0009384032701018124 0.0 3.149851221723009e-05 0.0 0.0
0.0036591487416071542 -0.0016588481226585093 0.0 0.0002492119826953752 0.0 0.0
0.0064981413584195655 -0.003848134617956844 0.0 0.00043645335189591795 0.0 0.0
0.011435637300135165 -0.008129040203313826 0.0 0.0005712931855556056 0.0 0.0
0.018911658956766834 -0.01491680884515529 0.0 0.0006121296165680838 0.0 0.0
0.029258297971281308 -0.024507487100137122 0.0 0.0005510027934277711 0.0 0.0
0.042580583760892486 -0.03694966067124122 0.0 0.00034923667385735544 0.0 0.0
0.058751096121094915 -0.052080239167780415 0.0 3.8562675500588856e-05 0.0 0.0
0.0775032283878152 -0.06963289538450006 0.0 -0.0003612447768277031 0.0 0.0
0.09851314070856698 -0.08932320466731514 0.0 -0.0008557258060424107 0.0 0.0
0.1214314243121235 -0.11084981538007055 0.0 -0.0014004078528118686 0.0 0.0
0.14580725260784475 -0.13382275869024945 0.0 -0.0020116876092341174 0.0 0.0
0.17094774900314566 -0.15761966643895847 0.0 -0.002649919850454921 0.0 0.0
0.19583304976271165 -0.1812939779808882 0.0 -0.0031800979183537227 0.0 0.0
0.21912843653204156 -0.20358181800366176 0.0 -0.0034058243261159402 0.0 0.0
0.23931198903926915 -0.2229630644250984 0.0 -0.0032038735302765665 0.0 0.0
0.2544736668551784 -0.23761713753425046 0.0 -0.003956196499580117 0.0 0.0
0.26051761705637505 -0.2437123802390121 0.0 4.099151573733195e-15 0.0 0.0
0.25447366685514217 -0.23761713753421954 0.0 0.003956196499592038 0.0 0.0
0.23931198903919676 -0.2229630644250593 0.0 0.0032038735302903094 0.0 0.0
0.21912843653193637 -0.20358181800356634 0.0 0.003405824326123826 0.0 0.0
0.19583304976259017 -0.18129397798077548 0.0 0.0031800979183579815 0.0 0.0
0.17094774900301862 -0.15761966643884606 0.0 0.002649919850446226 0.0 0.0
0.1458072526077159 -0.13382275869013194 0.0 0.002011687609231967 0.0 0.0
0.12143142431199586 -0.11084981537995209 0.0 0.0014004078528117615 0.0 0.0
0.09851314070844328 -0.08932320466719325 0.0 0.0008557258060413022 0.0 0.0
0.0775032283877017 -0.06963289538439416 0.0 0.0003612447768220487 0.0 0.0
0.05875109612099637 -0.05208023916768777 0.0 -3.856267550539057e-05 0.0 0.0
0.04258058376081216 -0.03694966067116522 0.0 -0.0003492366738592353 0.0 0.0
0.029258297971220863 -0.024507487100080556 0.0 -0.000551002793429488 0.0 0.0
0.01891165895672398 -0.014916808845116997 0.0 -0.0006121296165696973 0.0 0.0
0.011435637300107264 -0.008129040203289665 0.0 -0.0005712931855550577 0.0 0.0
0.006498141358404403 -0.0038481346179424104 0.0 -0.0004364533518930629 0.0 0.0
0.003659148741600845 -0.001658848122653607 0.0 -0.0002492119826933247 0.0 0.0
0.0023668931645170403 -0.0009384032700990041 0.0 -3.149851221816823e-05 0.0 0.0
0.002822153914641752 -0.0006409958104531448 0.0 0.0009848529644942196 0.0 0.0
0.00963256107371591 -0.0031003317489568653 0.0 0.007746092195002021 0.0 0.0
0.0156475374185448 -0.02574819862561296 0.0 0.001707412008900673 0.0 0.0
0.011059809796861827 -0.023156340388258694 0.0 -0.0012438752584458185 0.0 0.0
0.006461156682329867 -0.0023299369292531682 0.0 -0.0064119948051685055 0.0 0.0
0.0018242874026950157 -0.0004754739114844374 0.0 -0.0006167014311849552 0.0 0.0
0.0020705305747634774 -0.0008796498500642997 0.0 -0.00018314908871033348 0.0 0.0
0.0031253268004926386 -0.0014812464303782119 0.0 -0.00014490434248148738 0.0 0.0
0.005544959319224705 -0.0034467970201898053 0.0 -0.0002585338757128842 0.0 0.0
0.009941835001975097 -0.007440756467879315 0.0 -0.0006341168819869979 0.0 0.0
0.01672610854752048 -0.013875154436078091 0.0 -0.001242052351790983 0.0 0.0
0.026163052012039 -0.023008263703607156 0.0 -0.002104701951062562 0.0 0.0
0.038283365104974106 -0.03485072410017891 0.0 -0.0031876069627666814 0.0 0.0
0.052926293540107854 -0.049222361368269255 0.0 -0.004387162628719538 0.0 0.0
0.069846187162612 -0.06586460956849274 0.0 -0.005615956870432598 0.0 0.0
0.088788187626139 -0.08452335273718427 0.0 -0.0068666070469087835 0.0 0.0
0.10946536470608484 -0.10493251286643311 0.0 -0.008136329743200095 0.0 0.0
0.13148387897259864 -0.1267287113303721 0.0 -0.009378119832380289 0.0 0.0
0.15424406324504997 -0.14933787165979467 0.0 -0.010464937260600068 0.0 0.0
0.17685783267713245 -0.1718862895048348 0.0 -0.01111833198501956 0.0 0.0
0.19813764939180326 -0.19318224153592595 0.0 -0.010993884771685282 0.0 0.0
0.21653814538412158 -0.21171999544809458 0.0 -0.009995878698892917 0.0 0.0
0.22973577932579928 -0.22546234720938202 0.0 -0.009187953427252928 0.0 0.0
0.2346728394888497 -0.23122789608719696 0.0 9.835014747050508e-15 0.0 0.0
0.22973577932576564 -0.22546234720935782 0.0 0.009187953427278003 0.0 0.0
0.21653814538405688 -0.2117199954480386 0.0 0.009995878698916803 0.0 0.0
0.19813764939171152 -0.19318224153583216 0.0 0.010993884771700425 0.0 0.0
0.1768578326770256 -0.17188628950472656 0.0 0.011118331985024037 0.0 0.0
0.15424406324493595 -0.14933787165968354 0.0 0.010464937260589804 0.0 0.0
0.13148387897248284 -0.1267287113302557 0.0 0.009378119832376047 0.0 0.0
0.10946536470597007 -0.10493251286632269 0.0 0.008136329743195034 0.0 0.0
0.08878818762602808 -0.08452335273706846 0.0 0.006866607046905374 0.0 0.0
0.06984618716250969 -0.06586460956839232 0.0 0.005615956870423903 0.0 0.0
0.052926293540018855 -0.04922236136818031 0.0 0.004387162628709579 0.0 0.0
0.03828336510490176 -0.034850724100110364 0.0 0.003187606962759509 0.0 0.0
0.026163052011984097 -0.02300826370355083 0.0 0.0021047019510571094 0.0 0.0
0.016726108547481466 -0.013875154436040779 0.0 0.0012420523517861558 0.0 0.0
0.009941835001950344 -0.007440756467853868 0.0 0.0006341168819845922 0.0 0.0
0.00554495931921174 -0.003446797020177667 0.0 0.00025853387571094687 0.0 0.0
0.003125326800487469 -0.0014812464303761135 0.0 0.00014490434248208705 0.0 0.0
0.0020705305747620753 -0.0008796498500628898 0.0 0.00018314908870988597 0.0 0.0
0.0018242874026945769 -0.00047547391148499026 0.0 0.0006167014311844185 0.0 0.0
0.00646115668232228 -0.002329936929249026 0.0 0.006411994805156411 0.0 0.0
0.011059809796846934 -0.02315634038823197 0.0 0.0012438752584045735 0.0 0.0
0.008169145678472125 -0.018574725057579768 0.0 -0.004449476525715602 0.0 0.0
0.00461383740146657 -0.0013115671516563156 0.0 -0.006573826171336228 0.0 0.0
0.0012556426157848243 -0.00023846373129605622 0.0 -0.0005400120936298209 0.0 0.0
0.0017420903899704838 -0.0007371096159343628 0.0 -0.00047828950214123995 0.0 0.0
0.0026418055704719467 -0.001171576455765121 0.0 -0.000506666890192623 0.0 0.0
0.0046439208094179165 -0.0026894930104685495 0.0 -0.000727223057962017 0.0 0.0
0.008467866981632446 -0.006087499666087593 0.0 -0.001446538291971901 0.0 0.0
0.014520615019002134 -0.011795692821922592 0.0 -0.0026150121755980755 0.0 0.0
0.022996962672318773 -0.01998789084358306 0.0 -0.004250672639901426 0.0 0.0
0.03387646577434761 -0.030613547142443097 0.0 -0.00624765891368185 0.0 0.0
0.04697421801462187 -0.04345806956298074 0.0 -0.00841564987264635 0.0 0.0
0.06205953461831981 -0.05827931679385695 0.0 -0.010589297820150933 0.0 0.0
0.07891970048587177 -0.07487181877631002 0.0 -0.01273447477294178 0.0 0.0
0.09733394645020463 -0.09303336910731584 0.0 -0.014893814421142636 0.0 0.0
0.11698359599702937 -0.1124677569525841 0.0 -0.01700751520884449 0.0 0.0
0.1373721864168809 -0.13270180167872847 0.0 -0.01883703442726069 0.0 0.0
0.1577580381812471 -0.15300934201179361 0.0 -0.019945419618054173 0.0 0.0
0.1770607059750123 -0.17233592849670026 0.0 -0.01983917499072929 0.0 0.0
0.19369963477625016 -0.18918524010433793 0.0 -0.018320434839366614 0.0 0.0
0.2056322893532434 -0.20143728491124155 0.0 -0.015553494726951628 0.0 0.0
0.2101471081467946 -0.20689911796197333 0.0 1.7078352620991666e-14 0.0 0.0
0.20563228935321282 -0.2014372849112195 0.0 0.015553494726998093 0.0 0.0
0.19369963477619243 -0.18918524010427665 0.0 0.018320434839411724 0.0 0.0
0.1770607059749328 -0.1723359284966172 0.0 0.01983917499075915 0.0 0.0
0.15775803818115264 -0.1530093420117034 0.0 0.019945419618056924 0.0 0.0
0.13737218641677934 -0.13270180167862766 0.0 0.018837034427251015 0.0 0.0
0.11698359599692582 -0.11246775695247846 0.0 0.017007515208837552 0.0 0.0
0.09733394645010217 -0.09303336910721674 0.0 0.014893814421135385 0.0 0.0
0.07891970048577389 -0.07487181877621002 0.0 0.012734474772933227 0.0 0.0
0.06205953461822876 -0.058279316793764385 0.0 0.010589297820136255 0.0 0.0
0.04697421801454279 -0.04345806956290232 0.0 0.008415649872629945 0.0 0.0
0.03387646577428305 -0.030613547142384748 0.0 0.00624765891366769 0.0 0.0
0.02299696267226897 -0.01998789084353315 0.0 0.00425067263989319 0.0 0.0
0.014520615018967498 -0.011795692821890913 0.0 0.0026150121755917732 0.0 0.0
0.008467866981610827 -0.006087499666064877 0.0 0.001446538291966083 0.0 0.0
0.004643920809406949 -0.00268949301046135 0.0 0.0007272230579590028 0.0 0.0
0.0026418055704684135 -0.0011715764557640948 0.0 0.000506666890191039 0.0 0.0
0.0017420903899696668 -0.0007371096159345349 0.0 0.0004782895021420553 0.0 0.0
0.0012556426157845303 -0.00023846373129752027 0.0 0.0005400120936292511 0.0 0.0
0.004613837401459337 -0.0013115671516515247 0.0 0.006573826171321821 0.0 0.0
0.00816914567845814 -0.018574725057552404 0.0 0.004449476525688469 0.0 0.0
0.0062130123788513986 -0.015014296638701317 0.0 -0.004894629658805463 0.0 0.0
0.003427731736379216 -0.0009419261349023372 0.0 -0.006009321059067687 0.0 0.0
0.0008884558065182597 -0.00013103189973885014 0.0 -0.000817748341078287 0.0 0.0
0.001428715099895782 -0.000578292199871642 0.0 -0.0007820708330779359 0.0 0.0
0.002203819414301651 -0.0009339360474793083 0.0 -0.0008433658218018397 0.0 0.0
0.003814432730035305 -0.002042228395101125 0.0 -0.0011149285007230137 0.0 0.0
0.00703886388496704 -0.004802017064224719 0.0 -0.00199546809965418 0.0 0.0
0.01231824750559055 -0.009735688030911955 0.0 -0.003609366176102944 0.0 0.0
0.019795533546519833 -0.016944312097031126 0.0 -0.00582612060909009 0.0 0.0
0.02940318825219619 -0.026319565049224503 0.0 -0.008507783154289095 0.0 0.0
0.040936829870703094 -0.03762022053756558 0.0 -0.011393770756791719 0.0 0.0
0.05417934672186953 -0.050614886217630085 0.0 -0.014280764736774473 0.0 0.0
0.06895346603154841 -0.06513558599787887 0.0 -0.01712392019452322 0.0 0.0
0.0850875668042932 -0.08103356477004107 0.0 -0.019951906437917614 0.0 0.0
0.10234821842381783 -0.09808767526459128 0.0 -0.022701756880466755 0.0 0.0
0.12035925639650945 -0.11593681215130586 0.0 -0.025114910343338178 0.0 0.0
0.13851309746957313 -0.13400305448973163 0.0 -0.02669070777521977 0.0 0.0
0.15584549869631345 -0.1513657295239661 0.0 -0.026826888100184024 0.0 0.0
0.17092910835162548 -0.16661466023119137 0.0 -0.024915519035988695 0.0 0.0
0.1820216379897233 -0.17791225913800202 0.0 -0.02000281217313369 0.0 0.0
0.1863434458876038 -0.18355471443501845 0.0 2.45853684632813e-14 0.0 0.0
0.18202163798969612 -0.17791225913797593 0.0 0.020002812173191803 0.0 0.0
0.17092910835157482 -0.1666146602311415 0.0 0.02491551903604519 0.0 0.0
0.15584549869624326 -0.15136572952389693 0.0 0.026826888100219305 0.0 0.0
0.13851309746949023 -0.1340030544896535 0.0 0.026690707775221152 0.0 0.0
0.12035925639642081 -0.11593681215121307 0.0 0.025114910343328085 0.0 0.0
0.1023482184237264 -0.09808767526450404 0.0 0.02270175688045744 0.0 0.0
0.08508756680420351 -0.08103356476995024 0.0 0.01995190643790978 0.0 0.0
0.06895346603146332 -0.06513558599779032 0.0 0.017123920194508868 0.0 0.0
0.05417934672179032 -0.050614886217553716 0.0 0.014280764736754846 0.0 0.0
0.0409368298706334 -0.03762022053750211 0.0 0.01139377075676675 0.0 0.0
0.029403188252138848 -0.02631956504917366 0.0 0.008507783154268745 0.0 0.0
0.01979553354647607 -0.016944312096986325 0.0 0.005826120609077629 0.0 0.0
0.012318247505560124 -0.009735688030881744 0.0 0.0036093661760957544 0.0 0.0
0.00703886388494875 -0.00480201706420822 0.0 0.0019954680996459974 0.0 0.0
0.0038144327300267825 -0.0020422283950957943 0.0 0.0011149285007218531 0.0 0.0
0.002203819414299176 -0.0009339360474745555 0.0 0.0008433658218009706 0.0 0.0
0.0014287150998955034 -0.0005782921998726104 0.0 0.0007820708330773119 0.0 0.0
0.0008884558065185081 -0.00013103189973919562 0.0 0.0008177483410763643 0.0 0.0
0.0034277317363724975 -0.0009419261348982728 0.0 0.006009321059056411 0.0 0.0
0.006213012378837569 -0.01501429663867642 0.0 0.004894629658785467 0.0 0.0
0.00474122482231738 -0.012138850812711622 0.0 -0.004337519190907191 0.0 0.0
0.002579531744085735 -0.0007411194170582796 0.0 -0.005354532074997787 0.0 0.0
0.0006430683224804417 -8.259627904236507e-05 0.0 -0.001219025094918689 0.0 0.0
0.0011508615312061249 -0.00043834841438279454 0.0 -0.0011137148076037244 0.0 0.0
0.0018090198345418638 -0.0007442501628760265 0.0 -0.0011738074816940395 0.0 0.0
0.003071091351887179 -0.0015206895207271018 0.0 -0.00144143761073712 0.0 0.0
0.0056838961112527075 -0.0036329116569427007 0.0 -0.0023553545139076903 0.0 0.0
0.010146532627964076 -0.0077253944525256454 0.0 -0.004188196536960039 0.0 0.0
0.016595523502922857 -0.01391567328428642 0.0 -0.006821485210683177 0.0 0.0
0.02490404512847216 -0.022013012375324208 0.0 -0.009964351730126499 0.0 0.0
0.03485765514531425 -0.031753618749844434 0.0 -0.01333041027636903 0.0 0.0
0.04624618226031686 -0.042912641112002776 0.0 -0.016694728292083436 0.0 0.0
0.05892495486626685 -0.055355157067021724 0.0 -0.02001364271082768 0.0 0.0
0.07277703637928934 -0.06898318214988608 0.0 -0.02330650647780979 0.0 0.0
0.08763544321939237 -0.08364504361489616 0.0 -0.026481538234494992 0.0 0.0
0.10323229503549851 -0.09908218564096612 0.0 -0.029284905944921617 0.0 0.0
0.11911441360292616 -0.11486316061777055 0.0 -0.031278085698009085 0.0 0.0
0.1344978611310458 -0.13024403362911863 0.0 -0.03177903995460519 0.0 0.0
0.1481879403942039 -0.14404610806969667 0.0 -0.029658462964578393 0.0 0.0
0.15870198715967496 -0.15471425990461393 0.0 -0.02334666799198082 0.0 0.0
0.1629697938779547 -0.16075902904226924 0.0 3.018679056721041e-14 0.0 0.0
0.1587019871596503 -0.1547142599045945 0.0 0.02334666799204975 0.0 0.0
0.14818794039415903 -0.14404610806965026 0.0 0.02965846296464439 0.0 0.0
0.13449786113098552 -0.13024403362905926 0.0 0.03177903995464709 0.0 0.0
0.1191144136028548 -0.11486316061770582 0.0 0.03127808569801887 0.0 0.0
0.10323229503542117 -0.09908218564088067 0.0 0.0292849059449118 0.0 0.0
0.08763544321931359 -0.08364504361482196 0.0 0.026481538234480795 0.0 0.0
0.07277703637921253 -0.06898318214981324 0.0 0.023306506477797664 0.0 0.0
0.058924954866193785 -0.05535515706694322 0.0 0.020013642710809576 0.0 0.0
0.046246182260249034 -0.04291264111194387 0.0 0.01669472829205959 0.0 0.0
0.03485765514525513 -0.03175361874979086 0.0 0.013330410276341399 0.0 0.0
0.024904045128423535 -0.022013012375276038 0.0 0.009964351730104652 0.0 0.0
0.016595523502885505 -0.013915673284248972 0.0 0.006821485210667829 0.0 0.0
0.010146532627938507 -0.00772539445249849 0.0 0.00418819653695052 0.0 0.0
0.005683896111237993 -0.003632911656931485 0.0 0.0023553545139024094 0.0 0.0
0.0030710913518807994 -0.0015206895207215535 0.0 0.0014414376107341846 0.0 0.0
0.001809019834540097 -0.000744250162873852 0.0 0.0011738074816929442 0.0 0.0
0.001150861531205988 -0.0004383484143834284 0.0 0.0011137148076023862 0.0 0.0
0.000643068322480363 -8.259627904103683e-05 0.0 0.0012190250949171318 0.0 0.0
0.0025795317440800696 -0.0007411194170552256 0.0 0.0053545320749857446 0.0 0.0
0.00474122482230624 -0.012138850812690274 0.0 0.004337519190894233 0.0 0.0
0.003577567875185428 -0.009732398852016095 0.0 -0.003580409489546305 0.0 0.0
0.0019328833984395659 -0.000600054144397118 0.0 -0.004715637602499976 0.0 0.0
0.00046932991530988777 -6.93490247995214e-05 0.0 -0.0016059102556628567 0.0 0.0
0.0009040908606161614 -0.00031635096667539226 0.0 -0.0014461529727476496 0.0 0.0
0.0014541882705955715 -0.0005897448566646996 0.0 -0.0015037226167803556 0.0 0.0
0.0024128324482734706 -0.0011146930139065553 0.0 -0.001724708966373484 0.0 0.0
0.004438288691815726 -0.0026236765912874727 0.0 -0.00260069842613214 0.0 0.0
0.008050538462855649 -0.00582674967635783 0.0 -0.004416077121998183 0.0 0.0
0.01342548880521328 -0.010940605082595208 0.0 -0.007214010356129896 0.0 0.0
0.02041898970056385 -0.017737275006978047 0.0 -0.010610388287654194 0.0 0.0
0.028777647851162165 -0.025903163519425735 0.0 -0.014222072333297284 0.0 0.0
0.03830411423408653 -0.03521866801148029 0.0 -0.017831248999609292 0.0 0.0
0.04888172427867498 -0.045576983154577845 0.0 -0.02139187966308557 0.0 0.0
0.060441340682363426 -0.056929519400739814 0.0 -0.02492383670601883 0.0 0.0
0.07288896863218958 -0.06919131051050402 0.0 -0.028330417426822744 0.0 0.0
0.0860426431588548 -0.08218779684196509 0.0 -0.03135266003547762 0.0 0.0
0.09958887805772934 -0.09561703552250267 0.0 -0.03362720232870766 0.0 0.0
0.1129968582545961 -0.10897124362200918 0.0 -0.034507122979669624 0.0 0.0
0.12537727227273981 -0.12140320601361893 0.0 -0.03258476889740652 0.0 0.0
0.13548284558407436 -0.13163641578639235 0.0 -0.025764471909653443 0.0 0.0
0.13979313214339628 -0.1382583905768018 0.0 3.210799681685472e-14 0.0 0.0
0.1354828455840534 -0.13163641578638377 0.0 0.025764471909725695 0.0 0.0
0.12537727227270185 -0.12140320601357679 0.0 0.03258476889747408 0.0 0.0
0.11299685825454499 -0.10897124362196131 0.0 0.03450712297971209 0.0 0.0
0.09958887805766904 -0.09561703552244444 0.0 0.03362720232871497 0.0 0.0
0.08604264315878961 -0.08218779684189942 0.0 0.031352660035464226 0.0 0.0
0.0728889686321236 -0.06919131051043641 0.0 0.028330417426807593 0.0 0.0
0.060441340682299574 -0.0569295194006838 0.0 0.02492383670600507 0.0 0.0
0.04888172427861449 -0.0455769831545153 0.0 0.02139187966306846 0.0 0.0
0.03830411423403069 -0.03521866801142767 0.0 0.017831248999583674 0.0 0.0
0.02877764785111242 -0.025903163519376715 0.0 0.014222072333270261 0.0 0.0
0.02041898970052331 -0.017737275006935345 0.0 0.010610388287631178 0.0 0.0
0.013425488805182774 -0.010940605082571886 0.0 0.00721401035611275 0.0 0.0
0.008050538462834862 -0.005826749676338869 0.0 0.004416077121987225 0.0 0.0
0.0044382886918037335 -0.0026236765912808773 0.0 0.00260069842612478 0.0 0.0
0.0024128324482681836 -0.0011146930139034577 0.0 0.0017247089663691988 0.0 0.0
0.0014541882705941648 -0.0005897448566663301 0.0 0.0015037226167783746 0.0 0.0
0.0009040908606164019 -0.00031635096667552757 0.0 0.0014461529727473744 0.0 0.0
0.0004693299153102614 -6.934902479920868e-05 0.0 0.001605910255659514 0.0 0.0
0.001932883398434772 -0.0006000541443950463 0.0 0.004715637602491176 0.0 0.0
0.00357756787517614 -0.009732398851998317 0.0 0.0035804094895367255 0.0 0.0
0.0026454366420212093 -0.007693290703075261 0.0 -0.0028827480698412765 0.0 0.0
0.0014254238025333244 -0.0004890974757951967 0.0 -0.004135542328242156 0.0 0.0
0.0003359219062107003 -7.027658670668923e-05 0.0 -0.0019257780293204917 0.0 0.0
0.0006781534591571384 -0.00020842577526706467 0.0 -0.001751799894374741 0.0 0.0
0.0011289974927562968 -0.0004526564037226413 0.0 -0.001814445968113925 0.0 0.0
0.0018321912505722118 -0.0008070330011908025 0.0 -0.001999474493662485 0.0 0.0
0.0033128238791414887 -0.001792094600929669 0.0 -0.0027345982017781233 0.0 0.0
0.0060819674437231006 -0.00411231863485739 0.0 -0.004403211574393763 0.0 0.0
0.01034230977654774 -0.008085621380305013 0.0 -0.007053013168157701 0.0 0.0
0.0159847722010983 -0.013539617282741728 0.0 -0.010424127535285448 0.0 0.0
0.022739347046865272 -0.020115854176372933 0.0 -0.014053160382941948 0.0 0.0
0.030396097448124354 -0.027581134064074433 0.0 -0.01767970011146185 0.0 0.0
0.03886786950976448 -0.03585339285908773 0.0 -0.021246914404443797 0.0 0.0
0.04813172994225055 -0.04492537046602787 0.0 -0.024785791076378558 0.0 0.0
0.05815384998918327 -0.054775811957104556 0.0 -0.02821295739856577 0.0 0.0
0.0688318729334 -0.06530809267723046 0.0 -0.031283832825447305 0.0 0.0
0.079982969630833 -0.07632256293668645 0.0 -0.033662061541534664 0.0 0.0
0.09133360110305588 -0.08755473135941795 0.0 -0.034881059678504626 0.0 0.0
0.10237651314293986 -0.09857588293723278 0.0 -0.03358314024515643 0.0 0.0
0.11215960828924212 -0.10846363862560887 0.0 -0.027245861753313536 0.0 0.0
0.1165841943558043 -0.1158244490045531 0.0 2.7776392297340635e-14 0.0 0.0
0.1121596082892245 -0.10846363862558875 0.0 0.02724586175338553 0.0 0.0
0.10237651314290765 -0.09857588293720441 0.0 0.033583140245227176 0.0 0.0
0.09133360110301394 -0.08755473135938223 0.0 0.03488105967854576 0.0 0.0
0.07998296963078405 -0.07632256293663682 0.0 0.03366206154154501 0.0 0.0
0.06883187293334667 -0.06530809267718424 0.0 0.03128383282543201 0.0 0.0
0.05815384998912969 -0.05477581195704702 0.0 0.02821295739855126 0.0 0.0
0.048131729942200406 -0.04492537046598635 0.0 0.02478579107636196 0.0 0.0
0.03886786950971706 -0.035853392859033696 0.0 0.02124691440442861 0.0 0.0
0.03039609744807987 -0.027581134064029515 0.0 0.0176797001114399 0.0 0.0
0.02273934704682602 -0.020115854176335105 0.0 0.0140531603829139 0.0 0.0
0.015984772201066005 -0.013539617282706255 0.0 0.01042412753526115 0.0 0.0
0.010342309776523903 -0.008085621380282185 0.0 0.007053013168142774 0.0 0.0
0.006081967443707272 -0.00411231863483983 0.0 0.0044032115743827815 0.0 0.0
0.0033128238791327092 -0.0017920946009235548 0.0 0.002734598201770831 0.0 0.0
0.001832191250569032 -0.0008070330011918916 0.0 0.0019994744936616088 0.0 0.0
0.0011289974927558128 -0.0004526564037216961 0.0 0.001814445968112954 0.0 0.0
0.0006781534591569781 -0.00020842577526781358 0.0 0.0017517998943739426 0.0 0.0
0.0003359219062105346 -7.027658670534464e-05 0.0 0.0019257780293175544 0.0 0.0
0.0014254238025295752 -0.0004890974757944702 0.0 0.0041355423282342435 0.0 0.0
0.002645436642013593 -0.007693290703060302 0.0 0.0028827480698339646 0.0 0.0
0.0018994376328666635 -0.00597140305561787 0.0 -0.002331996864141342 0.0 0.0
0.0010214656864778648 -0.00040281428423950046 0.0 -0.0036135278124017284 0.0 0.0
0.00022240066941275644 -6.943898474916847e-05 0.0 -0.0021676688021158154 0.0 0.0
0.000463623059891294 -0.00011162159221582676 0.0 -0.0020124966494704175 0.0 0.0
0.0008191651717727784 -0.0003166100977991046 0.0 -0.002082607118822335 0.0 0.0
0.0013211880296002828 -0.0005696859403955019 0.0 -0.0022744747651016 0.0 0.0
0.0023161562573304653 -0.0011459208098638526 0.0 -0.0028106408110859173 0.0 0.0
0.004269662644480126 -0.0026370046449199175 0.0 -0.004170987584146783 0.0 0.0
0.007409605743570665 -0.005442848443163659 0.0 -0.006446183960978474 0.0 0.0
0.011660164841275113 -0.009494792438061268 0.0 -0.009447478703206101 0.0 0.0
0.016781620652961498 -0.014447982403829825 0.0 -0.012807247640243965 0.0 0.0
0.02256559249859006 -0.02005565478184997 0.0 -0.016206939577759892 0.0 0.0
0.028932686063552662 -0.026243183298236928 0.0 -0.019551828933214062 0.0 0.0
0.03589229182106767 -0.03303145417732752 0.0 -0.022863070076990837 0.0 0.0
0.04347552062357721 -0.04045594679276521 0.0 -0.026099409701602353 0.0 0.0
0.05165821383501348 -0.04850169437330507 0.0 -0.029044861789387925 0.0 0.0
0.060348913277486455 -0.05705909845230012 0.0 -0.031352450312562376 0.0 0.0
0.06950565029013693 -0.06603496984804219 0.0 -0.032724777740868606 0.0 0.0
0.07906795606399998 -0.07545787886843938 0.0 -0.032364767531605394 0.0 0.0
0.08850864923829434 -0.08495482057762054 0.0 -0.02762206031871582 0.0 0.0
0.09308551720945597 -0.09321371747300011 0.0 2.9184120398095814e-14 0.0 0.0
0.08850864923828133 -0.0849548205776069 0.0 0.027622060318780353 0.0 0.0
0.07906795606397504 -0.07545787886841779 0.0 0.0323647675316716 0.0 0.0
0.06950565029010468 -0.06603496984801135 0.0 0.032724777740910524 0.0 0.0
0.06034891327744836 -0.05705909845227569 0.0 0.031352450312565554 0.0 0.0
0.051658213834972155 -0.048501694373271384 0.0 0.029044861789370477 0.0 0.0
0.04347552062353678 -0.04045594679272769 0.0 0.026099409701588822 0.0 0.0
0.03589229182103135 -0.033031454177296506 0.0 0.02286307007697945 0.0 0.0
0.028932686063518773 -0.02624318329819842 0.0 0.019551828933202547 0.0 0.0
0.022565592498556834 -0.02005565478181757 0.0 0.016206939577738406 0.0 0.0
0.016781620652932035 -0.014447982403801504 0.0 0.012807247640216061 0.0 0.0
0.011660164841251253 -0.009494792438036238 0.0 0.009447478703183907 0.0 0.0
0.007409605743552955 -0.0054428484431468865 0.0 0.006446183960966048 0.0 0.0
0.004269662644468833 -0.0026370046449087016 0.0 0.004170987584137466 0.0 0.0
0.0023161562573250486 -0.0011459208098598367 0.0 0.002810640811080059 0.0 0.0
0.0013211880295985877 -0.0005696859403961035 0.0 0.0022744747650994142 0.0 0.0
0.0008191651717724175 -0.0003166100977970572 0.0 0.0020826071188194697 0.0 0.0
0.0004636230598911603 -0.00011162159221621827 0.0 0.0020124966494676744 0.0 0.0
0.00022240066941269854 -6.943898474755448e-05 0.0 0.0021676688021149667 0.0 0.0
0.0010214656864751845 -0.0004028142842387325 0.0 0.00361352781239344 0.0 0.0
0.001899437632861299 -0.005971403055605935 0.0 0.0023319968641365226 0.0 0.0
0.0013246685863457163 -0.004553764318886027 0.0 -0.0019565277279626303 0.0 0.0
0.0007017552401432467 -0.0003428355126705437 0.0 -0.0031482530546100515 0.0 0.0
0.00011199924407220145 -5.509110337107217e-05 0.0 -0.0023351376484184836 0.0 0.0
0.0002561188311142035 -2.337640000257817e-05 0.0 -0.0022185957098373303 0.0 0.0
0.0005129357692311165 -0.00017579801612524194 0.0 -0.0022919232104362795 0.0 0.0
0.0008546940790131741 -0.00036441521162118687 0.0 -0.002526839468994521 0.0 0.0
0.0014500960175607299 -0.0006731808164080598 0.0 -0.0029121786315419434 0.0 0.0
0.002644470267897336 -0.0014581582914380783 0.0 -0.003800022504222609 0.0 0.0
0.004677095187865472 -0.0031199692928169202 0.0 -0.005468945413091516 0.0 0.0
0.007515637481540254 -0.005720574672226553 0.0 -0.0077885266030923005 0.0 0.0
0.01096809552568174 -0.008997190569951862 0.0 -0.010532073087349825 0.0 0.0
0.01485873912142538 -0.012724563646552391 0.0 -0.013408879487819152 0.0 0.0
0.019118953481013293 -0.016822982575177853 0.0 -0.01630616539360744 0.0 0.0
0.023774068117126807 -0.021329201013639804 0.0 -0.01918384929858166 0.0 0.0
0.02889803540583779 -0.02631119168259003 0.0 -0.022011148744884655 0.0 0.0
0.03455888168346979 -0.031837235783733424 0.0 -0.024679443388302455 0.0 0.0
0.040764322970727865 -0.037914591823571354 0.0 -0.026867660011702724 0.0 0.0
0.04757204519897994 -0.04453786266320014 0.0 -0.028191093467792 0.0 0.0
0.055342305358882855 -0.05202309797367106 0.0 -0.0285149297672435 0.0 0.0
0.06425542237321999 -0.06082543902588888 0.0 -0.02641597268856669 0.0 0.0
0.0689713182797664 -0.07011434809647801 0.0 2.2386606457480696e-14 0.0 0.0
0.06425542237321197 -0.06082543902587913 0.0 0.026415972688626485 0.0 0.0
0.055342305358866674 -0.05202309797365025 0.0 0.028514929767311008 0.0 0.0
0.04757204519895617 -0.044537862663174256 0.0 0.02819109346782806 0.0 0.0
0.0407643229707002 -0.037914591823552835 0.0 0.026867660011697728 0.0 0.0
0.03455888168344195 -0.03183723578371028 0.0 0.02467944338828448 0.0 0.0
0.028898035405811644 -0.026311191682565342 0.0 0.02201114874487179 0.0 0.0
0.02377406811710442 -0.021329201013613235 0.0 0.019183849298580025 0.0 0.0
0.01911895348099216 -0.01682298257515833 0.0 0.016306165393598464 0.0 0.0
0.014858739121403512 -0.012724563646534447 0.0 0.013408879487800673 0.0 0.0
0.010968095525662577 -0.008997190569930516 0.0 0.01053207308732762 0.0 0.0
0.007515637481525651 -0.005720574672211818 0.0 0.007788526603074719 0.0 0.0
0.004677095187854884 -0.0031199692928106054 0.0 0.005468945413079443 0.0 0.0
0.002644470267890378 -0.0014581582914363455 0.0 0.0038000225042174275 0.0 0.0
0.0014500960175573144 -0.0006731808164062724 0.0 0.0029121786315368437 0.0 0.0
0.0008546940790122127 -0.0003644152116203611 0.0 0.0025268394689924186 0.0 0.0
0.000512935769230864 -0.00017579801612225486 0.0 0.0022919232104340334 0.0 0.0
0.0002561188311140254 -2.337640000324722e-05 0.0 0.002218595709834716 0.0 0.0
0.00011199924407185273 -5.5091103371835904e-05 0.0 0.002335137648418739 0.0 0.0
0.000701755240141261 -0.0003428355126701699 0.0 0.0031482530546056435 0.0 0.0
0.0013246685863423785 -0.004553764318876841 0.0 0.001956527727960422 0.0 0.0
0.0009062435404107222 -0.003419635200795236 0.0 -0.0017115928100708863 0.0 0.0
0.00045402703744271323 -0.0003140415104336002 0.0 -0.002761922926729054 0.0 0.0
-3.728899762937444e-06 -2.1000611535747973e-05 0.0 -0.0024367060869244224 0.0 0.0
5.2954418373339216e-05 5.89923200763494e-05 0.0 -0.0023657116318062383 0.0 0.0
0.0002053835079212059 -3.303643703704784e-05 0.0 -0.0024405419290175912 0.0 0.0
0.00040509621133857064 -0.00016089859287167236 0.0 -0.0027054740482026912 0.0 0.0
0.0006933883917978947 -0.00031201708279247805 0.0 -0.0030542307109127807 0.0 0.0
0.0012286031903506532 -0.000612537436977592 0.0 -0.003513228538931973 0.0 0.0
0.0021960885428937158 -0.0012890900732202854 0.0 -0.004339365876297409 0.0 0.0
0.0036170370265328823 -0.002450835110241545 0.0 -0.005704841725149503 0.0 0.0
0.005368777560981987 -0.00399078086579409 0.0 -0.007572917906077882 0.0 0.0
0.007332919757634911 -0.005789264492113933 0.0 -0.009749776180093319 0.0 0.0
0.00946752579947608 -0.007781463000385597 0.0 -0.012069897328379028 0.0 0.0
0.011814410420514659 -0.009998546703614716 0.0 -0.014463776991467713 0.0 0.0
0.01446208379011555 -0.01251888717984075 0.0 -0.016910246790815445 0.0 0.0
0.017550872435131978 -0.015473431606147118 0.0 -0.019357051142949794 0.0 0.0
0.021242569487922275 -0.019023757380869276 0.0 -0.02156852378744107 0.0 0.0
0.02566955551612511 -0.02330627790382232 0.0 -0.022991312506858298 0.0 0.0
0.03125343670554516 -0.028585678013019887 0.0 -0.0232563267557856 0.0 0.0
0.0390849096024358 -0.0359147214586645 0.0 -0.023124820999061647 0.0 0.0
0.04374347791756792 -0.04609806694107476 0.0 2.3218406364211575e-14 0.0 0.0
0.03908490960243248 -0.03591472145865077 0.0 0.023124820999115128 0.0 0.0
0.03125343670553589 -0.02858567801300612 0.0 0.023256326755833313 0.0 0.0
0.02566955551611036 -0.023306277903807543 0.0 0.022991312506877293 0.0 0.0
0.02124256948790757 -0.01902375738085462 0.0 0.021568523787433576 0.0 0.0
0.01755087243511882 -0.01547343160613282 0.0 0.019357051142935598 0.0 0.0
0.01446208379010441 -0.012518887179831392 0.0 0.016910246790804686 0.0 0.0
0.011814410420506377 -0.009998546703602805 0.0 0.014463776991462857 0.0 0.0
0.009467525799467538 -0.007781463000372248 0.0 0.012069897328367515 0.0 0.0
0.007332919757625028 -0.005789264492107301 0.0 0.009749776180079673 0.0 0.0
0.005368777560973194 -0.0039907808657843975 0.0 0.007572917906061766 0.0 0.0
0.0036170370265264287 -0.002450835110233687 0.0 0.005704841725139202 0.0 0.0
0.002196088542889367 -0.001289090073220454 0.0 0.0043393658762899846 0.0 0.0
0.0012286031903479652 -0.0006125374369763301 0.0 0.0035132285389278947 0.0 0.0
0.0006933883917965499 -0.00031201708279170095 0.0 0.003054230710909814 0.0 0.0
0.0004050962113382666 -0.00016089859287153158 0.0 0.002705474048201958 0.0 0.0
0.00020538350792128577 -3.30364370365983e-05 0.0 0.0024405419290152615 0.0 0.0
5.2954418373374784e-05 5.8992320076632374e-05 0.0 0.0023657116318043284 0.0 0.0
-3.7288997628940862e-06 -2.1000611536412867e-05 0.0 0.0024367060869241648 0.0 0.0
0.0004540270374416214 -0.0003140415104338157 0.0 0.0027619229267267565 0.0 0.0
0.0009062435404084038 -0.0034196352007888147 0.0 0.0017115928100694129 0.0 0.0
0.0006098989960858108 -0.002548670523743887 0.0 -0.0015660882481021723 0.0 0.0
0.000262126249268955 -0.0003087987362160282 0.0 -0.0024792975395091575 0.0 0.0
-0.0001244171270515465 2.8602998975196288e-05 0.0 -0.0024806464073403737 0.0 0.0
-0.00014685905800751144 0.00013831886316805194 0.0 -0.0024504154987347064 0.0 0.0
-9.902978651459498e-05 0.00010776532313712378 0.0 -0.0025238390522882193 0.0 0.0
-4.717284819138463e-05 4.794930558119698e-05 0.0 -0.002781231942831681 0.0 0.0
-1.86044071834952e-05 1.2695161252475565e-05 0.0 -0.003142597559022898 0.0 0.0
-7.3828304907302e-06 4.494370643977676e-06 0.0 -0.003433590897105514 0.0 0.0
-2.497867561030787e-06 1.4040336282727624e-06 0.0 -0.0037682663315986758 0.0 0.0
-2.710385503356511e-07 8.962729057499863e-08 0.0 -0.00458167806408951 0.0 0.0
-2.738720093224808e-06 1.5397356819280559e-06 0.0 -0.005968748476544297 0.0 0.0
-1.6678213059124927e-05 1.5458881880628405e-05 0.0 -0.007802626965904603 0.0 0.0
-4.052905688713788e-05 4.00653346853486e-05 0.0 -0.009838112515859141 0.0 0.0
-3.782354382030561e-05 4.7701501453238345e-05 0.0 -0.012011834704523707 0.0 0.0
9.654965231968007e-05 -5.3125401699915414e-05 0.0 -0.014327763448258923 0.0 0.0
0.0005716183439578243 -0.0004513741700382871 0.0 -0.016754802293221953 0.0 0.0
0.00171365908308485 -0.0014453079989653968 0.0 -0.019183320653491587 0.0 0.0
0.003865802200280534 -0.003384573508320522 0.0 -0.02135010316690837 0.0 0.0
0.007247962594531078 -0.006361791656461496 0.0 -0.022959009846762246 0.0 0.0
0.01305615274057298 -0.011185803870637289 0.0 -0.0244197381187718 0.0 0.0
0.01684841627854707 -0.021931576537463998 0.0 1.4684434224143672e-14 0.0 0.0
0.013056152740573266 -0.011185803870649259 0.0 0.024419738118802062 0.0 0.0
0.007247962594528857 -0.00636179165645947 0.0 0.02295900984677958 0.0 0.0
0.003865802200277529 -0.0033845735083132007 0.0 0.02135010316690833 0.0 0.0
0.0017136590830853264 -0.001445307998974053 0.0 0.019183320653476832 0.0 0.0
0.0005716183439600789 -0.0004513741700411895 0.0 0.01675480229320573 0.0 0.0
9.654965232296152e-05 -5.312540170076001e-05 0.0 0.014327763448247668 0.0 0.0
-3.78235438155503e-05 4.7701501449870704e-05 0.0 0.012011834704514335 0.0 0.0
-4.052905688209179e-05 4.006533467536646e-05 0.0 0.009838112515845139 0.0 0.0
-1.6678213055626207e-05 1.5458881877400844e-05 0.0 0.007802626965889204 0.0 0.0
-2.7387200912085173e-06 1.5397356791224117e-06 0.0 0.005968748476530859 0.0 0.0
-2.7103854860043974e-07 8.962729110606796e-08 0.0 0.00458167806408364 0.0 0.0
-2.497867560011366e-06 1.4040336245298932e-06 0.0 0.0037682663315974085 0.0 0.0
-7.38283049013065e-06 4.494370647861281e-06 0.0 0.0034335908971037925 0.0 0.0
-1.860440718299892e-05 1.2695161251118635e-05 0.0 0.0031425975590212785 0.0 0.0
-4.7172848191185265e-05 4.794930558066656e-05 0.0 0.002781231942829458 0.0 0.0
-9.902978651470036e-05 0.00010776532313271227 0.0 0.0025238390522863653 0.0 0.0
-0.0001468590580076631 0.0001383188631688523 0.0 0.0024504154987328654 0.0 0.0
-0.00012441712705181938 2.8602998976229417e-05 0.0 0.0024806464073384546 0.0 0.0
0.00026212624926797817 -0.0003087987362163626 0.0 0.002479297539506109 0.0 0.0
0.0006098989960842638 -0.0025486705237400165 0.0 0.0015660882481010412 0.0 0.0
0.00040387656450854414 -0.0019154843584544452 0.0 -0.001495577234424421 0.0 0.0
0.00011748592560068699 -0.00030353599918234034 0.0 -0.002279341473469343 0.0 0.0
-0.00024188539401596786 8.186083560773439e-05 0.0 -0.0024722794329973953 0.0 0.0
-0.00034225819741084523 0.00021617103625832222 0.0 -0.002470139193434307 0.0 0.0
-0.00039735727589883024 0.0002437535857873747 0.0 -0.0025315923394385997 0.0 0.0
-0.0004961371326335323 0.00025611237650900964 0.0 -0.0027569550200407904 0.0 0.0
-0.0007305426819540215 0.00033903615617018054 0.0 -0.0030906674016395294 0.0 0.0
-0.0012430155847124162 0.0006227340902000303 0.0 -0.0035384214879777814 0.0 0.0
-0.002199535812177821 0.0012912430353215357 0.0 -0.004349590615303241 0.0 0.0
-0.0036166711740927794 0.0024503008918992045 0.0 -0.005704975703493389 0.0 0.0
-0.005376152576393288 0.0039960894560750315 0.0 -0.007572526383859508 0.0 0.0
-0.007369142614733161 0.005822088272585656 0.0 -0.009755586191662424 0.0 0.0
-0.009547022568760284 0.007861258679334144 0.0 -0.012065193317417098 0.0 0.0
-0.011880537707129952 0.010088721369305048 0.0 -0.014439343644480842 0.0 0.0
-0.01425273104174233 0.012398920386260908 0.0 -0.01690279647790059 0.0 0.0
-0.016408857862155676 0.014547987894683142 0.0 -0.01951253916806326 0.0 0.0
-0.01794362134824594 0.016136480772696804 0.0 -0.02230095682014025 0.0 0.0
-0.01840016928874647 0.016669308935203155 0.0 -0.025395028598910702 0.0 0.0
-0.017275367317188456 0.015832473859786037 0.0 -0.028739449754238432 0.0 0.0
-0.012515837735724213 0.01236711690591208 0.0 -0.030458161955872344 0.0 0.0
-0.008785727275232146 0.0009082811945817912 0.0 1.6952585168983347e-14 0.0 0.0
-0.012515837735723737 0.012367116905892393 0.0 0.030458161955904395 0.0 0.0
-0.017275367317182037 0.015832473859768915 0.0 0.028739449754261175 0.0 0.0
-0.01840016928873333 0.016669308935202347 0.0 0.02539502859891226 0.0 0.0
-0.01794362134822833 0.016136480772664396 0.0 0.022300956820124104 0.0 0.0
-0.016408857862138276 0.01454798789466211 0.0 0.019512539168046794 0.0 0.0
-0.014252731041725326 0.012398920386252423 0.0 0.01690279647788643 0.0 0.0
-0.01188053770711158 0.010088721369285018 0.0 0.014439343644464496 0.0 0.0
-0.009547022568741724 0.007861258679305037 0.0 0.012065193317401215 0.0 0.0
-0.007369142614716153 0.005822088272571273 0.0 0.009755586191641345 0.0 0.0
-0.005376152576379004 0.003996089456064055 0.0 0.007572526383839432 0.0 0.0
-0.003616671174082011 0.002450300891888579 0.0 0.0057049757034824235 0.0 0.0
-0.0021995358121715577 0.0012912430353213414 0.0 0.004349590615299342 0.0 0.0
-0.001243015584708652 0.0006227340902016014 0.0 0.0035384214879757127 0.0 0.0
-0.000730542681952228 0.00033903615616632664 0.0 0.003090667401637285 0.0 0.0
-0.0004961371326329535 0.00025611237650914533 0.0 0.0027569550200371683 0.0 0.0
-0.0003973572758983445 0.00024375358578376208 0.0 0.0025315923394371178 0.0 0.0
-0.0003422581974107559 0.00021617103625843622 0.0 0.002470139193432676 0.0 0.0
-0.00024188539401600575 8.186083560769646e-05 0.0 0.0024722794329960526 0.0 0.0
0.00011748592560030727 -0.0003035359991828919 0.0 0.0022793414734668775 0.0 0.0
0.0004038765645077567 -0.001915484358451881 0.0 0.001495577234423798 0.0 0.0
0.0002662211011745708 -0.001442445419726991 0.0 -0.0014125281520802682 0.0 0.0
1.1639151443952514e-05 -0.00028296166254608926 0.0 -0.002106199111043491 0.0 0.0
-0.00035145380198776753 0.00013070491031574066 0.0 -0.002413236492840012 0.0 0.0
-0.0005301132659058979 0.0002916788437278189 0.0 -0.002424171021919813 0.0 0.0
-0.0006868691644349894 0.00037259696098826265 0.0 -0.0024616081771255036 0.0 0.0
-0.0009383185093883785 0.0004583739183577142 0.0 -0.00263258898382622 0.0 0.0
-0.001485969015870979 0.0007050497766557641 0.0 -0.0029848857949560676 0.0 0.0
-0.0026551235779222093 0.0014673883935740716 0.0 -0.003837088899885605 0.0 0.0
-0.004676540357166803 0.0031189038871191023 0.0 -0.005476940776582139 0.0 0.0
-0.007514761368205962 0.005719809521238667 0.0 -0.007787025631505856 0.0 0.0
-0.010977391342734018 0.009006175249559649 0.0 -0.010533523339988898 0.0 0.0
-0.01489207201066944 0.012756633556484546 0.0 -0.013400212306410909 0.0 0.0
-0.019184218484187165 0.01689053058183355 0.0 -0.016244026701314033 0.0 0.0
-0.023815821236088504 0.021394744156448983 0.0 -0.019048100056863485 0.0 0.0
-0.02866872945291816 0.02616623606851731 0.0 -0.021926483819967254 0.0 0.0
-0.03344848310278233 0.03092611852760288 0.0 -0.02508945579737129 0.0 0.0
-0.037678793005028764 0.0351879496964298 0.0 -0.028754887152603856 0.0 0.0
-0.040723861350855026 0.038307136866723636 0.0 -0.033017614273441145 0.0 0.0
-0.041412955059540936 0.03929706855564139 0.0 -0.037076215220099996 0.0 0.0
-0.03725991304010719 0.035849090798446545 0.0 -0.03822311627175627 0.0 0.0
-0.033554038354397485 0.022493026588770816 0.0 2.234670781753323e-14 0.0 0.0
-0.03725991304010352 0.03584909079843977 0.0 0.03822311627180964 0.0 0.0
-0.04141295505952764 0.03929706855561959 0.0 0.0370762152201485 0.0 0.0
-0.04072386135083131 0.03830713686670868 0.0 0.03301761427345974 0.0 0.0
-0.03767879300499768 0.035187949696392426 0.0 0.028754887152594832 0.0 0.0
-0.03344848310275026 0.030926118527578622 0.0 0.02508945579735073 0.0 0.0
-0.028668729452887183 0.026166236068491614 0.0 0.02192648381994987 0.0 0.0
-0.02381582123605634 0.021394744156419135 0.0 0.019048100056845742 0.0 0.0
-0.01918421848415513 0.01689053058180311 0.0 0.016244026701295947 0.0 0.0
-0.014892072010639926 0.01275663355645533 0.0 0.013400212306386022 0.0 0.0
-0.010977391342707983 0.009006175249535302 0.0 0.010533523339962467 0.0 0.0
-0.007514761368185926 0.005719809521218373 0.0 0.007787025631485523 0.0 0.0
-0.004676540357154188 0.0031189038871104924 0.0 0.0054769407765743825 0.0 0.0
-0.0026551235779145896 0.0014673883935664624 0.0 0.0038370888998787364 0.0 0.0
-0.0014859690158672597 0.0007050497766510168 0.0 0.0029848857949508183 0.0 0.0
-0.0009383185093870755 0.0004583739183576656 0.0 0.002632588983823635 0.0 0.0
-0.0006868691644340161 0.0003725969609871361 0.0 0.002461608177123504 0.0 0.0
-0.0005301132659052303 0.00029167884372799786 0.0 0.0024241710219185305 0.0 0.0
-0.00035145380198745946 0.0001307049103149472 0.0 0.0024132364928398558 0.0 0.0
1.1639151444008438e-05 -0.0002829616625463633 0.0 0.0021061991110417387 0.0 0.0
0.0002662211011743514 -0.0014424454197249864 0.0 0.0014125281520776833 0.0 0.0
0.00016459769538783225 -0.00105617444072419 0.0 -0.001269983219432472 0.0 0.0
-7.15808764283678e-05 -0.00024653441130537563 0.0 -0.0019255949473248502 0.0 0.0
-0.00045203959843915294 0.00017447462455835296 0.0 -0.0023023685976662138 0.0 0.0
-0.0007087802170801507 0.0003626953749567842 0.0 -0.002316975834942427 0.0 0.0
-0.0009653353029343279 0.0004920377301204633 0.0 -0.002319780594758418 0.0 0.0
-0.0013939177777200708 0.0006627275805581353 0.0 -0.0024289116175359054 0.0 0.0
-0.0023460667654508073 0.0011800496321248968 0.0 -0.0029042780243769026 0.0 0.0
-0.004272539980038849 0.0026382208884855015 0.0 -0.004200051510686241 0.0 0.0
-0.007405162529758376 0.005438067627687897 0.0 -0.006445875558111978 0.0 0.0
-0.011660918265520208 0.009496106805579309 0.0 -0.009446050230996735 0.0 0.0
-0.016791662332197366 0.01445923117738258 0.0 -0.012809308141093573 0.0 0.0
-0.022587417674855618 0.020078549632367246 0.0 -0.01618142341217284 0.0 0.0
-0.02896327172018502 0.026276512271671715 0.0 -0.01942454119934774 0.0 0.0
-0.03588572697062876 0.03304282767627147 0.0 -0.022584621295070356 0.0 0.0
-0.043242136579020714 0.04028992429546757 0.0 -0.025877903766589522 0.0 0.0
-0.050715678098492326 0.047723006874603936 0.0 -0.029698189422257437 0.0 0.0
-0.05771042862880191 0.054753209961869484 0.0 -0.03448185509005189 0.0 0.0
-0.06320483424530862 0.06041069523914172 0.0 -0.04008422525412886 0.0 0.0
-0.06542437649201589 0.06299476787199287 0.0 -0.04498196220068846 0.0 0.0
-0.060856170732379394 0.05940458849653435 0.0 -0.04631667844536337 0.0 0.0
-0.056278767474683564 0.043188476776889896 0.0 2.3502033652533783e-14 0.0 0.0
-0.06085617073237097 0.05940458849653826 0.0 0.046316678445425336 0.0 0.0
-0.0654243764919959 0.0629947678719725 0.0 0.04498196220075183 0.0 0.0
-0.06320483424527512 0.06041069523910547 0.0 0.04008422525416036 0.0 0.0
-0.057710428628758845 0.054753209961826435 0.0 0.0344818550900491 0.0 0.0
-0.05071567809844686 0.04772300687456527 0.0 0.02969818942223728 0.0 0.0
-0.04324213657897604 0.04028992429542612 0.0 0.025877903766568004 0.0 0.0
-0.035885726970583565 0.03304282767623372 0.0 0.022584621295050268 0.0 0.0
-0.028963271720140495 0.0262765122716304 0.0 0.019424541199326864 0.0 0.0
-0.02258741767481461 0.020078549632322914 0.0 0.016181423412147258 0.0 0.0
-0.01679166233216118 0.014459231177340617 0.0 0.012809308141062393 0.0 0.0
-0.011660918265490977 0.009496106805554247 0.0 0.009446050230970735 0.0 0.0
-0.007405162529738335 0.00543806762766767 0.0 0.006445875558097461 0.0 0.0
-0.004272539980027003 0.0026382208884731593 0.0 0.004200051510675083 0.0 0.0
-0.0023460667654444153 0.0011800496321200257 0.0 0.002904278024370478 0.0 0.0
-0.001393917777717339 0.0006627275805546011 0.0 0.0024289116175320665 0.0 0.0
-0.0009653353029334484 0.0004920377301198946 0.0 0.002319780594756435 0.0 0.0
-0.0007087802170796136 0.00036269537495644166 0.0 0.002316975834942203 0.0 0.0
-0.0004520395984388022 0.00017447462455773686 0.0 0.002302368597666729 0.0 0.0
-7.15808764283752e-05 -0.0002465344113056086 0.0 0.0019255949473225946 0.0 0.0
0.00016459769538786946 -0.001056174440722638 0.0 0.0012699832194290638 0.0 0.0
7.984660988016397e-05 -0.0007334628581434116 0.0 -0.0010930690162880893 0.0 0.0
-0.00014374830329090272 -0.00019636518452813742 0.0 -0.0017208579870875988 0.0 0.0
-0.0005454326263764876 0.00021512818620420676 0.0 -0.0021394087192024343 0.0 0.0
-0.0008773956569885178 0.00042747966645870466 0.0 -0.0021515003905878296 0.0 0.0
-0.001236648579163945 0.0006004801167521147 0.0 -0.002104721065174436 0.0 0.0
-0.0018884647249760608 0.0008939960635217395 0.0 -0.002179050196096659 0.0 0.0
-0.0033308395617865517 0.0018177569486684947 0.0 -0.0028167223440587236 0.0 0.0
-0.00607624582115013 0.004103763087211428 0.0 -0.004416658180475691 0.0 0.0
-0.01033753255122017 0.008080491255206457 0.0 -0.00704788081452099 0.0 0.0
-0.015988401083191613 0.01354433366521016 0.0 -0.010423927963631209 0.0 0.0
-0.02274805238674109 0.02012753233167717 0.0 -0.014053423962992676 0.0 0.0
-0.030398187749748756 0.027587905054920266 0.0 -0.01763781751037742 0.0 0.0
-0.038844727403657596 0.03583494564548793 0.0 -0.02106902332960027 0.0 0.0
-0.04805358776574532 0.044855913210661666 0.0 -0.024398520637711953 0.0 0.0
-0.05792822721788335 0.0545872787176111 0.0 -0.02786869630024167 0.0 0.0
-0.0681356350428264 0.06473699236279863 0.0 -0.03201933851247954 0.0 0.0
-0.0778900945203551 0.07456192260485096 0.0 -0.037375910910974815 0.0 0.0
-0.08571398692066184 0.08263975131143221 0.0 -0.043690132684616134 0.0 0.0
-0.0890591301205513 0.0865401717825379 0.0 -0.049265271913366805 0.0 0.0
-0.08366897858844069 0.08223339161143166 0.0 -0.051041310067441725 0.0 0.0
-0.07812773998844585 0.06325690839587693 0.0 2.8225685677618628e-14 0.0 0.0
-0.08366897858842699 0.08223339161142437 0.0 0.05104131006750367 0.0 0.0
-0.08905913012052359 0.08654017178251441 0.0 0.049265271913428825 0.0 0.0
-0.08571398692061949 0.08263975131138795 0.0 0.043690132684652036 0.0 0.0
-0.07789009452030177 0.07456192260479619 0.0 0.037375910910976716 0.0 0.0
-0.0681356350427689 0.06473699236274588 0.0 0.03201933851246109 0.0 0.0
-0.057928227217825104 0.05458727871755435 0.0 0.027868696300221374 0.0 0.0
-0.048053587765686315 0.04485591321060589 0.0 0.02439852063769053 0.0 0.0
-0.03884472740359994 0.035834945645435545 0.0 0.021069023329576338 0.0 0.0
-0.03039818774969589 0.02758790505486889 0.0 0.01763781751035126 0.0 0.0
-0.022748052386694154 0.02012753233162859 0.0 0.014053423962960245 0.0 0.0
-0.015988401083153258 0.013544333665172093 0.0 0.010423927963606708 0.0 0.0
-0.01033753255119348 0.008080491255181245 0.0 0.007047880814501903 0.0 0.0
-0.00607624582113291 0.004103763087197342 0.0 0.004416658180463974 0.0 0.0
-0.003330839561776969 0.001817756948661322 0.0 0.0028167223440530246 0.0 0.0
-0.0018884647249724626 0.0008939960635181458 0.0 0.0021790501960944433 0.0 0.0
-0.0012366485791626264 0.0006004801167519146 0.0 0.0021047210651732946 0.0 0.0
-0.0008773956569877194 0.00042747966645949407 0.0 0.002151500390588077 0.0 0.0
-0.0005454326263761215 0.00021512818620357435 0.0 0.0021394087192017435 0.0 0.0
-0.0001437483032911586 -0.0001963651845281044 0.0 0.0017208579870852708 0.0 0.0
7.984660987960441e-05 -0.0007334628581422956 0.0 0.0010930690162862125 0.0 0.0
6.838694543453667e-06 -0.0004695514727221619 0.0 -0.00090392930265774 0.0 0.0
-0.0002089273769601664 -0.00013600562216826572 0.0 -0.0014873870559210967 0.0 0.0
-0.0006332935535363529 0.0002546220424439448 0.0 -0.0019217265627940179 0.0 0.0
-0.0010352125533799963 0.0004848512617955061 0.0 -0.0019281738033475326 0.0 0.0
-0.001511249340647447 0.000703622132539783 0.0 -0.0018260925693945763 0.0 0.0
-0.002443595656964945 0.001184133546130521 0.0 -0.0019012314453312603 0.0 0.0
-0.00444299324687453 0.0026335659192304123 0.0 -0.002655636018506694 0.0 0.0
-0.008041989785647085 0.005814415226197953 0.0 -0.0044178043451849214 0.0 0.0
-0.013422819107356099 0.01093807648295253 0.0 -0.007207762520630037 0.0 0.0
-0.020425190310069077 0.017745162984282782 0.0 -0.010611489758873532 0.0 0.0
-0.028782105152499383 0.0259123826509503 0.0 -0.014217990387476042 0.0 0.0
-0.038280831437369635 0.03520406910972007 0.0 -0.01777431900724794 0.0 0.0
-0.04879498289892429 0.0454984891145861 0.0 -0.021190754899909913 0.0 0.0
-0.06027746401927639 0.05676537569209264 0.0 -0.02450772989534249 0.0 0.0
-0.07265452475252658 0.06896160810858473 0.0 -0.027921010076136354 0.0 0.0
-0.0855676704772403 0.08180046143478845 0.0 -0.0319205281802706 0.0 0.0
-0.09802403684860753 0.09437303915943605 0.0 -0.037138093661068176 0.0 0.0
-0.10804564524139872 0.10477634004657768 0.0 -0.04355923591720363 0.0 0.0
-0.11235681395014446 0.10980268897674561 0.0 -0.04975990585831354 0.0 0.0
-0.10621212122712848 0.10477307377674545 0.0 -0.053726484665026546 0.0 0.0
-0.09983849716317607 0.08339848869495561 0.0 2.8158031462055533e-14 0.0 0.0
-0.10621212122711135 0.10477307377672673 0.0 0.05372648466508578 0.0 0.0
-0.11235681395010877 0.10980268897671008 0.0 0.04975990585837432 0.0 0.0
-0.10804564524134697 0.10477634004653415 0.0 0.043559235917239175 0.0 0.0
-0.09802403684854401 0.09437303915936528 0.0 0.037138093661068114 0.0 0.0
-0.08556767047717045 0.08180046143472104 0.0 0.03192052818025754 0.0 0.0
-0.07265452475245515 0.06896160810851429 0.0 0.027921010076118004 0.0 0.0
-0.06027746401920461 0.05676537569201737 0.0 0.024507729895322107 0.0 0.0
-0.048794982898853756 0.04549848911452276 0.0 0.021190754899889662 0.0 0.0
-0.038280831437304576 0.03520406910966014 0.0 0.017774319007221026 0.0 0.0
-0.028782105152442387 0.02591238265088854 0.0 0.014217990387442578 0.0 0.0
-0.020425190310022795 0.017745162984236312 0.0 0.010611489758848099 0.0 0.0
-0.013422819107322197 0.010938076482921206 0.0 0.0072077625206116245 0.0 0.0
-0.008041989785624638 0.0058144152261765435 0.0 0.004417804345172659 0.0 0.0
-0.004442993246861679 0.0026335659192201796 0.0 0.0026556360184970657 0.0 0.0
-0.0024435956569598453 0.001184133546129609 0.0 0.001901231445327391 0.0 0.0
-0.0015112493406464083 0.0007036221325388189 0.0 0.0018260925693943321 0.0 0.0
-0.001035212553379112 0.0004848512617955319 0.0 0.001928173803348538 0.0 0.0
-0.0006332935535355345 0.0002546220424437999 0.0 0.0019217265627905918 0.0 0.0
-0.00020892737696007676 -0.0001360056221680338 0.0 0.001487387055921208 0.0 0.0
6.838694543289486e-06 -0.00046955147272124503 0.0 0.0009039293026576193 0.0 0.0
-5.475035624127869e-05 -0.00026273699371808553 0.0 -0.0007101551953305153 0.0 0.0
-0.0002673418224858201 -7.052527716466473e-05 0.0 -0.0012269466359368683 0.0 0.0
-0.000716560471104533 0.00029393003610260417 0.0 -0.0016490450871987166 0.0 0.0
-0.0011865835220788434 0.0005348900198167368 0.0 -0.0016470681326884013 0.0 0.0
-0.0018037037650763007 0.0008127581423507572 0.0 -0.0014946472971471452 0.0 0.0
-0.0030713256096016363 0.0015595000736097426 0.0 -0.0015865288899207038 0.0 0.0
-0.005677409451541816 0.003629450842977008 0.0 -0.0023882675072392696 0.0 0.0
-0.010139425528619008 0.007716246798087887 0.0 -0.004181862398738959 0.0 0.0
-0.016596965591738826 0.013917325820731595 0.0 -0.006816246099209893 0.0 0.0
-0.024911427169875048 0.022022746832781024 0.0 -0.00996662952283592 0.0 0.0
-0.034854350712381306 0.03175670250602373 0.0 -0.013320962599072733 0.0 0.0
-0.04619521365025104 0.042873530258873305 0.0 -0.01662713527140794 0.0 0.0
-0.05877809705932152 0.055220341228700245 0.0 -0.019821284091320886 0.0 0.0
-0.07252389438492254 0.06872806825992506 0.0 -0.02294960886501351 0.0 0.0
-0.08733892694822859 0.08333349630993851 0.0 -0.026088131779551806 0.0 0.0
-0.10285242503551847 0.09874751803386257 0.0 -0.0295005481186864 0.0 0.0
-0.11791478934260047 0.11395640487745157 0.0 -0.03384244994427137 0.0 0.0
-0.13009021884658145 0.1266342773476694 0.0 -0.03973536106244411 0.0 0.0
-0.13548515953543616 0.132892102892809 0.0 -0.046932366144230554 0.0 0.0
-0.12890895570361596 0.12749299253672677 0.0 -0.0548655144338182 0.0 0.0
-0.12190694643599445 0.10409793147426999 0.0 2.9193661377213687e-14 0.0 0.0
-0.1289089557035939 0.12749299253670565 0.0 0.05486551443387823 0.0 0.0
-0.1354851595353925 0.13289210289276918 0.0 0.04693236614428912 0.0 0.0
-0.13009021884652103 0.12663427734761248 0.0 0.03973536106247733 0.0 0.0
-0.11791478934252626 0.11395640487736902 0.0 0.0338424499442697 0.0 0.0
-0.10285242503543637 0.09874751803377858 0.0 0.029500548118679096 0.0 0.0
-0.0873389269481444 0.08333349630985758 0.0 0.02608813177953457 0.0 0.0
-0.07252389438483789 0.06872806825984187 0.0 0.02294960886499668 0.0 0.0
-0.05877809705923913 0.05522034122861836 0.0 0.01982128409130301 0.0 0.0
-0.046195213650174635 0.042873530258798045 0.0 0.01662713527137957 0.0 0.0
-0.034854350712313895 0.031756702505951376 0.0 0.013320962599043088 0.0 0.0
-0.02491142716982015 0.02202274683272501 0.0 0.009966629522813278 0.0 0.0
-0.01659696559169834 0.013917325820690333 0.0 0.00681624609919289 0.0 0.0
-0.010139425528591539 0.007716246798063049 0.0 0.004181862398724156 0.0 0.0
-0.005677409451525656 0.0036294508429653635 0.0 0.0023882675072313896 0.0 0.0
-0.0030713256095941505 0.0015595000736069538 0.0 0.001586528889918402 0.0 0.0
-0.0018037037650733391 0.000812758142347085 0.0 0.001494647297146475 0.0 0.0
-0.0011865835220780723 0.0005348900198168493 0.0 0.0016470681326899391 0.0 0.0
-0.0007165604711042716 0.0002939300361028817 0.0 0.0016490450871962674 0.0 0.0
-0.00026734182248518964 -7.052527716468575e-05 0.0 0.0012269466359354382 0.0 0.0
-5.475035624073298e-05 -0.0002627369937174002 0.0 0.000710155195329688 0.0 0.0
-0.000102556767961756 -0.00011296110044952757 0.0 -0.0005175040676723947 0.0 0.0
-0.00031652174865817755 -5.669314252178616e-06 0.0 -0.0009425829233588624 0.0 0.0
-0.0007947189428787018 0.00033238976841205923 0.0 -0.0013197399266602378 0.0 0.0
-0.0013366189431971405 0.0005788190959735072 0.0 -0.0013037990045222843 0.0 0.0
-0.0021277000973293205 0.0009440212831653373 0.0 -0.0011123447287289632 0.0 0.0
-0.003784365731245216 0.002042599838022485 0.0 -0.001214152860651027 0.0 0.0
-0.007027761532972184 0.004794051795500732 0.0 -0.0020096497141230377 0.0 0.0
-0.012316923751508712 0.009733914599797177 0.0 -0.0035997823285378434 0.0 0.0
-0.019801712245456318 0.016950888740762084 0.0 -0.005822975314775046 0.0 0.0
-0.029409765590425928 0.02632913144441929 0.0 -0.008510615105710358 0.0 0.0
-0.04092243954173472 0.037613470372867254 0.0 -0.011379501765974116 0.0 0.0
-0.0541018257598517 0.05055068160267192 0.0 -0.014211692386782703 0.0 0.0
-0.0687594499773791 0.06495641778539679 0.0 -0.016967232226467635 0.0 0.0
-0.08475310594484146 0.08070462253900632 0.0 -0.019706515595469924 0.0 0.0
-0.10192121277431243 0.09765087912287172 0.0 -0.022410808332557458 0.0 0.0
-0.11985273829880305 0.11544854909047803 0.0 -0.024998332316678463 0.0 0.0
-0.13735478843422222 0.13306987276595453 0.0 -0.027819228211663802 0.0 0.0
-0.15175039848177982 0.14804652430776918 0.0 -0.032344426237874875 0.0 0.0
-0.1586193797742172 0.15595459644686957 0.0 -0.04072737023204069 0.0 0.0
-0.1521515023060254 0.150824629505012 0.0 -0.05418569914226777 0.0 0.0
-0.1447866497037015 0.1258359023435817 0.0 2.7070359842618075e-14 0.0 0.0
-0.15215150230600047 0.15082462950498843 0.0 0.05418569914232205 0.0 0.0
-0.15861937977416612 0.15595459644682247 0.0 0.040727370232086293 0.0 0.0
-0.15175039848170935 0.1480465243077002 0.0 0.032344426237901 0.0 0.0
-0.13735478843413707 0.13306987276586776 0.0 0.02781922821166785 0.0 0.0
-0.11985273829870913 0.11544854909038857 0.0 0.02499833231667092 0.0 0.0
-0.10192121277421565 0.09765087912278146 0.0 0.022410808332546737 0.0 0.0
-0.08475310594474399 0.08070462253891628 0.0 0.01970651559545423 0.0 0.0
-0.06875944997728467 0.06495641778529468 0.0 0.01696723222644842 0.0 0.0
-0.05410182575976411 0.05055068160258995 0.0 0.014211692386757867 0.0 0.0
-0.04092243954165793 0.037613470372790475 0.0 0.011379501765950916 0.0 0.0
-0.029409765590363124 0.026329131444358934 0.0 0.008510615105690325 0.0 0.0
-0.019801712245409313 0.016950888740714442 0.0 0.005822975314760071 0.0 0.0
-0.012316923751475795 0.009733914599766193 0.0 0.0035997823285253763 0.0 0.0
-0.007027761532951749 0.004794051795485185 0.0 0.002009649714116583 0.0 0.0
-0.003784365731235734 0.002042599838015028 0.0 0.0012141528606486507 0.0 0.0
-0.0021277000973264986 0.0009440212831631034 0.0 0.0011123447287276528 0.0 0.0
-0.001336618943196252 0.0005788190959737292 0.0 0.0013037990045226858 0.0 0.0
-0.0007947189428782971 0.00033238976841328736 0.0 0.001319739926659375 0.0 0.0
-0.00031652174865797475 -5.669314252495092e-06 0.0 0.0009425829233565969 0.0 0.0
-0.00010255676796132406 -0.00011296110044919117 0.0 0.0005175040676720402 0.0 0.0
-0.00013168832316113108 -2.0842010639987116e-05 0.0 -0.0003363801086412324 0.0 0.0
-0.000350856982885631 5.142575465894246e-05 0.0 -0.0006383480516817641 0.0 0.0
-0.0008654307165444361 0.00036700894317354544 0.0 -0.0009265495065987847 0.0 0.0
-0.0014940307583363873 0.0006221888925832007 0.0 -0.0008919070805627655 0.0 0.0
-0.0024986995416735485 0.0011180673825898445 0.0 -0.0006890543025567167 0.0 0.0
-0.0045918854202158625 0.0026581213346989754 0.0 -0.0007843827463377747 0.0 0.0
-0.008458192375625131 0.00608354311423696 0.0 -0.0014486010664632094 0.0 0.0
-0.014527264592608648 0.011803335034985424 0.0 -0.0026067491718636737 0.0 0.0
-0.023007654329850236 0.01999908576803802 0.0 -0.004249972018943251 0.0 0.0
-0.033880045614609895 0.030620798592000453 0.0 -0.006250043378695538 0.0 0.0
-0.04694672742353163 0.043438965311507344 0.0 -0.008400392446333131 0.0 0.0
-0.06195871569870118 0.05819182139541754 0.0 -0.010531518085833975 0.0 0.0
-0.0786924145675445 0.07466117938679842 0.0 -0.012629145562153266 0.0 0.0
-0.09693283822237185 0.09264990089751589 0.0 -0.014764207121945249 0.0 0.0
-0.11637624088053547 0.11188095312745466 0.0 -0.01685692162809833 0.0 0.0
-0.1364837559479959 0.13185553130205868 0.0 -0.01858816598550013 0.0 0.0
-0.15613588005140178 0.1515404815369896 0.0 -0.019803309413052025 0.0 0.0
-0.17284878047048718 0.16870273862479068 0.0 -0.02200002808522524 0.0 0.0
-0.18184657814984667 0.17897581043766564 0.0 -0.03012108961035132 0.0 0.0
-0.17635339702604344 0.1752768251177886 0.0 -0.05058071892463762 0.0 0.0
-0.16905581707223777 0.1492838678061118 0.0 1.7659484985443896e-14 0.0 0.0
-0.17635339702601463 0.1752768251177539 0.0 0.05058071892468129 0.0 0.0
-0.18184657814978739 0.1789758104376099 0.0 0.030121089610390638 0.0 0.0
-0.17284878047040572 0.16870273862470844 0.0 0.02200002808523932 0.0 0.0
-0.15613588005130494 0.15154048153690058 0.0 0.019803309413054613 0.0 0.0
-0.1364837559478895 0.13185553130195102 0.0 0.018588165985494474 0.0 0.0
-0.11637624088042643 0.11188095312734722 0.0 0.016856921628093074 0.0 0.0
-0.09693283822226272 0.09264990089740661 0.0 0.01476420712193318 0.0 0.0
-0.07869241456743795 0.0746611793866891 0.0 0.012629145562142764 0.0 0.0
-0.06195871569860211 0.058191821395323945 0.0 0.01053151808581685 0.0 0.0
-0.046946727423444926 0.04343896531142438 0.0 0.008400392446313708 0.0 0.0
-0.03388004561454012 0.03062079859193518 0.0 0.006250043378679339 0.0 0.0
-0.023007654329797088 0.019999085767984218 0.0 0.004249972018933609 0.0 0.0
-0.014527264592570189 0.011803335034951573 0.0 0.0026067491718546987 0.0 0.0
-0.00845819237560108 0.0060835431142133856 0.0 0.0014486010664579957 0.0 0.0
-0.004591885420203668 0.0026581213346915204 0.0 0.0007843827463323267 0.0 0.0
-0.0024986995416692815 0.0011180673825886126 0.0 0.0006890543025556529 0.0 0.0
-0.0014940307583351466 0.0006221888925810586 0.0 0.0008919070805634289 0.0 0.0
-0.0008654307165434876 0.00036700894317359017 0.0 0.0009265495065978666 0.0 0.0
-0.0003508569828850327 5.142575465883821e-05 0.0 0.000638348051681358 0.0 0.0
-0.00013168832316071187 -2.0842010640072012e-05 0.0 0.0003363801086410008 0.0 0.0
-0.00013338639374256217 1.3845895608988493e-05 0.0 -0.00018881457455923833 0.0 0.0
-0.00036005504924354275 8.980929500076163e-05 0.0 -0.0003199216020185824 0.0 0.0
-0.0009248962556217192 0.00039200697218746896 0.0 -0.00045009022680087896 0.0 0.0
-0.0016722067502555242 0.0006802628733879809 0.0 -0.00040859259499997 0.0 0.0
-0.002934804518495531 0.0013641651353882326 0.0 -0.00023387098100124352 0.0 0.0
-0.005480838320211897 0.0033973621137472826 0.0 -0.00027278416360656003 0.0 0.0
-0.009938463450304994 0.007446791108290014 0.0 -0.0006317801904628902 0.0 0.0
-0.016741699687675714 0.013891994811882025 0.0 -0.001239227691175974 0.0 0.0
-0.026176846197167702 0.023022765799202507 0.0 -0.0021050581249897516 0.0 0.0
-0.03828241268476637 0.03485412533211482 0.0 -0.003189370662831484 0.0 0.0
-0.05288553903188854 0.04919034196944096 0.0 -0.00437730830946815 0.0 0.0
-0.06972570241185684 0.06575688706208879 0.0 -0.005582608136998439 0.0 0.0
-0.08853594053677016 0.08428940360456032 0.0 -0.006817231734028389 0.0 0.0
-0.10900585406578103 0.10450384105785017 0.0 -0.008095000052370188 0.0 0.0
-0.13067643896766876 0.12598112244536536 0.0 -0.009332676248224573 0.0 0.0
-0.15280170156703873 0.14801078836835938 0.0 -0.010264346892315318 0.0 0.0
-0.17419641043619266 0.1694172470975842 0.0 -0.010488836396185175 0.0 0.0
-0.19289837584524192 0.18826449578403517 0.0 -0.01048507781797536 0.0 0.0
-0.2049318663537872 0.20111854769128484 0.0 -0.01506745187327153 0.0 0.0
-0.20212007094356566 0.20131415360324695 0.0 -0.03824612366527781 0.0 0.0
-0.19564203676172928 0.17635799837522698 0.0 8.746475765875061e-15 0.0 0.0
-0.2021200709435325 0.2013141536032137 0.0 0.03824612366530567 0.0 0.0
-0.20493186635372088 0.20111854769122756 0.0 0.0150674518732947 0.0 0.0
-0.19289837584514938 0.1882644957839392 0.0 0.010485077817980835 0.0 0.0
-0.1741964104360835 0.1694172470974778 0.0 0.010488836396185565 0.0 0.0
-0.15280170156691894 0.14801078836823695 0.0 0.010264346892309097 0.0 0.0
-0.13067643896754572 0.12598112244524265 0.0 0.009332676248223542 0.0 0.0
-0.1090058540656595 0.1045038410577264 0.0 0.008095000052368004 0.0 0.0
-0.0885359405366516 0.08428940360444621 0.0 0.0068172317340232 0.0 0.0
-0.0697257024117468 0.06575688706197631 0.0 0.005582608136989162 0.0 0.0
-0.05288553903179299 0.04919034196934627 0.0 0.004377308309455646 0.0 0.0
-0.03828241268468857 0.03485412533203871 0.0 0.003189370662820154 0.0 0.0
-0.026176846197108406 0.023022765799139432 0.0 0.0021050581249852755 0.0 0.0
-0.016741699687632977 0.013891994811842417 0.0 0.001239227691171157 0.0 0.0
-0.009938463450277518 0.0074467911082626796 0.0 0.0006317801904609204 0.0 0.0
-0.005480838320197568 0.0033973621137376783 0.0 0.0002727841636043385 0.0 0.0
-0.0029348045184898006 0.0013641651353864862 0.0 0.00023387098100207402 0.0 0.0
-0.0016722067502538728 0.0006802628733860624 0.0 0.0004085925950007922 0.0 0.0
-0.0009248962556210492 0.0003920069721870236 0.0 0.0004500902268015506 0.0 0.0
-0.00036005504924292204 8.980929500086382e-05 0.0 0.0003199216020196433 0.0 0.0
-0.00013338639374191116 1.3845895608634147e-05 0.0 0.00018881457455996537 0.0 0.0
-9.20548038699891e-05 1.6976797826949994e-05 0.0 -0.00011458731061049871 0.0 0.0
-0.0003257713170566934 0.00010260296464675457 0.0 -0.0001330110731540302 0.0 0.0
-0.0009688651577880477 0.0004012206835463695 0.0 -0.0001467219538338667 0.0 0.0
-0.0018908450641392607 0.000715565817008965 0.0 -6.91127967380145e-05 0.0 0.0
-0.003445555827154576 0.0015101263432859985 0.0 0.00021567938286452132 0.0 0.0
-0.006431926365481759 0.0037927796994389282 0.0 0.00045843570530615396 0.0 0.0
-0.011443557997264054 0.008141635187005258 0.0 0.0005777019771108481 0.0 0.0
-0.018934607356111865 0.014937772660271704 0.0 0.0006114577529407743 0.0 0.0
-0.02927344167218585 0.024523219745291265 0.0 0.0005490478773293194 0.0 0.0
-0.04257469244556421 0.03695087864689283 0.0 0.00034383592264012556 0.0 0.0
-0.05869854009119504 0.05204188888084391 0.0 3.6135543350573375e-05 0.0 0.0
-0.07736570703183682 0.06951589353805382 0.0 -0.0003563779321171896 0.0 0.0
-0.09823597173152429 0.08907880940206975 0.0 -0.0008560998578424576 0.0 0.0
-0.12090647109325059 0.11039898563453877 0.0 -0.0014351899872810277 0.0 0.0
-0.14478542200933148 0.13299253602190944 0.0 -0.0020878213310968965 0.0 0.0
-0.16890462048507393 0.1560350999484964 0.0 -0.002674006957861349 0.0 0.0
-0.19181161754201448 0.17823162014162403 0.0 -0.0028750173611018313 0.0 0.0
-0.21163289040671124 0.19774207277386718 0.0 -0.0025747439109059522 0.0 0.0
-0.22611748552922 0.21178031111521955 0.0 -0.00527801699542115 0.0 0.0
-0.22980193753235226 0.2147713863162229 0.0 -0.029505904312941672 0.0 0.0
-0.22788596827592317 0.19117867673871597 0.0 4.760081218080359e-15 0.0 0.0
-0.2298019375323158 0.21477138631620263 0.0 0.029505904312949454 0.0 0.0
-0.22611748552914424 0.2117803111151563 0.0 0.005278016995426439 0.0 0.0
-0.21163289040660488 0.19774207277376743 0.0 0.002574743910907378 0.0 0.0
-0.19181161754189197 0.17823162014149843 0.0 0.0028750173611007818 0.0 0.0
-0.16890462048494184 0.15603509994837297 0.0 0.0026740069578552704 0.0 0.0
-0.14478542200919514 0.13299253602178057 0.0 0.002087821331093462 0.0 0.0
-0.12090647109311625 0.11039898563440964 0.0 0.0014351899872793554 0.0 0.0
-0.09823597173139444 0.08907880940194952 0.0 0.0008560998578405685 0.0 0.0
-0.0773657070317155 0.06951589353793533 0.0 0.00035637793211205394 0.0 0.0
-0.05869854009109063 0.05204188888073761 0.0 -3.613554335687389e-05 0.0 0.0
-0.042574692445480324 0.03695087864681436 0.0 -0.00034383592264523605 0.0 0.0
-0.02927344167212082 0.02452321974522416 0.0 -0.0005490478773329632 0.0 0.0
-0.018934607356064382 0.014937772660222552 0.0 -0.000611457752939738 0.0 0.0
-0.011443557997233112 0.008141635186977407 0.0 -0.0005777019771079654 0.0 0.0
-0.006431926365464995 0.0037927796994258276 0.0 -0.00045843570530378346 0.0 0.0
-0.0034455558271475704 0.0015101263432853009 0.0 -0.00021567938286334019 0.0 0.0
-0.0018908450641370181 0.0007155658170077219 0.0 6.911279673778715e-05 0.0 0.0
-0.0009688651577868534 0.0004012206835465375 0.0 0.00014672195383503246 0.0 0.0
-0.00032577131705632605 0.00010260296464687719 0.0 0.00013301107315586197 0.0 0.0
-9.20548038702994e-05 1.6976797826589355e-05 0.0 0.00011458731061194199 0.0 0.0
SCALARS Statev float 8
LOOKUP_TABLE default
0.0 0.020570823314334425 0.016558762378739485 -0.019597711494066694 0.0030389491153272018 -0.0013143042129979967 0.0 0.0
0.0 0.007354587094312696 0.005476340220393344 -0.0035464402665286807 -0.0019298999538646601 -0.007492335849272739 0.0 0.0
0.0 0.00023888330795638566 0.00029617235856751865 -0.00017862808586261163 -0.00011754427270490697 -0.00043150985744426046 0.0 0.0
0.0 0.000225913482137138 0.0001393045458164792 -0.00010008039284438444 -3.9224152972095334e-05 3.8839746127189884e-05 0.0 0.0
0.0 0.0013392071819222254 0.0010073847331590544 -0.0007447737050649801 -0.000262611028094074 0.0002056291560437113 0.0 0.0
0.0 0.003596789883758792 0.003487108169894491 -0.0028216416786799713 -0.0006654664912145218 0.0004141246564297873 0.0 0.0
0.0 0.008801561769897178 0.008020071427161476 -0.007014705311173103 -0.0010053661159883675 0.0005678175089590785 0.0 0.0
0.0 0.01680176449980815 0.015081465623220412 -0.013807672060006776 -0.0012737935632136364 0.0006284110066464802 0.0 0.0
0.0 0.02811270563405529 0.024993376079348758 -0.023459552609064748 -0.001533823470283996 0.0005908328180818859 0.0 0.0
0.0 0.04287733096723316 0.03785146850972639 -0.03602349100650091 -0.0018279775032255035 0.0004148023957885359 0.0 0.0
0.0 0.060928927629197605 0.05351796436363897 -0.05134469483067982 -0.0021732695329590933 0.00012800702247770077 0.0 0.0
0.0 0.08163033126704167 0.07172801430859238 -0.06915677365899667 -0.0025712406495955733 -0.0002540263671151051 0.0 0.0
0.0 0.10497788326061044 0.09216706049207246 -0.08915787432243776 -0.0030091861696346666 -0.0007376705473132561 0.0 0.0
0.0 0.13052801074866707 0.11450114729132928 -0.11102988152435467 -0.00347126576697449 -0.0012741675071213433 0.0 0.0
0.0 0.15779063754515352 0.1382991297365067 -0.13436196072848772 -0.003937169008018794 -0.0018804276967733773 0.0 0.0
0.0 0.1860408729424391 0.16289177798797128 -0.1585082712114677 -0.004383506776503529 -0.002518192922765031 0.0 0.0
0.0 0.21409835290590729 0.18728486318182092 -0.18249885867878468 -0.004786004503036497 -0.0030546161339048378 0.0 0.0
0.0 0.24043954519731378 0.21016878912472056 -0.2050477003931545 -0.005121088731566001 -0.003293438699212325 0.0 0.0
0.0 0.26328999155633664 0.2300235446191903 -0.2246359920294487 -0.005387552589741088 -0.0031047386205461536 0.0 0.0
0.0 0.28024834463222237 0.2449714802144978 -0.23941596828878817 -0.005555511925709985 -0.003820697623766795 0.0 0.0
0.0 0.287631537502988 0.2510308750010473 -0.24549180347957777 -0.0055390715214692545 3.8077180297690916e-15 0.0 0.0
0.0 0.2802483446321836 0.2449714802144638 -0.23941596828875528 -0.0055555119257086885 0.0038206976237773974 0.0 0.0
0.0 0.263289991556273 0.2300235446191319 -0.22463599202939577 -0.005387552589735567 0.003104738620557587 0.0 0.0
0.0 0.24043954519719812 0.21016878912461923 -0.20504770039305564 -0.005121088731563436 0.0032934386992178686 0.0 0.0
0.0 0.2140983529057715 0.18728486318170207 -0.18249885867867022 -0.004786004503032171 0.0030546161339054818 0.0 0.0
0.0 0.18604087294230193 0.16289177798785023 -0.15850827121135008 -0.0043835067764999664 0.0025181929227577875 0.0 0.0
0.0 0.15779063754501152 0.13829912973638225 -0.1343619607283669 -0.003937169008015251 0.0018804276967723304 0.0 0.0
0.0 0.13052801074852538 0.11450114729120553 -0.11102988152423354 -0.0034712657669721024 0.0012741675071209595 0.0 0.0
0.0 0.1049778832604691 0.09216706049194945 -0.08915787432231673 -0.00300918616963254 0.0007376705473093985 0.0 0.0
0.0 0.08163033126691575 0.0717280143084825 -0.06915677365888862 -0.0025712406495937566 0.00025402636711048835 0.0 0.0
0.0 0.06092892762908798 0.05351796436354306 -0.051344694830586436 -0.002173269532956606 -0.00012800702248379637 0.0 0.0
0.0 0.0428773309671437 0.03785146850964824 -0.0360234910064244 -0.00182797750322395 -0.0004148023957912914 0.0 0.0
0.0 0.028112705633988974 0.024993376079290402 -0.023459552609007936 -0.001533823470282421 -0.0005908328180820545 0.0 0.0
0.0 0.01680176449976296 0.015081465623180109 -0.013807672059967685 -0.0012737935632123885 -0.0006284110066470331 0.0 0.0
0.0 0.00880156176986912 0.008020071427135648 -0.007014705311148845 -0.0010053661159868076 -0.0005678175089584385 0.0 0.0
0.0 0.0035967898837437145 0.003487108169879892 -0.002821641678667107 -0.0006654664912127903 -0.00041412465642884594 0.0 0.0
0.0 0.001339207181915546 0.0010073847331538033 -0.0007447737050610278 -0.0002626110280927734 -0.0002056291560425288 0.0 0.0
0.0 0.00022591348213499328 0.0001393045458152301 -0.00010008039284349084 -3.922415297173844e-05 -3.883974612697292e-05 0.0 0.0
0.0 0.00023888330795544 0.0002961723585667489 -0.00017862808586217058 -0.0001175442727045773 0.0004315098574425172 0.0 0.0
0.0 0.007354587094301835 0.005476340220387926 -0.003546440266524429 -0.0019298999538634935 0.007492335849264003 0.0 0.0
0.0 0.020570823314312852 0.016558762378725316 -0.019597711494047088 0.0030389491153217482 0.001314304212953233 0.0 0.0
0.0 0.01693316316135835 0.012793766800529177 -0.01636704209405766 0.0035732752935284766 -0.0008152604098764207 0.0 0.0
0.0 0.004691171895671084 0.0033784967030370964 -0.0021784228844028922 -0.001200073818634199 -0.006058775334288708 0.0 0.0
0.0 -9.79749512015631e-05 -8.028727009797929e-05 7.703381915791219e-05 3.2534509400670873e-06 -0.00013073702117791347 0.0 0.0
0.0 7.004007425337599e-05 6.113032933224284e-05 -4.4084780805911904e-05 -1.7045548526330826e-05 1.8839967891276e-05 0.0 0.0
0.0 0.0008101373308090233 0.0006888732057177781 -0.0005136115895073824 -0.00017526161621039504 7.827299518752688e-05 0.0 0.0
0.0 0.0031183354751582264 0.0027603709490046403 -0.0022575496338162744 -0.0005028213151883682 4.3374519924558886e-05 0.0 0.0
0.0 0.007561883131867087 0.0068646118575426025 -0.006087092763139482 -0.0007775190944031185 -0.0003153740404275628 0.0 0.0
0.0 0.014992685876851474 0.013343974406424836 -0.012406348010630385 -0.0009376263957944529 -0.0009193910065046621 0.0 0.0
0.0 0.025548453319330245 0.02249498930932203 -0.021448308012416057 -0.0010466812969059634 -0.0017721593685601513 0.0 0.0
0.0 0.039240760628290704 0.03435337062851979 -0.03321235473341281 -0.0011410158951069822 -0.0028428619505456777 0.0 0.0
0.0 0.055908760358169586 0.04875164956868042 -0.047519784333309424 -0.0012318652353710562 -0.00403545316403839 0.0 0.0
0.0 0.07535846591636243 0.0654376303930424 -0.06411311715405527 -0.0013245132389870704 -0.005263833104784032 0.0 0.0
0.0 0.09670525716648594 0.0841584753385625 -0.08273946128353783 -0.0014190140550246538 -0.006519435044338971 0.0 0.0
0.0 0.12036179430024975 0.10462847670786384 -0.1031200656949308 -0.0015084110129330204 -0.007796735953777216 0.0 0.0
0.0 0.14558766126032746 0.12646511675189015 -0.12488252796734817 -0.0015825887845417322 -0.00904882482086417 0.0 0.0
0.0 0.17173313543459368 0.1490771213788876 -0.14744410561962412 -0.0016330157592635967 -0.010151866572254286 0.0 0.0
0.0 0.197802278090544 0.17158190036614757 -0.16992704075391657 -0.0016548596122309303 -0.010830462360707553 0.0 0.0
0.0 0.222410998773492 0.19279195328434157 -0.19114246062222195 -0.0016494926621195781 -0.01073862910271808 0.0 0.0
0.0 0.24374093679409425 0.21117778389822175 -0.20957354015637264 -0.0016042437418489466 -0.009768618616589357 0.0 0.0
0.0 0.2593147062626859 0.22451646016397317 -0.2230906730307346 -0.0014257871332386011 -0.008944697438006275 0.0 0.0
0.0 0.26618735709613595 0.22973297935614218 -0.2285786477233529 -0.0011543316327895117 1.0093488544971052e-14 0.0 0.0
0.0 0.25931470626265307 0.2245164601639439 -0.22309067303070618 -0.0014257871332374807 0.008944697438031595 0.0 0.0
0.0 0.24374093679402511 0.21117778389816105 -0.20957354015631327 -0.0016042437418475393 0.00976861861661384 0.0 0.0
0.0 0.22241099877338477 0.19279195328424942 -0.1911424606221292 -0.0016494926621202625 0.010738629102732544 0.0 0.0
0.0 0.19780227809041942 0.1715819003660407 -0.16992704075380916 -0.00165485961223167 0.010830462360709288 0.0 0.0
0.0 0.17173313543446364 0.14907712137877516 -0.14744410561951207 -0.0016330157592627827 0.010151866572245961 0.0 0.0
0.0 0.14558766126019432 0.1264651167517744 -0.12488252796723272 -0.0015825887845416571 0.009048824820861091 0.0 0.0
0.0 0.12036179430012006 0.10462847670775162 -0.10312006569481905 -0.0015084110129324597 0.007796735953773341 0.0 0.0
0.0 0.09670525716635553 0.08415847533844993 -0.08273946128342541 -0.001419014055024561 0.00651943504433114 0.0 0.0
0.0 0.07535846591624627 0.06543763039294181 -0.06411311715395443 -0.0013245132389873985 0.005263833104775828 0.0 0.0
0.0 0.055908760358067466 0.04875164956859212 -0.047519784333221626 -0.0012318652353705286 0.00403545316402729 0.0 0.0
0.0 0.039240760628210684 0.034353370628449925 -0.03321235473334331 -0.0011410158951065618 0.0028428619505378267 0.0 0.0
0.0 0.025548453319267875 0.02249498930926706 -0.02144830801236169 -0.0010466812969053727 0.0017721593685552338 0.0 0.0
0.0 0.014992685876809016 0.013343974406387247 -0.012406348010593433 -0.0009376263957938399 0.0009193910065002405 0.0 0.0
0.0 0.007561883131839843 0.006864611857518062 -0.006087092763116006 -0.0007775190944020413 0.000315374040425094 0.0 0.0
0.0 0.00311833547514434 0.002760370948992438 -0.0022575496338055057 -0.0005028213151869293 -4.337451992533451e-05 0.0 0.0
0.0 0.0008101373308046769 0.0006888732057144894 -0.0005136115895049004 -0.00017526161620958945 -7.827299518694023e-05 0.0 0.0
0.0 7.004007425257231e-05 6.113032933206781e-05 -4.4084780805798896e-05 -1.7045548526268746e-05 -1.8839967891156387e-05 0.0 0.0
0.0 -9.79749512017717e-05 -8.028727009752712e-05 7.703381915751495e-05 3.2534509400119256e-06 0.00013073702117754967 0.0 0.0
0.0 0.004691171895659081 0.0033784967030304554 -0.002178422884397957 -0.001200073818632498 0.006058775334277018 0.0 0.0
0.0 0.01693316316133414 0.012793766800510711 -0.016367042094034785 0.0035732752935240643 0.0008152604098425983 0.0 0.0
0.0 0.012808536760585182 0.009474442605237972 -0.012441979879219063 0.0029675372739810927 -0.003521093370712632 0.0 0.0
0.0 0.0032355336421321847 0.002075173440935255 -0.0011819028926136647 -0.0008932705483215935 -0.0053365616894158144 0.0 0.0
0.0 3.766905945595814e-07 1.3862890465938495e-06 -1.0983302982523848e-06 -2.879587483414604e-07 5.574703214274795e-07 0.0 0.0
0.0 4.443842364668118e-06 2.973332154124749e-06 -1.3561067359666376e-06 -1.6172254181582557e-06 8.10145166609016e-06 0.0 0.0
0.0 0.00040982937338413753 0.00036922376236319646 -0.0002681983923336512 -0.00010102537002954512 9.41742814431464e-06 0.0 0.0
0.0 0.002279778173039279 0.001972309156168016 -0.0015689971959779335 -0.00040331196019008006 -0.00016157663994074447 0.0 0.0
0.0 0.00598166740029215 0.005498540626555832 -0.004786409653076821 -0.000712130973479013 -0.0008578044773057024 0.0 0.0
0.0 0.01263876533033906 0.011246570014200813 -0.01035748617879842 -0.0008890838354023865 -0.002015136649082538 0.0 0.0
0.0 0.022097989283341196 0.019444357390969353 -0.018447955430149227 -0.0009964019608200926 -0.0036309745666614694 0.0 0.0
0.0 0.0344583800309848 0.03007021296318084 -0.028987049576413553 -0.0010831633867673077 -0.005610960763994185 0.0 0.0
0.0 0.04941402101074867 0.042931013266835356 -0.041763045624556766 -0.0011679676422785494 -0.007774335836814654 0.0 0.0
0.0 0.06657159184094934 0.05779071818834483 -0.05653459059201523 -0.0012561275963296058 -0.009954372018433705 0.0 0.0
0.0 0.08603123198406121 0.07443452321224887 -0.07308899553120696 -0.001345527681041811 -0.012111337127543155 0.0 0.0
0.0 0.10684534426949319 0.09265042506188347 -0.0912205451709068 -0.0014298798909766844 -0.014286353221086132 0.0 0.0
0.0 0.12938651118585942 0.1121222137431666 -0.11062054050007072 -0.0015016732430960951 -0.01642032430188858 0.0 0.0
0.0 0.15280653757811713 0.1323626279657944 -0.13080941371576665 -0.0015532142500276607 -0.018278745387488773 0.0 0.0
0.0 0.17626554708383377 0.152635630102604 -0.15105621648859635 -0.001579413614007765 -0.01942867155228362 0.0 0.0
0.0 0.19851264202283814 0.17187119378298205 -0.17029935373990646 -0.001571840043075811 -0.019372409100104116 0.0 0.0
0.0 0.21780481375520336 0.18852037893672888 -0.18701742904506619 -0.0015029498916624042 -0.017897304964089963 0.0 0.0
0.0 0.23176578869174513 0.20051922138535364 -0.19912118212548416 -0.0013980392598690258 -0.015152625125284236 0.0 0.0
0.0 0.23823509869984352 0.205355807422212 -0.20426813455661286 -0.0010876728655991302 1.8159085346525217e-14 0.0 0.0
0.0 0.23176578869171688 0.20051922138532674 -0.199121182125459 -0.0013980392598675763 0.015152625125329292 0.0 0.0
0.0 0.21780481375513522 0.18852037893666965 -0.18701742904500676 -0.0015029498916630643 0.01789730496413307 0.0 0.0
0.0 0.19851264202274496 0.17187119378290172 -0.17029935373982488 -0.00157184004307683 0.019372409100132184 0.0 0.0
0.0 0.17626554708372646 0.15263563010251222 -0.15105621648850426 -0.0015794136140081566 0.019428671552286694 0.0 0.0
0.0 0.15280653757800056 0.1323626279656934 -0.13080941371566585 -0.0015532142500274777 0.01827874538747979 0.0 0.0
0.0 0.12938651118573904 0.11212221374306262 -0.11062054049996654 -0.00150167324309605 0.01642032430188193 0.0 0.0
0.0 0.10684534426937731 0.09265042506178305 -0.09122054517080704 -0.001429879890976041 0.014286353221079023 0.0 0.0
0.0 0.08603123198394728 0.0744345232121506 -0.0730889955311089 -0.0013455276810417321 0.012111337127531426 0.0 0.0
0.0 0.06657159184084357 0.05779071818825396 -0.0565345905919241 -0.0012561275963297901 0.00995437201841893 0.0 0.0
0.0 0.04941402101065847 0.042931013266757044 -0.041763045624479085 -0.001167967642277953 0.007774335836798051 0.0 0.0
0.0 0.03445838003091535 0.030070212963119958 -0.028987049576353098 -0.0010831633867668462 0.005610960763981341 0.0 0.0
0.0 0.022097989283284963 0.019444357390920212 -0.018447955430100683 -0.000996401960819531 0.0036309745666519913 0.0 0.0
0.0 0.012638765330301725 0.011246570014168247 -0.0103574861787665 -0.0008890838354017237 0.0020151366490751372 0.0 0.0
0.0 0.005981667400268178 0.0054985406265343 -0.004786409653056333 -0.0007121309734779725 0.0008578044773004477 0.0 0.0
0.0 0.002279778173028685 0.001972309156158887 -0.001568997195970265 -0.00040331196018862176 0.0001615766399395068 0.0 0.0
0.0 0.0004098293733815981 0.00036922376236153036 -0.00026819839233248945 -0.00010102537002904114 -9.417428144161381e-06 0.0 0.0
0.0 4.443842364656643e-06 2.9733321542924635e-06 -1.3561067360931579e-06 -1.6172254181993041e-06 -8.101451666006729e-06 0.0 0.0
0.0 3.766905946509514e-07 1.3862890465126165e-06 -1.0983302981923478e-06 -2.8795874832026935e-07 -5.574703214626113e-07 0.0 0.0
0.0 0.0032355336421231833 0.0020751734409300542 -0.0011819028926101684 -0.0008932705483198796 0.005336561689402122 0.0 0.0
0.0 0.012808536760560223 0.009474442605219522 -0.012441979879196083 0.0029675372739765378 0.003521093370690088 0.0 0.0
0.0 0.009833782524210865 0.007095336799519667 -0.009504205657286716 0.002408868857767013 -0.0037869475296306793 0.0 0.0
0.0 0.0023959103703794804 0.0014454305855751616 -0.000805159131249223 -0.0006402714543259304 -0.004112844508160702 0.0 0.0
0.0 0.0 0.0 0.0 0.0 0.0 0.0 0.0
0.0 -6.678919268658198e-06 -6.055783960112561e-06 4.803771313216254e-06 1.2520126468963025e-06 4.875386803184664e-06 0.0 0.0
0.0 0.0001680166094026085 0.0001442297725314811 -0.00010086638681674051 -4.336338571474001e-05 -9.132240834629512e-07 0.0 0.0
0.0 0.0014506257183614668 0.0013056692415115102 -0.0010094311617209306 -0.00029623807979057805 -0.00026989119344538793 0.0 0.0
0.0 0.004730944088897427 0.004184311119962586 -0.003558559723370946 -0.0006257513965916381 -0.0011197997075475224 0.0 0.0
0.0 0.010340710394004641 0.009171668247629028 -0.008341521522200737 -0.0008301467254282896 -0.0027300907157796575 0.0 0.0
0.0 0.01872033934758344 0.01637612240133078 -0.015435310495926237 -0.000940811905404545 -0.004924753046750371 0.0 0.0
0.0 0.029667535599564435 0.025737897069961956 -0.02471624229812482 -0.0010216547718371154 -0.007589636010181168 0.0 0.0
0.0 0.04282245987928604 0.03704312037088777 -0.03594335864454882 -0.0010997617263388947 -0.010475283299183147 0.0 0.0
0.0 0.05805013620923611 0.05006612205724945 -0.04888358189266835 -0.0011825401645810917 -0.013373941363292214 0.0 0.0
0.0 0.0748389194025169 0.06463281604777524 -0.06336547709709855 -0.001267338950676633 -0.016235706371534608 0.0 0.0
0.0 0.09357624963246187 0.0805732522105365 -0.07922704498801947 -0.001346207222517018 -0.019086260121200797 0.0 0.0
0.0 0.11328960369741162 0.09766114380997352 -0.09624609366830067 -0.0014150501416728078 -0.021865479673376112 0.0 0.0
0.0 0.13379748193886282 0.11552323105089943 -0.11405419936666898 -0.0014690316842304546 -0.02431828253511233 0.0 0.0
0.0 0.15474690723722284 0.13356084700485193 -0.1320624029380162 -0.0014984440668357464 -0.025946095779300585 0.0 0.0
0.0 0.17471034741887678 0.15082780826175504 -0.14933873821751975 -0.0014890700442351322 -0.026143487439819896 0.0 0.0
0.0 0.19211062575099577 0.1659057131639805 -0.16447069401470502 -0.0014350191492755857 -0.02429868237229461 0.0 0.0
0.0 0.20489756671730905 0.17702384005751848 -0.17565631248095706 -0.0013675275765619008 -0.019466068108509146 0.0 0.0
0.0 0.21138392917035756 0.1817951773860435 -0.18085968670428706 -0.0009354906817563579 2.5070223674816816e-14 0.0 0.0
0.0 0.20489756671728115 0.17702384005749172 -0.1756563124809307 -0.001367527576561146 0.019466068108566843 0.0 0.0
0.0 0.19211062575094012 0.1659057131639306 -0.1644706940146549 -0.0014350191492755052 0.0242986823723517 0.0 0.0
0.0 0.17471034741879732 0.15082780826168576 -0.14933873821745014 -0.0014890700442355168 0.02614348743985321 0.0 0.0
0.0 0.15474690723712956 0.1335608470047711 -0.13206240293793675 -0.001498444066834397 0.02594609577930352 0.0 0.0
0.0 0.1337974819387584 0.1155232310508096 -0.11405419936657835 -0.0014690316842311132 0.0243182825351017 0.0 0.0
0.0 0.11328960369730899 0.0976611438098844 -0.09624609366821203 -0.0014150501416724192 0.021865479673367078 0.0 0.0
0.0 0.09357624963235861 0.08057325221044663 -0.07922704498793028 -0.001346207222516396 0.019086260121191564 0.0 0.0
0.0 0.07483891940241645 0.0646328160476892 -0.06336547709701253 -0.00126733895067659 0.016235706371519464 0.0 0.0
0.0 0.05805013620914664 0.05006612205717212 -0.04888358189259149 -0.001182540164580725 0.01337394136327157 0.0 0.0
0.0 0.042822459879208886 0.037043120370821185 -0.035943358644482996 -0.0010997617263381538 0.010475283299161793 0.0 0.0
0.0 0.029667535599502373 0.025737897069908377 -0.024716242298071598 -0.0010216547718367663 0.007589636010163122 0.0 0.0
0.0 0.01872033934753316 0.016376122401287316 -0.015435310495883313 -0.0009408119054040028 0.004924753046736998 0.0 0.0
0.0 0.01034071039397154 0.00917166824759961 -0.008341521522172105 -0.0008301467254275013 0.0027300907157697145 0.0 0.0
0.0 0.00473094408887691 0.004184311119945322 -0.00355855972335508 -0.0006257513965902389 0.0011197997075413056 0.0 0.0
0.0 0.001450625718353569 0.0013056692415051056 -0.0010094311617157852 -0.0002962380797893199 0.00026989119344382234 0.0 0.0
0.0 0.00016801660940003342 0.0001442297725297578 -0.00010086638681548792 -4.336338571426948e-05 9.132240831845874e-07 0.0 0.0
0.0 -6.678919268852733e-06 -6.055783960032786e-06 4.803771313151868e-06 1.2520126468809468e-06 -4.875386803124132e-06 0.0 0.0
0.0 0.0 0.0 0.0 0.0 0.0 0.0 0.0
0.0 0.0023959103703713007 0.001445430585570413 -0.0008051591312460595 -0.000640271454324358 0.0041128445081483065 0.0 0.0
0.0 0.009833782524188808 0.0070953367995025916 -0.009504205657265279 0.002408868857762678 0.0037869475296141986 0.0 0.0
0.0 0.0073266881364456365 0.005254790612734517 -0.007164141313035334 0.0019093507003008282 -0.0032503464758069397 0.0 0.0
0.0 0.0019200405449206 0.0009766148008438923 -0.0005340911986641049 -0.0004425236021797874 -0.0030271172979036433 0.0 0.0
0.0 0.0 0.0 0.0 0.0 0.0 0.0 0.0
0.0 -5.078192869409864e-07 -5.855156630492037e-07 4.6780013203054406e-07 1.177155310186632e-07 8.465731661361301e-07 0.0 0.0
0.0 1.1211700815071865e-05 2.4122374791542352e-05 -1.3775161662164688e-05 -1.0347213129377617e-05 1.4586109789320888e-05 0.0 0.0
0.0 0.0008784110413843372 0.0007580593486225731 -0.0005705572554211979 -0.00018750209320137553 -0.0002689640108041641 0.0 0.0
0.0 0.0035248602399186924 0.0029850991030951042 -0.002470386925706654 -0.0005147121773884436 -0.001189293192483412 0.0 0.0
0.0 0.008138648169068981 0.007150887366812712 -0.00639324629018281 -0.0007576410766299146 -0.0030243640997958715 0.0 0.0
0.0 0.0153894260829795 0.013329960051612915 -0.012451764249798599 -0.0008781958018143209 -0.005644955036058902 0.0 0.0
0.0 0.02487451260958615 0.021400073839055317 -0.020445232618601178 -0.000954841220454127 -0.008775720759068205 0.0 0.0
0.0 0.03631320494182695 0.031132033260030886 -0.030105477002310782 -0.0010265562577201099 -0.012146864082277406 0.0 0.0
0.0 0.04943511578642563 0.04230893703745822 -0.04120563949572648 -0.0011032975417317526 -0.015528206901940999 0.0 0.0
0.0 0.06412207999051554 0.05478630633846936 -0.0536038196619782 -0.0011824866764911257 -0.01887035674677664 0.0 0.0
0.0 0.07984996492554323 0.06845335143128845 -0.06719588393229611 -0.001257467498992374 -0.022192958460786245 0.0 0.0
0.0 0.0970554096508324 0.08314239960564111 -0.08181938856496805 -0.0013230110406730485 -0.025405862272407296 0.0 0.0
0.0 0.11509078673372632 0.0985904771968944 -0.09721428422628693 -0.0013761929706074853 -0.028256301553595833 0.0 0.0
0.0 0.13319809474193484 0.11435297528498506 -0.11294279279160564 -0.001410182493379417 -0.030307178975136236 0.0 0.0
0.0 0.1508570555035676 0.1296591859715302 -0.12824737674175307 -0.001411809229777005 -0.030878058685457937 0.0 0.0
0.0 0.16656844809231539 0.1433230915324496 -0.14194763771302607 -0.0013754538194232927 -0.028850233915007264 0.0 0.0
0.0 0.17856016704978506 0.1538407120806998 -0.1525159890043304 -0.0013247230763693987 -0.022670966743131595 0.0 0.0
0.0 0.1853091064163884 0.15871451033946454 -0.15796994939913336 -0.0007445609403312159 2.9445196281230324e-14 0.0 0.0
0.0 0.1785601670497634 0.1538407120806782 -0.15251598900430785 -0.0013247230763702915 0.02267096674319937 0.0 0.0
0.0 0.16656844809226667 0.14332309153240402 -0.1419476377129811 -0.0013754538194227376 0.028850233915071823 0.0 0.0
0.0 0.15085705550350056 0.12965918597147055 -0.12824737674169395 -0.001411809229776695 0.030878058685496763 0.0 0.0
0.0 0.13319809474185612 0.11435297528491674 -0.1129427927915387 -0.0014101824933779959 0.030307178975144573 0.0 0.0
0.0 0.11509078673363274 0.09859047719681413 -0.0972142842262056 -0.0013761929706085246 0.02825630155358312 0.0 0.0
0.0 0.0970554096507441 0.0831423996055648 -0.08181938856489208 -0.001323011040672754 0.025405862272394907 0.0 0.0
0.0 0.07984996492545697 0.06845335143121378 -0.06719588393222191 -0.0012574674989917617 0.022192958460774834 0.0 0.0
0.0 0.06412207999042806 0.05478630633839439 -0.05360381966190312 -0.0011824866764911907 0.018870356746758125 0.0 0.0
0.0 0.04943511578635218 0.04230893703739504 -0.0412056394956639 -0.0011032975417311142 0.01552820690191864 0.0 0.0
0.0 0.03631320494176077 0.03113203325997459 -0.03010547700225541 -0.0010265562577192065 0.012146864082251733 0.0 0.0
0.0 0.024874512609530365 0.021400073839007872 -0.02044523261855387 -0.0009548412204539771 0.008775720759046094 0.0 0.0
0.0 0.01538942608293675 0.01332996005157626 -0.012451764249762395 -0.0008781958018138588 0.005644955036043001 0.0 0.0
0.0 0.008138648169039597 0.0071508873667873955 -0.006393246290158351 -0.000757641076629046 0.0030243640997839553 0.0 0.0
0.0 0.0035248602399030643 0.0029850991030824603 -0.0024703869256953886 -0.0005147121773870707 0.001189293192477544 0.0 0.0
0.0 0.0008784110413775784 0.000758059348617362 -0.0005705572554171114 -0.00018750209320025126 0.0002689640108018875 0.0 0.0
0.0 1.121170081407592e-05 2.4122374791068068e-05 -1.3775161661831814e-05 -1.0347213129236418e-05 -1.4586109789132726e-05 0.0 0.0
0.0 -5.078192870478144e-07 -5.855156630870543e-07 4.6780013205940236e-07 1.177155310276345e-07 -8.46573166196394e-07 0.0 0.0
0.0 0.0 0.0 0.0 0.0 0.0 0.0 0.0
0.0 0.0019200405449127226 0.000976614800839917 -0.0005340911986614174 -0.00044252360217849777 0.003027117297893083 0.0 0.0
0.0 0.007326688136427996 0.005254790612720651 -0.0071641413130176315 0.0019093507002969727 0.003250346475795856 0.0 0.0
0.0 0.005417388623231471 0.003770231509343607 -0.005228222127924826 0.0014579906185812146 -0.002556079296900247 0.0 0.0
0.0 0.0012312550313465292 0.0006306047130680574 -0.00033832079085220553 -0.00029228392221585127 -0.002131516416562287 0.0 0.0
0.0 0.0 0.0 0.0 0.0 0.0 0.0 0.0
0.0 -3.151986569920804e-07 1.1777341091333209e-07 -8.947067274890117e-08 -2.8302738164430838e-08 -1.8739546337760176e-07 0.0 0.0
0.0 -2.6072768483164715e-05 -1.809639892305067e-05 1.5521188090436512e-05 2.575210832614164e-06 3.302947178558173e-05 0.0 0.0
0.0 0.00040506739694074986 0.00036957064960306204 -0.0002708788726448236 -9.869177695823898e-05 -0.0002059325598882041 0.0 0.0
0.0 0.002224646061094365 0.0019600978557797644 -0.0015748374119909838 -0.00038526044378878237 -0.0011286168451603352 0.0 0.0
0.0 0.006336383967111657 0.0052276340170747705 -0.004568799875845077 -0.000658834141229686 -0.002955542649518719 0.0 0.0
0.0 0.012005898333751673 0.010344983985035378 -0.009541627795264981 -0.0008033561897704039 -0.005768754670909106 0.0 0.0
0.0 0.020169685165405092 0.017099458592352998 -0.016218730753221854 -0.0008807278391311463 -0.009162347845331952 0.0 0.0
0.0 0.02981616188397148 0.025243636080530762 -0.024297012060449805 -0.0009466240200809741 -0.012786034570936827 0.0 0.0
0.0 0.04082149501287004 0.03456626103894274 -0.03354894761954394 -0.0010173134193987232 -0.01641798195258643 0.0 0.0
0.0 0.05305114479202102 0.04495072474643786 -0.04385976257828747 -0.0010909621681504246 -0.020006435175135978 0.0 0.0
0.0 0.06650405636892236 0.05633104211149435 -0.055170623420788566 -0.001160418690705758 -0.02357244702806996 0.0 0.0
0.0 0.08083493159222556 0.06861517332289642 -0.06739266013410017 -0.001222513188796338 -0.02702400920884227 0.0 0.0
0.0 0.09586776989985799 0.08162272973084649 -0.08034783931955634 -0.0012748904112900314 -0.030101029509974894 0.0 0.0
0.0 0.11174128659003511 0.0950419570900296 -0.09372797910620771 -0.0013139779838217778 -0.03243532394290843 0.0 0.0
0.0 0.1270240310188528 0.10835475195548294 -0.10702216942038234 -0.0013325825351007223 -0.03338947590846731 0.0 0.0
0.0 0.1409630574873974 0.12068568347236548 -0.11936917399485732 -0.0013165094775081728 -0.03158013732917647 0.0 0.0
0.0 0.1524238240300896 0.13077832206610968 -0.12950367055520426 -0.0012746515109052963 -0.02493649350823435 0.0 0.0
0.0 0.1596674642631352 0.13587977868765178 -0.13535799199201556 -0.0005217866956361047 3.1057621752150766e-14 0.0 0.0
0.0 0.15242382403007773 0.13077832206609483 -0.12950367055518922 -0.001274651510905502 0.02493649350830606 0.0 0.0
0.0 0.14096305748735646 0.12068568347232578 -0.11936917399481786 -0.0013165094775079544 0.03158013732924292 0.0 0.0
0.0 0.12702403101879856 0.10835475195543354 -0.10702216942033324 -0.001332582535100148 0.033389475908508916 0.0 0.0
0.0 0.11174128658996639 0.09504195708997037 -0.09372797910614936 -0.0013139779838209588 0.03243532394291476 0.0 0.0
0.0 0.09586776989978218 0.08162272973078141 -0.08034783931949116 -0.0012748904112903539 0.030101029509961245 0.0 0.0
0.0 0.08083493159214865 0.06861517332282996 -0.06739266013403429 -0.0012225131887956082 0.027024009208827193 0.0 0.0
0.0 0.06650405636885352 0.056331042111434276 -0.055170623420729495 -0.0011604186907048031 0.02357244702805746 0.0 0.0
0.0 0.053051144791949334 0.04495072474637669 -0.04385976257822697 -0.0010909621681497188 0.020006435175117923 0.0 0.0
0.0 0.04082149501280632 0.034566261038888886 -0.03354894761949036 -0.0010173134193985126 0.01641798195256272 0.0 0.0
0.0 0.0298161618839127 0.02524363608048196 -0.02429701206040151 -0.0009466240200804586 0.012786034570908484 0.0 0.0
0.0 0.020169685165356964 0.01709945859231224 -0.016218730753181726 -0.0008807278391305143 0.00916234784530785 0.0 0.0
0.0 0.012005898333720493 0.010344983985008624 -0.009541627795238743 -0.0008033561897698936 0.005768754670893479 0.0 0.0
0.0 0.00633638396708789 0.005227634017055567 -0.004568799875826851 -0.0006588341412287148 0.002955542649507705 0.0 0.0
0.0 0.0022246460610828435 0.001960097855770647 -0.0015748374119831582 -0.000385260443787489 0.0011286168451542173 0.0 0.0
0.0 0.00040506739693596544 0.0003695706495995473 -0.00027087887264215163 -9.869177695739536e-05 0.0002059325598858403 0.0 0.0
0.0 -2.6072768483456335e-05 -1.8096398922523735e-05 1.5521188090009187e-05 2.575210832514539e-06 -3.302947178478255e-05 0.0 0.0
0.0 -3.151986568934055e-07 1.1777341086918526e-07 -8.947067271365798e-08 -2.8302738155524078e-08 1.873954632976217e-07 0.0 0.0
0.0 0.0 0.0 0.0 0.0 0.0 0.0 0.0
0.0 0.0012312550313402816 0.0006306047130651068 -0.0003383207908502404 -0.0002922839222148655 0.002131516416553893 0.0 0.0
0.0 0.005417388623217091 0.0037702315093322974 -0.0052282221279100665 0.0014579906185777664 0.0025560792968922917 0.0 0.0
0.0 0.0036972473203407104 0.002580726082669533 -0.003634693021439317 0.0010539669387697795 -0.0019197779857288919 0.0 0.0
0.0 0.0007983268165279671 0.0003647812203335012 -0.0001834126252101053 -0.0001813685951233956 -0.0013879053133041786 0.0 0.0
0.0 1.5734592941222573e-07 7.148379167026532e-10 -7.331624633568543e-11 -6.415216703671971e-10 3.250372699491736e-08 0.0 0.0
0.0 1.5712585741700463e-07 6.304622250958064e-09 -5.866682075806125e-09 -4.379401751547683e-10 3.806782874179354e-08 0.0 0.0
0.0 -2.1476138414073672e-05 -1.3929021692982205e-05 1.1189373545837053e-05 2.7396481471452084e-06 2.889652569369985e-05 0.0 0.0
0.0 0.00013626310385802805 0.00011797739058493862 -8.30841737639936e-05 -3.4893216820945116e-05 -9.351391737101507e-05 0.0 0.0
0.0 0.001347175026190323 0.0011109864782060316 -0.0008673283352349714 -0.00024365814297105996 -0.0009172028849319348 0.0 0.0
0.0 0.004171890631954178 0.003503420169419815 -0.0029760768614150663 -0.0005273433080047435 -0.0026482969150417915 0.0 0.0
0.0 0.009295767028129022 0.0074667855760394974 -0.006760762151789495 -0.0007060234242500076 -0.005325280588470944 0.0 0.0
0.0 0.015405153555763723 0.012885192815748446 -0.012091395996417661 -0.0007937968193307858 -0.00872930159931423 0.0 0.0
0.0 0.023392153656334413 0.01942619907337207 -0.01856892263161806 -0.00085727644175402 -0.012378605273771676 0.0 0.0
0.0 0.03231147149829177 0.02688695381148821 -0.025965032387807164 -0.0009219214236810726 -0.016033571292323214 0.0 0.0
0.0 0.042154687444188314 0.03517479265837069 -0.03418561870118845 -0.0009891739571821732 -0.01963274235486049 0.0 0.0
0.0 0.05293151297767653 0.04426755334467473 -0.04321385053762919 -0.001053702807045619 -0.023208738638937135 0.0 0.0
0.0 0.06453429976263429 0.054132847229834226 -0.05302149836379235 -0.0011113488660417852 -0.026684812044733674 0.0 0.0
0.0 0.07715042933107571 0.0646669162118197 -0.06350695185494354 -0.0011599643568762311 -0.02981551288115322 0.0 0.0
0.0 0.08964773956533625 0.0756877767679571 -0.0744824551281968 -0.0012053216397603058 -0.03225964718409079 0.0 0.0
0.0 0.10284596467326243 0.08691863851741626 -0.08567341845301871 -0.0012452200643974086 -0.0335506634360623 0.0 0.0
0.0 0.11554170637951414 0.09788146341190847 -0.09662769145507868 -0.0012537719568299591 -0.03237131202414108 0.0 0.0
0.0 0.12643211143920938 0.1076346502799745 -0.10641461639764058 -0.0012200338823339274 -0.026241225054496376 0.0 0.0
0.0 0.13445175601241105 0.11307104854808335 -0.11280397094704182 -0.00026707760104158364 2.866543807877875e-14 0.0 0.0
0.0 0.12643211143919533 0.1076346502799563 -0.10641461639762247 -0.0012200338823339033 0.026241225054566532 0.0 0.0
0.0 0.11554170637948463 0.09788146341187799 -0.09662769145504858 -0.0012537719568294565 0.032371312024209696 0.0 0.0
0.0 0.10284596467322105 0.0869186385173776 -0.08567341845297978 -0.001245220064397827 0.03355066343610508 0.0 0.0
0.0 0.08964773956527938 0.0756877767679086 -0.07448245512814855 -0.0012053216397600564 0.03225964718409538 0.0 0.0
0.0 0.07715042933101725 0.06466691621176997 -0.06350695185489344 -0.0011599643568765766 0.029815512881139816 0.0 0.0
0.0 0.06453429976257076 0.054132847229779235 -0.05302149836373792 -0.0011113488660412852 0.026684812044716625 0.0 0.0
0.0 0.05293151297762295 0.04426755334462832 -0.04321385053758351 -0.0010537028070447681 0.023208738638924573 0.0 0.0
0.0 0.0421546874441294 0.03517479265832081 -0.03418561870113943 -0.0009891739571813983 0.019632742354842022 0.0 0.0
0.0 0.0323114714982388 0.0268869538114443 -0.025965032387763536 -0.0009219214236807778 0.016033571292299837 0.0 0.0
0.0 0.023392153656287232 0.019426199073334014 -0.018568922631580283 -0.0008572764417537266 0.012378605273743456 0.0 0.0
0.0 0.01540515355572357 0.012885192815715436 -0.012091395996385229 -0.0007937968193302071 0.008729301599288971 0.0 0.0
0.0 0.00929576702810047 0.007466785576016995 -0.006760762151767812 -0.0007060234242491851 0.0053252805884557225 0.0 0.0
0.0 0.004171890631934599 0.0035034201694041133 -0.0029760768614005236 -0.0005273433080035842 0.002648296915030084 0.0 0.0
0.0 0.0013471750261810273 0.0011109864781992565 -0.0008673283352294885 -0.00024365814296976762 0.0009172028849260805 0.0 0.0
0.0 0.00013626310385648374 0.00011797739058426934 -8.308417376354341e-05 -3.489321682072599e-05 9.351391737075968e-05 0.0 0.0
0.0 -2.1476138414321453e-05 -1.3929021692675884e-05 1.1189373545597114e-05 2.7396481470787718e-06 -2.8896525693222655e-05 0.0 0.0
0.0 1.5712585721141057e-07 6.304622253475461e-09 -5.866682076920911e-09 -4.379401765531699e-10 -3.806782869747957e-08 0.0 0.0
0.0 1.5734592914948445e-07 7.148379181953433e-10 -7.331624793983198e-11 -6.415216702555217e-10 -3.250372694055046e-08 0.0 0.0
0.0 0.000798326816522956 0.0003647812203313791 -0.00018341262520873026 -0.00018136859512264875 0.001387905313297519 0.0 0.0
0.0 0.003697247320329105 0.002580726082660499 -0.003634693021427197 0.0010539669387666958 0.0019197779857229916 0.0 0.0
0.0 0.0027903223515550715 0.0016070920787786653 -0.0022968450853110118 0.0006897530065323454 -0.0013334888009342678 0.0 0.0
0.0 0.00036721234959672115 0.00017813678695534338 -7.711071376637773e-05 -0.0001010260731889659 -0.000804792480773615 0.0 0.0
0.0 1.2037736217416489e-06 8.59368706511974e-08 -8.801062268040621e-08 2.073752029209218e-09 -1.7206759004072578e-06 0.0 0.0
0.0 -7.36177811488533e-07 8.409580574171926e-09 -7.3119174801816274e-09 -1.0976630939904545e-09 -2.398117730342245e-07 0.0 0.0
0.0 -1.1010562926501379e-05 -6.633859034203193e-06 5.305535758642417e-06 1.3283232755607766e-06 2.1595218863176022e-05 0.0 0.0
0.0 1.0867169168142859e-05 9.778322629439754e-06 -4.587888723466693e-06 -5.190433905973113e-06 -7.55183939168631e-06 0.0 0.0
0.0 0.0006495400003324548 0.000489468980238727 -0.00037331322269984577 -0.00011615575753888054 -0.0006164913382441752 0.0 0.0
0.0 0.002510626880036833 0.0020075882433368605 -0.001651434862529296 -0.0003561533808075643 -0.0021043095442330696 0.0 0.0
0.0 0.006046311419481274 0.004817036068894744 -0.0042482139473293485 -0.0005688221215653955 -0.004452125108516208 0.0 0.0
0.0 0.011263306270587163 0.008816314557997139 -0.00813503287564312 -0.0006812816823540095 -0.007503073857626709 0.0 0.0
0.0 0.017075090637456054 0.013733892746301038 -0.012984813122347663 -0.0007490796239533732 -0.010910204423961027 0.0 0.0
0.0 0.023830420515800553 0.019329923071574308 -0.018519363439763365 -0.0008105596318109591 -0.01434538880647451 0.0 0.0
0.0 0.03135129552040487 0.02552217462575615 -0.024650544952134344 -0.0008716296736218067 -0.017726100077867915 0.0 0.0
0.0 0.03952098836477103 0.03232134853222566 -0.031391881430003876 -0.0009294671022217165 -0.021075670743493154 0.0 0.0
0.0 0.04850062801127706 0.03975423713527197 -0.03877125039823195 -0.0009829867370400379 -0.02435965590934199 0.0 0.0
0.0 0.05802317535875688 0.04779942331612387 -0.046770281085216664 -0.001029142230907151 -0.027368188075758148 0.0 0.0
0.0 0.06826783366968646 0.05635707651337886 -0.055283641824153316 -0.0010734346892255545 -0.029748676147096365 0.0 0.0
0.0 0.07867859699981701 0.06537225997951751 -0.0642389768784729 -0.0011332831010444897 -0.031191821074993676 0.0 0.0
0.0 0.08933873000363803 0.07481240867395311 -0.07363117316330971 -0.001181235510643324 -0.030935479831895936 0.0 0.0
0.0 0.09999946490679608 0.08419414323387721 -0.08302919626672202 -0.0011649469671551414 -0.026402520261465 0.0 0.0
0.0 0.10918727422534796 0.09005646029483895 -0.09008012985450392 2.366955966491468e-05 2.6566422672846812e-14 0.0 0.0
0.0 0.09999946490678764 0.08419414323386355 -0.08302919626670761 -0.0011649469671558953 0.02640252026152816 0.0 0.0
0.0 0.08933873000361894 0.07481240867392983 -0.0736311731632873 -0.001181235510642524 0.030935479831962622 0.0 0.0
0.0 0.0786785969997845 0.06537225997948659 -0.06423897687844184 -0.0011332831010446682 0.031191821075033925 0.0 0.0
0.0 0.0682678336696485 0.05635707651334633 -0.05528364182412287 -0.0010734346892234546 0.029748676147098987 0.0 0.0
0.0 0.05802317535871218 0.04779942331608632 -0.04677028108517972 -0.0010291422309066786 0.027368188075743708 0.0 0.0
0.0 0.0485006280112315 0.03975423713523351 -0.03877125039819349 -0.0009829867370399852 0.0243596559093261 0.0 0.0
0.0 0.039520988364732064 0.03232134853219191 -0.031391881429970965 -0.0009294671022209806 0.021075670743483637 0.0 0.0
0.0 0.03135129552036219 0.025522174625721254 -0.02465054495209946 -0.0008716296736217763 0.0177261000778514 0.0 0.0
0.0 0.023830420515760994 0.019329923071542084 -0.01851936343973135 -0.0008105596318107199 0.014345388806452681 0.0 0.0
0.0 0.01707509063741899 0.0137338927462722 -0.012984813122319546 -0.0007490796239526279 0.010910204423934549 0.0 0.0
0.0 0.011263306270556685 0.008816314557973704 -0.00813503287561979 -0.0006812816823539197 0.007503073857604484 0.0 0.0
0.0 0.0060463114194601 0.004817036068878378 -0.004248213947313614 -0.0005688221215647665 0.0044521251085023 0.0 0.0
0.0 0.0025106268800233183 0.002007588243326551 -0.0016514348625200148 -0.0003561533808065363 0.002104309544223079 0.0 0.0
0.0 0.000649540000326601 0.0004894689802347089 -0.0003733132226966827 -0.00011615575753802557 0.0006164913382387913 0.0 0.0
0.0 1.0867169167348193e-05 9.77832262951848e-06 -4.587888723575515e-06 -5.1904339059429314e-06 7.55183939218496e-06 0.0 0.0
0.0 -1.1010562927572398e-05 -6.633859034035576e-06 5.305535758520313e-06 1.3283232755152386e-06 -2.159521886255326e-05 0.0 0.0
0.0 -7.361778115400533e-07 8.409580647570432e-09 -7.311917527827059e-09 -1.0976631197438819e-09 2.398117741016297e-07 0.0 0.0
0.0 1.2037736214896655e-06 8.593687065233521e-08 -8.801062268966677e-08 2.0737520373319668e-09 1.7206759006761895e-06 0.0 0.0
0.0 0.0003672123495932129 0.00017813678695392476 -7.711071376546217e-05 -0.00010102607318846284 0.0008047924807685037 0.0 0.0
0.0 0.0027903223515447664 0.0016070920787721744 -0.002296845085302001 0.0006897530065298272 0.0013334888009300103 0.0 0.0
0.0 0.0014900038253277087 0.0009056697838022835 -0.0013132522778874717 0.000407582494085188 -0.000903360672057729 0.0 0.0
0.0 0.00014608986343306408 5.376184160515336e-05 -2.701900703868037e-06 -5.105994090128493e-05 -0.00036017670023412354 0.0 0.0
0.0 2.533184775326414e-06 3.1339630005497425e-08 -3.212036189169679e-08 7.807318862002354e-10 -4.3422904160077104e-07 0.0 0.0
0.0 1.3055726867663699e-06 -1.8457046302979177e-07 1.4181474987333387e-07 4.2755713156457825e-08 1.09660589139069e-06 0.0 0.0
0.0 -7.424763417740557e-06 -3.203716630025793e-06 2.56617572555181e-06 6.375409044739842e-07 1.5114967824454837e-05 0.0 0.0
0.0 -1.7047197910202384e-05 -7.940522769801618e-06 7.2039670098830505e-06 7.365557599185968e-07 1.1689548952174691e-05 0.0 0.0
0.0 0.00024356180501450752 0.0001247998771884457 -9.43118612920044e-05 -3.0488015896441675e-05 -0.00030203270405428285 0.0 0.0
0.0 0.0012811352635043421 0.0008232800362 -0.0006618454332468133 -0.00016143460295318647 -0.0013643890609914048 0.0 0.0
0.0 0.003403458285447224 0.0024650027684879686 -0.002105715657719095 -0.0003592871107688723 -0.0032127097304142267 0.0 0.0
0.0 0.006794232130326943 0.005024351506990273 -0.004517115824086669 -0.0005072356829036095 -0.005625501835082754 0.0 0.0
0.0 0.010808790830901409 0.008266379398792536 -0.007670084500445994 -0.0005962948983465386 -0.008436968338497063 0.0 0.0
0.0 0.01554654235255489 0.011975166218684913 -0.011314900865001035 -0.0006602653536838715 -0.01135612728392289 0.0 0.0
0.0 0.020698857483184906 0.016073085395325 -0.015354904517892658 -0.0007181808774323296 -0.014292183906532727 0.0 0.0
0.0 0.026311200955946485 0.020581156421837884 -0.019811788183805388 -0.0007693682380325312 -0.017207517888092497 0.0 0.0
0.0 0.0325166922594401 0.025566240405811767 -0.024748463282720075 -0.0008177771230916921 -0.020076323418049477 0.0 0.0
0.0 0.0393577478952504 0.031092850741764325 -0.030228852187071775 -0.000863998554692518 -0.022800721862141528 0.0 0.0
0.0 0.0467310610895534 0.03716695962343744 -0.03625873546433977 -0.0009082241590976724 -0.025066866988734497 0.0 0.0
0.0 0.05443872613327509 0.04382680587533905 -0.042857449872212294 -0.000969356003126797 -0.026473173949315417 0.0 0.0
0.0 0.06316062070293027 0.051417845655124896 -0.05035327099284753 -0.0010645746622773343 -0.026867604991518815 0.0 0.0
0.0 0.07338191162309858 0.06020178948308283 -0.05909485740708109 -0.0011069320760017905 -0.024919475998642592 0.0 0.0
0.0 0.08397555818218444 0.06656149315414821 -0.06691505587420095 0.0003535627200526304 2.2778653963051454e-14 0.0 0.0
0.0 0.07338191162309972 0.060201789483075356 -0.05909485740707343 -0.0011069320760018922 0.024919475998699973 0.0 0.0
0.0 0.06316062070291724 0.051417845655107305 -0.050353270992829824 -0.001064574662277478 0.02686760499157965 0.0 0.0
0.0 0.054438726133249106 0.04382680587531532 -0.04285744987218779 -0.000969356003127505 0.02647317394934596 0.0 0.0
0.0 0.04673106108952276 0.03716695962341317 -0.036258735464316724 -0.0009082241590964479 0.025066866988731337 0.0 0.0
0.0 0.03935774789521869 0.031092850741738853 -0.030228852187046525 -0.0008639985546922988 0.022800721862125038 0.0 0.0
0.0 0.03251669225941009 0.025566240405787217 -0.024748463282695685 -0.0008177771230915315 0.020076323418036494 0.0 0.0
0.0 0.026311200955919517 0.020581156421814926 -0.01981178818378286 -0.00076936823803208 0.017207517888085312 0.0 0.0
0.0 0.020698857483159742 0.016073085395304953 -0.015354904517873143 -0.0007181808774317979 0.014292183906521282 0.0 0.0
0.0 0.015546542352528232 0.011975166218665324 -0.011314900864981551 -0.0006602653536837701 0.011356127283904288 0.0 0.0
0.0 0.010808790830874968 0.00826637939877307 -0.007670084500426777 -0.0005962948983462835 0.008436968338474704 0.0 0.0
0.0 0.006794232130306975 0.005024351506976004 -0.00451711582407311 -0.0005072356829029013 0.005625501835065495 0.0 0.0
0.0 0.0034034582854352586 0.0024650027684791067 -0.0021057156577112585 -0.00035928711076784554 0.0032127097304052617 0.0 0.0
0.0 0.0012811352634982806 0.0008232800361960846 -0.0006618454332434754 -0.00016143460295260948 0.0013643890609859306 0.0 0.0
0.0 0.0002435618050101165 0.00012479987718694107 -9.431186129083188e-05 -3.048801589610902e-05 0.0003020327040505521 0.0 0.0
0.0 -1.704719791033214e-05 -7.940522769481092e-06 7.203967009641642e-06 7.365557598394073e-07 -1.1689548950949584e-05 0.0 0.0
0.0 -7.424763418904645e-06 -3.2037166298595047e-06 2.566175725426961e-06 6.375409044325537e-07 -1.5114967823237374e-05 0.0 0.0
0.0 1.305572686325095e-06 -1.845704630650247e-07 1.4181474990261704e-07 4.2755713162408595e-08 -1.0966058914040922e-06 0.0 0.0
0.0 2.533184775574608e-06 3.133963003953688e-08 -3.2120361929964406e-08 7.8073189042792e-10 4.342290427578691e-07 0.0 0.0
0.0 0.00014608986343049888 5.376184160458025e-05 -2.701900703591584e-06 -5.105994090098828e-05 0.0003601767002316656 0.0 0.0
0.0 0.0014900038253205577 0.0009056697837981339 -0.001313252277881552 0.0004075824940834172 0.0009033606720546057 0.0 0.0
0.0 0.000741296493551467 0.00040548489351975776 -0.0005941489868978721 0.00018866409337811493 -0.000498053056623596 0.0 0.0
0.0 4.2201281412586084e-06 -8.059690172651328e-06 2.992433481219918e-05 -2.1864644639547952e-05 -7.303081166892716e-05 0.0 0.0
0.0 3.917895880242106e-06 7.502592633778297e-08 -1.6265011217431276e-07 8.762418583653022e-08 -4.739443614043597e-06 0.0 0.0
0.0 2.269573392742956e-06 -1.8366805867279536e-07 1.6696567398705297e-07 1.6702384685740397e-08 -3.493043923850975e-06 0.0 0.0
0.0 -4.3587933510593565e-06 -1.3772459226494905e-06 1.1708480333102717e-06 2.063978893392257e-07 9.42378453600027e-06 0.0 0.0
0.0 -7.402582142567706e-07 -4.051150420945978e-06 3.5993492724656356e-06 4.518011484803142e-07 4.297245407164814e-06 0.0 0.0
0.0 9.791033529846924e-05 1.1325299315774329e-05 -8.362535696763906e-06 -2.962763619010387e-06 -0.00014600130581812106 0.0 0.0
0.0 0.0004189036417905096 0.0001256273984516006 -0.00010591483106763579 -1.9712567383964827e-05 -0.0006344923063254731 0.0 0.0
0.0 0.001271677266644734 0.0005924074044587265 -0.0005224998617241049 -6.990754273462079e-05 -0.001728376485292745 0.0 0.0
0.0 0.0028980927475413 0.001657822401044928 -0.0014959099026044572 -0.00016191249844047103 -0.003387477650741474 0.0 0.0
0.0 0.005259120530988463 0.003194535978369568 -0.002935069155601342 -0.0002594668227682227 -0.00535852716595794 0.0 0.0
0.0 0.007742455567892146 0.005000744502971987 -0.004660591717090559 -0.00034015278588143445 -0.007560708852920604 0.0 0.0
0.0 0.010640978104788819 0.007002337321478809 -0.006596661546279604 -0.00040567577519920407 -0.009891339156767022 0.0 0.0
0.0 0.0138665907840727 0.009227793170081017 -0.008767192459497832 -0.00046060071058317805 -0.012296488459371193 0.0 0.0
0.0 0.017440835775772934 0.011758344630731719 -0.01124480511232194 -0.0005135395184097862 -0.01476040527987699 0.0 0.0
0.0 0.02150971308586674 0.014723971604750677 -0.014154142948858485 -0.0005698286558921897 -0.017239387321912884 0.0 0.0
0.0 0.026230900181423076 0.018279920866030367 -0.0176495817966198 -0.0006303390694105726 -0.019517655190580855 0.0 0.0
0.0 0.03162580706841341 0.022558107613191918 -0.021866537174598563 -0.0006915704385933603 -0.021040920168670277 0.0 0.0
0.0 0.037840041373544415 0.027926933240530343 -0.02713296259655846 -0.0007939706439718892 -0.02138131371152989 0.0 0.0
0.0 0.04627940472916336 0.035470299959520904 -0.03449635855408595 -0.0009739414054349194 -0.021253795147033593 0.0 0.0
0.0 0.05996572251380117 0.042252499239874806 -0.04298904029941155 0.0007365410595367917 1.9404616802276564e-14 0.0 0.0
0.0 0.04627940472916499 0.035470299959513577 -0.034496358554077594 -0.0009739414054360378 0.02125379514707889 0.0 0.0
0.0 0.03784004137353674 0.027926933240519047 -0.0271329625965472 -0.0007939706439718333 0.021381313711574305 0.0 0.0
0.0 0.031625807068395635 0.022558107613177888 -0.02186653717458439 -0.0006915704385935006 0.021040920168688547 0.0 0.0
0.0 0.02623090018139899 0.01827992086601548 -0.017649581796605123 -0.0006303390694103919 0.01951765519057282 0.0 0.0
0.0 0.021509713085848422 0.014723971604738028 -0.014154142948846166 -0.0005698286558918552 0.017239387321898315 0.0 0.0
0.0 0.017440835775757373 0.01175834463072119 -0.011244805112310614 -0.0005135395184105801 0.014760405279864665 0.0 0.0
0.0 0.013866590784059078 0.009227793170071798 -0.008767192459488557 -0.00046060071058324673 0.01229648845936475 0.0 0.0
0.0 0.010640978104772129 0.007002337321468522 -0.006596661546269869 -0.0004056757751986574 0.009891339156754187 0.0 0.0
0.0 0.007742455567878245 0.0050007445029638525 -0.004660591717082832 -0.00034015278588101926 0.0075607088529072225 0.0 0.0
0.0 0.005259120530973114 0.003194535978360589 -0.0029350691555928036 -0.0002594668227677828 0.005358527165941962 0.0 0.0
0.0 0.002898092747530518 0.0016578224010388616 -0.0014959099025985945 -0.00016191249844026641 0.003387477650730365 0.0 0.0
0.0 0.00127167726663939 0.0005924074044560366 -0.0005224998617214787 -6.990754273455728e-05 0.00172837648528596 0.0 0.0
0.0 0.0004189036417880106 0.0001256273984507036 -0.0001059148310668736 -1.9712567383829847e-05 0.0006344923063224508 0.0 0.0
0.0 9.791033529650629e-05 1.1325299315626194e-05 -8.36253569662255e-06 -2.96276361900368e-06 0.00014600130581644063 0.0 0.0
0.0 -7.402582139150017e-07 -4.051150420612992e-06 3.5993492722068196e-06 4.51801148406175e-07 -4.297245404652396e-06 0.0 0.0
0.0 -4.358793351842196e-06 -1.3772459226387027e-06 1.170848033305036e-06 2.0639788933366318e-07 -9.423784535558582e-06 0.0 0.0
0.0 2.26957339278455e-06 -1.836680586914139e-07 1.6696567400660447e-07 1.6702384684809974e-08 3.4930439247195332e-06 0.0 0.0
0.0 3.917895880112943e-06 7.502592634288034e-08 -1.6265011219189643e-07 8.762418584901254e-08 4.739443614746449e-06 0.0 0.0
0.0 4.22012813984349e-06 -8.059690172783743e-06 2.992433481218374e-05 -2.186464463939992e-05 7.303081166752022e-05 0.0 0.0
0.0 0.0007412964935465242 0.0004054848935172616 -0.0005941489868942458 0.0001886640933769834 0.0004980530566210926 0.0 0.0
0.0 0.0002004945488380845 0.0001152412266760735 -0.00017149724471592352 5.6256018039849784e-05 -0.0001799901837602619 0.0 0.0
0.0 -2.5996025775844055e-05 -1.530772872182721e-05 2.2428770031491644e-05 -7.121041309664393e-06 2.3538467294536166e-05 0.0 0.0
0.0 4.05871599463081e-06 1.7968426487000068e-07 -1.8265815405441342e-07 2.973889184408616e-09 1.8394624686422455e-06 0.0 0.0
0.0 4.369889811223105e-06 -4.261045782015243e-07 3.549417049896348e-07 7.116287321189253e-08 -5.818932212843565e-06 0.0 0.0
0.0 3.830695428120899e-07 -6.176723614740697e-07 6.064879809706372e-07 1.1184380503429957e-08 2.7036626592089423e-07 0.0 0.0
0.0 8.092569526348648e-06 -1.589030676438857e-06 1.639434125429689e-06 -5.040344899083247e-08 -6.200380710150728e-06 0.0 0.0
0.0 9.6926913157539e-05 -2.2427629097694523e-06 2.235028841348077e-06 7.734068421365556e-09 -0.00014447249237663006 0.0 0.0
0.0 0.00023056785298213633 -1.572462784920427e-06 1.5548179136285446e-06 1.7644871291929355e-08 -0.00039960603906639096 0.0 0.0
0.0 0.0004998112844390222 -6.863869482336002e-07 6.457930130335372e-07 4.0593935199942764e-08 -0.0008183339573439261 0.0 0.0
0.0 0.000851073771619046 -1.3900603464798056e-08 2.64281781107951e-08 -1.252757464604109e-08 -0.001683620235313315 0.0 0.0
0.0 0.0016971446870015928 -4.4005210738805485e-07 6.054030163979353e-07 -1.6535090900982627e-07 -0.0031924474583509537 0.0 0.0
0.0 0.0028173840836462818 -1.0593847578611502e-05 1.3279859956117702e-05 -2.6860123775064983e-06 -0.005197482492314779 0.0 0.0
0.0 0.004260544363832429 -2.907824636250503e-05 3.298155157910592e-05 -3.903305216598069e-06 -0.007348492348079545 0.0 0.0
0.0 0.00588987735774756 -3.4700707560425645e-05 3.483387255113525e-05 -1.3316499070911746e-07 -0.009609987622449334 0.0 0.0
0.0 0.007677702456595787 5.5689338085919e-05 -7.049532939348705e-05 1.4805991307567423e-05 -0.011988942261452827 0.0 0.0
0.0 0.009577675957975575 0.0004204716846429486 -0.0004645995423079062 4.4127857664953956e-05 -0.014471239987942615 0.0 0.0
0.0 0.011625093267093753 0.0013443558203906447 -0.0014370614219761844 9.270560158554348e-05 -0.016971579485954222 0.0 0.0
0.0 0.013742611584528224 0.003075283126773308 -0.003285758078392568 0.00021047495161926233 -0.019257971623333054 0.0 0.0
0.0 0.016618506775928757 0.005307667640044917 -0.005700122908847928 0.00039245526880301874 -0.020922547483963754 0.0 0.0
0.0 0.02388012433467845 0.010315968459935099 -0.010036319747253516 -0.00027964871268159334 -0.021756675331153903 0.0 0.0
0.0 0.042749523370501835 0.0178545458969231 -0.019208036085935572 0.0013534901890124703 1.4177894969158444e-14 0.0 0.0
0.0 0.023880124334692145 0.010315968459938273 -0.010036319747255381 -0.000279648712682877 0.021756675331185804 0.0 0.0
0.0 0.016618506775917502 0.005307667640039141 -0.005700122908843742 0.00039245526880459604 0.020922547483971425 0.0 0.0
0.0 0.013742611584516864 0.003075283126769818 -0.0032857580783879677 0.0002104749516181519 0.01925797162333028 0.0 0.0
0.0 0.011625093267073259 0.001344355820392669 -0.0014370614219798381 9.270560158716864e-05 0.016971579485935827 0.0 0.0
0.0 0.009577675957963156 0.00042047168464491363 -0.000464599542310245 4.412785766533104e-05 0.01447123998792981 0.0 0.0
0.0 0.007677702456589866 5.568933808839586e-05 -7.04953293957732e-05 1.4805991307379179e-05 0.011988942261442415 0.0 0.0
0.0 0.005889877357740703 -3.470070755778561e-05 3.4833872548669016e-05 -1.3316499088397217e-07 0.009609987622439885 0.0 0.0
0.0 0.004260544363814768 -2.9078246357528e-05 3.2981551573382306e-05 -3.90330521585417e-06 0.007348492348058826 0.0 0.0
0.0 0.002817384083634781 -1.0593847576276184e-05 1.327985995359666e-05 -2.686012377321303e-06 0.005197482492300918 0.0 0.0
0.0 0.0016971446869914334 -4.400521059216714e-07 6.054030148047273e-07 -1.6535090888281198e-07 0.0031924474583366483 0.0 0.0
0.0 0.000851073771617873 -1.3900604376869581e-08 2.6428179042504237e-08 -1.2527574665702418e-08 0.0016836202353124952 0.0 0.0
0.0 0.0004998112844375846 -6.863869484872493e-07 6.457930132532813e-07 4.059393523383086e-08 0.0008183339573416906 0.0 0.0
0.0 0.0002305678529807352 -1.5724627848900684e-06 1.554817913660878e-06 1.764487122915913e-08 0.00039960603906391264 0.0 0.0
0.0 9.692691315656379e-05 -2.2427629097536755e-06 2.2350288413353214e-06 7.734068418394535e-09 0.000144472492376633 0.0 0.0
0.0 8.092569525718032e-06 -1.5890306764564701e-06 1.6394341254386218e-06 -5.04034489821637e-08 6.2003807109238305e-06 0.0 0.0
0.0 3.830695418125114e-07 -6.176723615001515e-07 6.064879809959384e-07 1.1184380504218178e-08 -2.7036626535195395e-07 0.0 0.0
0.0 4.3698898112824845e-06 -4.261045782616011e-07 3.5494170504259296e-07 7.1162873219008e-08 5.8189322137000526e-06 0.0 0.0
0.0 4.058715993793447e-06 1.7968426486202748e-07 -1.8265815405320473e-07 2.9738891911859457e-09 -1.8394624680707422e-06 0.0 0.0
0.0 -2.599602577583325e-05 -1.5307728721540638e-05 2.2428770031102368e-05 -7.1210413095617615e-06 -2.3538467293390188e-05 0.0 0.0
0.0 0.00020049454883538898 0.00011524122667505748 -0.00017149724471445462 5.6256018039397306e-05 0.00017999018375882266 0.0 0.0
0.0 9.495390439740355e-06 3.659102341348295e-06 -6.149696817546915e-06 2.4905944761985934e-06 -5.573891064418276e-06 0.0 0.0
0.0 -2.293310885835281e-06 -7.804648187558483e-07 1.1688894348768535e-06 -3.884246161210066e-07 3.7316304560128422e-06 0.0 0.0
0.0 1.2887869448983364e-06 1.859701067577437e-07 -2.628020517744691e-07 7.683194501672536e-08 -2.344965355563492e-06 0.0 0.0
0.0 6.588113962339908e-06 -5.320466325528549e-07 4.198787937256559e-07 1.1216783882719979e-07 -6.886486760752156e-06 0.0 0.0
0.0 4.587863703098855e-06 -8.687895761305235e-07 8.163634253679566e-07 5.242615076256361e-08 -7.767171643783432e-06 0.0 0.0
0.0 1.3668046836763436e-05 -2.4774284901601858e-06 2.430284205891595e-06 4.714428426864853e-08 -2.8374338280434148e-05 0.0 0.0
0.0 0.00013240302619007768 -1.9225382228613706e-05 1.5632474336252746e-05 3.592907892360872e-06 -0.00016913491635419685 0.0 0.0
0.0 0.000437814106993074 -0.0001334747102103364 0.00011280546230886293 2.066924790147327e-05 -0.000654416848495667 0.0 0.0
0.0 0.0012773369405608974 -0.0005950355222016383 0.0005246947221245452 7.034080007709272e-05 -0.0017377596085550542 0.0 0.0
0.0 0.0028970639374819563 -0.001657440844363565 0.0014954977676730548 0.00016194307669051007 -0.0033880811505837124 0.0 0.0
0.0 0.005276727408937239 -0.0031999999646873654 0.002939769415510188 0.00026023054917717614 -0.00535794847800936 0.0 0.0
0.0 0.007790625887046505 -0.005033886790007157 0.004690047723821326 0.00034383906618583 -0.007569092332195906 0.0 0.0
0.0 0.010719929803698245 -0.007075478266834823 0.006665968143848043 0.0004095101229867764 -0.009895845567581184 0.0 0.0
0.0 0.013922072261090865 -0.00929253014540863 0.008837904500467115 0.00045462564494152353 -0.012281692199547306 0.0 0.0
0.0 0.017193936669819297 -0.011577345873730376 0.011100853125276037 0.0004764927484543442 -0.014742620505936915 0.0 0.0
0.0 0.020338059531459615 -0.013680094464786194 0.013210983241814842 0.0004691112229713392 -0.017326728717656413 0.0 0.0
0.0 0.022913762991739473 -0.0151995127809153 0.014774787744830513 0.00042472503608479063 -0.020056844577811418 0.0 0.0
0.0 0.024693282950571164 -0.015650459232251238 0.015315866434782811 0.0003345927974684259 -0.023030166395979962 0.0 0.0
0.0 0.024722317727009627 -0.014470846189757428 0.014345063295825926 0.00012578289393150028 -0.026196509467925063 0.0 0.0
0.0 0.020172170650445735 -0.010539495956827977 0.011016927320839282 -0.00047743136401130363 -0.028293444447698123 0.0 0.0
0.0 0.04136817006392896 -0.006121330407827575 0.0033412048689098525 0.002780125538917707 1.8951853975046618e-14 0.0 0.0
0.0 0.020172170650449506 -0.01053949595682703 0.011016927320837016 -0.00047743136400998427 0.02829344444771762 0.0 0.0
0.0 0.02472231772699872 -0.014470846189745925 0.01434506329581537 0.00012578289393053974 0.026196509467940714 0.0 0.0
0.0 0.024693282950558244 -0.015650459232242557 0.015315866434774159 0.0003345927974683999 0.02303016639598356 0.0 0.0
0.0 0.02291376299170797 -0.015199512780892854 0.014774787744807887 0.0004247250360849958 0.020056844577793196 0.0 0.0
0.0 0.020338059531435998 -0.013680094464768094 0.01321098324179754 0.0004691112229705583 0.017326728717640554 0.0 0.0
0.0 0.017193936669800892 -0.011577345873716267 0.011100853125262274 0.00047649274845398793 0.014742620505922076 0.0 0.0
0.0 0.013922072261067118 -0.009292530145390793 0.008837904500448975 0.00045462564494182115 0.012281692199530878 0.0 0.0
0.0 0.010719929803670316 -0.007075478266814048 0.006665968143828348 0.0004095101229856981 0.009895845567563132 0.0 0.0
0.0 0.007790625887023209 -0.0050338867899909195 0.004690047723806099 0.00034383906618481005 0.007569092332176128 0.0 0.0
0.0 0.005276727408917601 -0.0031999999646747934 0.002939769415498617 0.0002602305491761802 0.005357948477991968 0.0 0.0
0.0 0.002897063937466914 -0.0016574408443537105 0.0014954977676637673 0.00016194307668994417 0.0033880811505705853 0.0 0.0
0.0 0.00127733694055659 -0.0005950355221989385 0.0005246947221222067 7.034080007673222e-05 0.0017377596085512124 0.0 0.0
0.0 0.00043781410699041216 -0.00013347471020969023 0.00011280546230834668 2.0669247901343525e-05 0.0006544168484925098 0.0 0.0
0.0 0.00013240302618790198 -1.9225382228359095e-05 1.563247433600728e-05 3.5929078923518225e-06 0.00016913491635276354 0.0 0.0
0.0 1.3668046836113443e-05 -2.4774284903422657e-06 2.430284206034258e-06 4.7144284308013645e-08 2.837433828152983e-05 0.0 0.0
0.0 4.587863702443911e-06 -8.687895761993288e-07 8.163634254242307e-07 5.2426150775085344e-08 7.767171644332704e-06 0.0 0.0
0.0 6.5881139618501185e-06 -5.320466326635207e-07 4.198787938184555e-07 1.1216783884506382e-07 6.886486761706593e-06 0.0 0.0
0.0 1.2887869444158876e-06 1.8597010674682279e-07 -2.628020517739421e-07 7.683194502711474e-08 2.3449653560459017e-06 0.0 0.0
0.0 -2.29331088594761e-06 -7.804648188173251e-07 1.1688894349470372e-06 -3.8842461612971404e-07 -3.73163045610863e-06 0.0 0.0
0.0 9.495390438166244e-06 3.6591023416645505e-06 -6.149696818015342e-06 2.490594476350809e-06 5.573891065126621e-06 0.0 0.0
0.0 2.034611343575935e-06 -1.1794173393863115e-07 1.8495244463876623e-07 -6.701071070005743e-08 2.736999519842078e-07 0.0 0.0
0.0 4.759243309827719e-07 5.585553729188136e-08 -2.884054326711577e-08 -2.7014994024780576e-08 7.375907618300952e-07 0.0 0.0
0.0 -1.1670026532804446e-06 5.619091201257728e-07 -4.886044957081929e-07 -7.330462441758957e-08 3.067851930960185e-06 0.0 0.0
0.0 3.848472882269412e-06 -7.657298004866138e-07 5.928393291955639e-07 1.7289047129103935e-07 -7.675069003938556e-06 0.0 0.0
0.0 7.943634519561595e-06 1.3590023995508515e-06 -1.0434134616178572e-06 -3.155889379329288e-07 1.3946166734191021e-06 0.0 0.0
0.0 4.396090767203688e-05 -7.181201899002025e-06 5.77531924539497e-06 1.4058826536069948e-06 -3.695886981193348e-05 0.0 0.0
0.0 0.0002708379782828366 -0.00015134884884455152 0.00011703901845091482 3.430983039363688e-05 -0.0003767304001841082 0.0 0.0
0.0 0.0013048444981781128 -0.000833867598224009 0.0006713507640088248 0.00016251683421518315 -0.0013928510004849563 0.0 0.0
0.0 0.0034049738943684187 -0.0024650100478369936 0.0021055167382163253 0.00035949330962066765 -0.003219004279360165 0.0 0.0
0.0 0.006792615621199672 -0.005023897653319366 0.004516588346172071 0.0005073093071472921 -0.005623915951770594 0.0 0.0
0.0 0.010819194618925327 -0.008275338597195347 0.007678735018194382 0.0005966035790009683 -0.008439681911138256 0.0 0.0
0.0 0.015581922507771481 -0.01200610445204786 0.011344950019647975 0.0006611544323998942 -0.011354934831376149 0.0 0.0
0.0 0.020758336309055558 -0.01613455564113195 0.01541623306711046 0.0007183225740214867 -0.014245968464192186 0.0 0.0
0.0 0.026329117433328525 -0.020626079825131458 0.019863249228848353 0.0007628305962830705 -0.01708595709670901 0.0 0.0
0.0 0.03224790303780771 -0.025368234876907047 0.024577148670923605 0.000791086205983427 -0.01997590138141704 0.0 0.0
0.0 0.038213654739756464 -0.030074232024875025 0.029276459369420763 0.0007977726554542577 -0.023121105671162 0.0 0.0
0.0 0.043667839005823564 -0.03426785615008986 0.03348238176659034 0.0007854743834995028 -0.026736559062435925 0.0 0.0
0.0 0.04776524288050893 -0.037316822578070924 0.0365585659530354 0.0007582566250355621 -0.030919035717425342 0.0 0.0
0.0 0.04973587559927134 -0.03811354452041697 0.03745687273761247 0.0006566717828044579 -0.03488508074067855 0.0 0.0
0.0 0.04647090366377645 -0.03425548678623071 0.0338257661754483 0.0004297206107823782 -0.0359314940914186 0.0 0.0
0.0 0.05075101794293048 -0.02804279369828881 0.02448834326211564 0.003554450436173167 2.228599249587404e-14 0.0 0.0
0.0 0.04647090366378538 -0.03425548678622691 0.03382576617544518 0.0004297206107817412 0.03593149409146642 0.0 0.0
0.0 0.04973587559926108 -0.038113544520400895 0.03745687273759612 0.0006566717828047825 0.03488508074072229 0.0 0.0
0.0 0.047765242880487634 -0.037316822578051106 0.03655856595301554 0.0007582566250355318 0.030919035717444185 0.0 0.0
0.0 0.04366783900578209 -0.03426785615005659 0.03348238176655681 0.0007854743834997753 0.02673655906242413 0.0 0.0
0.0 0.03821365473972172 -0.030074232024846534 0.0292764593693932 0.0007977726554533067 0.02312110567114424 0.0 0.0
0.0 0.03224790303777302 -0.025368234876878747 0.02457714867089621 0.0007910862059825553 0.01997590138139943 0.0 0.0
0.0 0.026329117433292325 -0.020626079825100813 0.01986324922881826 0.0007628305962825093 0.017085957096691317 0.0 0.0
0.0 0.020758336309017703 -0.016134555641101327 0.015416233067080015 0.0007183225740213123 0.014245968464174709 0.0 0.0
0.0 0.015581922507734039 -0.012006104452019106 0.011344950019619784 0.0006611544323993325 0.011354934831351035 0.0 0.0
0.0 0.010819194618892528 -0.008275338597170718 0.007678735018169704 0.0005966035790010106 0.008439681911112315 0.0 0.0
0.0 0.006792615621174108 -0.0050238976532999925 0.004516588346153502 0.0005073093071464914 0.00562391595175204 0.0 0.0
0.0 0.0034049738943552356 -0.0024650100478272375 0.0021055167382074288 0.0003594933096198082 0.003219004279350737 0.0 0.0
0.0 0.0013048444981686408 -0.0008338675982177803 0.0006713507640035688 0.00016251683421421 0.0013928510004757564 0.0 0.0
0.0 0.0002708379782779653 -0.00015134884884227464 0.00011703901844914749 3.430983039312736e-05 0.0003767304001799819 0.0 0.0
0.0 4.396090767073779e-05 -7.181201899034217e-06 5.775319245402991e-06 1.405882653631152e-06 3.695886981172347e-05 0.0 0.0
0.0 7.94363451916828e-06 1.3590023991352821e-06 -1.0434134612710072e-06 -3.155889378642777e-07 -1.39461667189202e-06 0.0 0.0
0.0 3.848472882036008e-06 -7.657298006235621e-07 5.928393293083186e-07 1.7289047131524843e-07 7.67506900482893e-06 0.0 0.0
0.0 -1.1670026536095285e-06 5.619091200706421e-07 -4.886044956807822e-07 -7.330462438985513e-08 -3.0678519300005233e-06 0.0 0.0
0.0 4.7592433056050883e-07 5.585553731438694e-08 -2.8840543281318286e-08 -2.7014994033065968e-08 -7.375907621470724e-07 0.0 0.0
0.0 2.034611343773175e-06 -1.1794173394994551e-07 1.849524446547311e-07 -6.701071070482646e-08 -2.7369995201493404e-07 0.0 0.0
0.0 0.0 0.0 0.0 0.0 0.0 0.0 0.0
0.0 1.509582879045703e-07 -2.9335535019594535e-09 6.039087752373659e-09 -3.1055342504184254e-09 -1.474622890278709e-08 0.0 0.0
0.0 -6.646524024179201e-07 6.476091752186611e-07 -5.178408799649532e-07 -1.2976829525370115e-07 3.5425399111364223e-06 0.0 0.0
0.0 1.9032033904199526e-06 1.1541494580727887e-06 -9.822902321449922e-07 -1.7185922592779598e-07 1.2357860114370038e-06 0.0 0.0
0.0 8.14244311747072e-06 -8.276672809544185e-09 3.79046045961247e-08 -2.962793178662615e-08 -7.460003791644033e-06 0.0 0.0
0.0 7.591642589027285e-05 -5.689475888006141e-05 4.326303206269706e-05 1.3631726817364522e-05 -0.00011651210222491655 0.0 0.0
0.0 0.0007395557510481839 -0.000516477990693458 0.0003984737033426827 0.00011800428735077474 -0.0006750084766363094 0.0 0.0
0.0 0.002528238519400653 -0.002011095813376123 0.0016548509597466335 0.00035624485362948825 -0.0021250130358718405 0.0 0.0
0.0 0.006042516901031771 -0.004813369921822897 0.004244362976246879 0.00056900694557601 -0.004450736746430915 0.0 0.0
0.0 0.011264826478352724 -0.00881752363863989 0.008136240550272338 0.0006812830883675576 -0.0075011186374160385 0.0 0.0
0.0 0.01708321080240088 -0.013744186444457969 0.012995355695630196 0.0007488307488277624 -0.0109137178878693 0.0 0.0
0.0 0.023853202890389662 -0.019350660589155577 0.018540230883969305 0.0008104297051862693 -0.01432849700505312 0.0 0.0
0.0 0.03136702741265829 -0.025550310297769573 0.02467917042909224 0.0008711398686773418 -0.01761837948109943 0.0 0.0
0.0 0.039468951450913684 -0.03231709066050359 0.031392733145711275 0.0009243575147922822 -0.020817304796130073 0.0 0.0
0.0 0.04819873553251707 -0.03954544798914959 0.03858362724444809 0.0009618207447015382 -0.02412432438698864 0.0 0.0
0.0 0.05705164525238608 -0.046930156023256404 0.04595433375116528 0.0009758222720910814 -0.027920939946268725 0.0 0.0
0.0 0.06577596097547317 -0.05387797053272493 0.05291376844578084 0.0009642020869440434 -0.03264499923930784 0.0 0.0
0.0 0.07281652781614822 -0.05938970780931047 0.058480031286808655 0.0009096765225017762 -0.03817568365866095 0.0 0.0
0.0 0.0763382017376798 -0.06172187593821516 0.06093165574454344 0.0007902201936716246 -0.043020868079442824 0.0 0.0
0.0 0.07219474982834552 -0.05752001571582708 0.05704422920741988 0.000475786508407188 -0.04435372768464223 0.0 0.0
0.0 0.07015365423106674 -0.04942002811870621 0.04515464276305441 0.0042653853556518136 2.3097843082631186e-14 0.0 0.0
0.0 0.07219474982835637 -0.05752001571582431 0.05704422920741856 0.00047578650840575333 0.04435372768470277 0.0 0.0
0.0 0.076338201737668 -0.06172187593819611 0.060931655744524346 0.0007902201936716955 0.04302086807950146 0.0 0.0
0.0 0.07281652781611184 -0.05938970780927598 0.058480031286774994 0.0009096765225010091 0.03817568365868626 0.0 0.0
0.0 0.06577596097542296 -0.05387797053268241 0.052913768445738536 0.0009642020869439172 0.032644999239302634 0.0 0.0
0.0 0.05705164525233583 -0.0469301560232143 0.04595433375112349 0.0009758222720907709 0.027920939946249744 0.0 0.0
0.0 0.04819873553246527 -0.03954544798910646 0.038583627244405484 0.0009618207447009817 0.024124324386967565 0.0 0.0
0.0 0.03946895145086463 -0.03231709066046212 0.03139273314567025 0.0009243575147918751 0.020817304796110853 0.0 0.0
0.0 0.031367027412607225 -0.02555031029772712 0.02467917042904982 0.0008711398686772997 0.017618379481079895 0.0 0.0
0.0 0.023853202890338102 -0.019350660589114152 0.01854023088392827 0.0008104297051858757 0.014328497005024931 0.0 0.0
0.0 0.017083210802352606 -0.013744186444419926 0.012995355695592023 0.0007488307488279052 0.01091371788783776 0.0 0.0
0.0 0.011264826478318246 -0.00881752363861272 0.008136240550245494 0.0006812830883672194 0.007501118637393273 0.0 0.0
0.0 0.0060425169010073125 -0.004813369921803878 0.004244362976228939 0.0005690069455749394 0.00445073674641547 0.0 0.0
0.0 0.0025282385193858563 -0.002011095813364663 0.0016548509597367198 0.0003562448536279438 0.0021250130358611732 0.0 0.0
0.0 0.0007395557510409166 -0.0005164779906887424 0.00039847370333896 0.00011800428734978205 0.0006750084766302779 0.0 0.0
0.0 7.591642588739662e-05 -5.6894758878952545e-05 4.326303206183829e-05 1.363172681711417e-05 0.00011651210222302108 0.0 0.0
0.0 8.142443117371124e-06 -8.276673211741263e-09 3.7904604920052336e-08 -2.9627931708302232e-08 7.460003792802774e-06 0.0 0.0
0.0 1.9032033897519884e-06 1.154149457926524e-06 -9.822902320236397e-07 -1.7185922590288328e-07 -1.2357860105996031e-06 0.0 0.0
0.0 -6.646524030177833e-07 6.476091752644914e-07 -5.178408800015705e-07 -1.297682952629277e-07 -3.5425399114670807e-06 0.0 0.0
0.0 1.5095828765236458e-07 -2.9335535080663406e-09 6.039087752787222e-09 -3.1055342447179913e-09 1.4746229005280056e-08 0.0 0.0
0.0 0.0 0.0 0.0 0.0 0.0 0.0 0.0
0.0 0.0 0.0 0.0 0.0 0.0 0.0 0.0
0.0 -1.2025212151614905e-07 -2.8111852206668733e-09 1.9303984439410896e-09 8.807867767261456e-10 -2.3879236813071873e-08 0.0 0.0
0.0 -5.645810473374465e-07 4.5314754773515456e-07 -3.6242569845268364e-07 -9.072184928247336e-08 1.866741804921706e-06 0.0 0.0
0.0 -2.685333269028187e-06 8.775164170093943e-07 -7.479192311916553e-07 -1.2959718581772879e-07 6.902508904371737e-07 0.0 0.0
0.0 1.0288393128542466e-05 2.219799094651867e-07 -6.981515263739575e-07 4.7617161690878815e-07 -8.414999915519478e-07 0.0 0.0
0.0 0.0002560536708993081 -0.00017394339570676922 0.00013044764272527953 4.349575298148953e-05 -0.0001910894005313474 0.0 0.0
0.0 0.0013713666856302966 -0.0011371319577583795 0.0008928965923980308 0.00024423536536034884 -0.0009857864157301484 0.0 0.0
0.0 0.004174987286502054 -0.0034981276084497534 0.0029706989243908823 0.00052742868405887 -0.002657366884132867 0.0 0.0
0.0 0.009290135346549306 -0.007462542422854875 0.006756152839462909 0.0007063895833919651 -0.005319183705996383 0.0 0.0
0.0 0.01540892460589625 -0.012889333743442146 0.012095710279486117 0.0007936234639560403 -0.008728560794969017 0.0 0.0
0.0 0.02340493158682056 -0.019435693738911908 0.018579240322891533 0.00085645341602036 -0.012380393905100923 0.0 0.0
0.0 0.03231249820551802 -0.02688967988894908 0.02596915844537524 0.0009205214435738035 -0.016000443376836773 0.0 0.0
0.0 0.04210954041570199 -0.0351510348094955 0.034163254509629995 0.0009877802998655228 -0.019475067068415754 0.0 0.0
0.0 0.052791479617452786 -0.044189748318973356 0.04313853064521824 0.0010512176737551252 -0.022844310016359146 0.0 0.0
0.0 0.06421986449330921 -0.0539208734382335 0.05282100160834224 0.0010998718298912491 -0.026331344501084458 0.0 0.0
0.0 0.07642712931095273 -0.06402520348931437 0.06290530960837946 0.0011198938809349056 -0.03045824834455487 0.0 0.0
0.0 0.08774444563123493 -0.07373948173532258 0.07264239390491149 0.001097087830410991 -0.03575988035994373 0.0 0.0
0.0 0.09768986102699204 -0.08160130801457091 0.08058806998391754 0.0010132380306533016 -0.0420130917190971 0.0 0.0
0.0 0.10271628596705368 -0.08511293078726781 0.08428167162723624 0.0008312591600315105 -0.04756607627539397 0.0 0.0
0.0 0.09754636859424926 -0.08011356926830937 0.07963683863799227 0.000476730630317128 -0.049375773384338247 0.0 0.0
0.0 0.09151531389474019 -0.07032690641304185 0.06544469670769384 0.004882209705347857 2.6810151321221554e-14 0.0 0.0
0.0 0.09754636859424846 -0.08011356926829855 0.07963683863798213 0.0004767306303164466 0.049375773384398906 0.0 0.0
0.0 0.10271628596703332 -0.085112930787242 0.08428167162721102 0.0008312591600308226 0.047566076275455796 0.0 0.0
0.0 0.09768986102694688 -0.0816013080145284 0.08058806998387567 0.00101323803065258 0.04201309171912938 0.0 0.0
0.0 0.08774444563117315 -0.07373948173526926 0.07264239390485812 0.0010970878304111603 0.03575988035994182 0.0 0.0
0.0 0.07642712931088816 -0.0640252034892593 0.06290530960832472 0.0011198938809345534 0.030458248344537767 0.0 0.0
0.0 0.06421986449324224 -0.05392087343817625 0.05282100160828596 0.0010998718298903367 0.02633134450106262 0.0 0.0
0.0 0.05279147961738597 -0.044189748318916276 0.043138530645161446 0.0010512176737548125 0.0228443100163377 0.0 0.0
0.0 0.04210954041563712 -0.035151034809440804 0.03416325450957536 0.0009877802998654245 0.01947506706839429 0.0 0.0
0.0 0.03231249820545659 -0.02688967988889762 0.025969158445324415 0.0009205214435732214 0.01600044337680958 0.0 0.0
0.0 0.023404931586763683 -0.019435693738865025 0.018579240322845157 0.0008564534160198644 0.012380393905068527 0.0 0.0
0.0 0.015408924605851287 -0.012889333743405024 0.01209571027944915 0.0007936234639558871 0.008728560794942646 0.0 0.0
0.0 0.009290135346517 -0.007462542422829302 0.0067561528394382946 0.0007063895833910062 0.005319183705979145 0.0 0.0
0.0 0.00417498728648287 -0.0034981276084346297 0.0029706989243770553 0.0005274286840575742 0.0026573668841215563 0.0 0.0
0.0 0.0013713666856202127 -0.001137131957750916 0.0008928965923919376 0.00024423536535897754 0.0009857864157239867 0.0 0.0
0.0 0.0002560536708957047 -0.0001739433957047227 0.00013044764272375405 4.349575298096887e-05 0.000191089400529223 0.0 0.0
0.0 1.0288393127947937e-05 2.219799090289948e-07 -6.98151526020303e-07 4.7617161699130007e-07 8.414999924451669e-07 0.0 0.0
0.0 -2.6853332688797283e-06 8.775164166342183e-07 -7.479192308973276e-07 -1.2959718573687152e-07 -6.902508891991301e-07 0.0 0.0
0.0 -5.6458104758506e-07 4.531475477765941e-07 -3.6242569848735466e-07 -9.072184928923973e-08 -1.8667418050914044e-06 0.0 0.0
0.0 -1.2025212151506954e-07 -2.8111852205958148e-09 1.930398443898689e-09 8.807867766964716e-10 2.387923681280424e-08 0.0 0.0
0.0 0.0 0.0 0.0 0.0 0.0 0.0 0.0
0.0 0.0 0.0 0.0 0.0 0.0 0.0 0.0
0.0 0.0 0.0 0.0 0.0 0.0 0.0 0.0
0.0 -4.6989438151051824e-07 1.2936973682907516e-07 -1.0179182762395844e-07 -2.7577909205118066e-08 4.2202305788084046e-07 0.0 0.0
0.0 -4.526033404150615e-06 3.497059071378512e-06 -2.8320574520416475e-06 -6.650016193368386e-07 6.8999496240642926e-06 0.0 0.0
0.0 1.3379422938472034e-05 -1.917160497808599e-05 1.321578073692377e-05 5.95582424116215e-06 -1.9059530835779672e-05 0.0 0.0
0.0 0.000531598250582047 -0.0004120920430991443 0.00031009810790278585 0.00010199393519635879 -0.00028587048599932767 0.0 0.0
0.0 0.002264238377162616 -0.001967582643444451 0.0015847050372864947 0.00038287760615795673 -0.0011693238957901416 0.0 0.0
0.0 0.006330962617857299 -0.005218651383737016 0.004559054873677377 0.0006595965100596391 -0.00295520736554449 0.0 0.0
0.0 0.012003375989155992 -0.010342724126065768 0.00953913737596904 0.0008035867500967265 -0.005761589404671613 0.0 0.0
0.0 0.020177226151128227 -0.017106273265675532 0.016225925250628822 0.0008803480150467183 -0.009163012358344493 0.0 0.0
0.0 0.02982366734760421 -0.025249529705841156 0.024304313463817638 0.0009452162420234977 -0.012783877211160028 0.0 0.0
0.0 0.04079489821440312 -0.03454542461773784 0.03353086657626567 0.001014558041472182 -0.016369361427714856 0.0 0.0
0.0 0.05293753827426412 -0.044865809174170775 0.0437775818349231 0.0010882273392475508 -0.01982306439188442 0.0 0.0
0.0 0.06627069910848778 -0.05616599345473923 0.05500543629107226 0.0011605571636670758 -0.02317719997226518 0.0 0.0
0.0 0.08050288369658128 -0.06838315034344697 0.06716159091237985 0.0012215594310671142 -0.02661179117325684 0.0 0.0
0.0 0.09535693474490832 -0.08118450026410996 0.07993711090224373 0.0012473893618661681 -0.030598303318035404 0.0 0.0
0.0 0.11032716953375783 -0.0936060771301715 0.09239637710386478 0.0012097000263067482 -0.03576815830390481 0.0 0.0
0.0 0.12244456483699614 -0.10370404902573097 0.10262022115385566 0.0010838278718750937 -0.04213962218411831 0.0 0.0
0.0 0.12819348081899426 -0.10823265609161047 0.10738480192526978 0.0008478541663406317 -0.048325654658888016 0.0 0.0
0.0 0.12250895129008872 -0.10248685928355558 0.10200741082354885 0.00047944846000677393 -0.05230033669087693 0.0 0.0
0.0 0.11440637328687878 -0.0912864872888138 0.0858655205982368 0.005420966690577034 2.7873536811995336e-14 0.0 0.0
0.0 0.12250895129007747 -0.10248685928353789 0.10200741082353042 0.00047944846000754014 0.05230033669093691 0.0 0.0
0.0 0.12819348081896084 -0.10823265609157513 0.10738480192523442 0.0008478541663407351 0.0483256546589489 0.0 0.0
0.0 0.12244456483694467 -0.10370404902568323 0.10262022115380862 0.0010838278718746034 0.04213962218415298 0.0 0.0
0.0 0.11032716953368092 -0.09360607713010531 0.09239637710379776 0.001209700026307453 0.035768158303903314 0.0 0.0
0.0 0.09535693474482876 -0.08118450026404177 0.07993711090217544 0.0012473893618662225 0.03059830331802169 0.0 0.0
0.0 0.08050288369649887 -0.06838315034337632 0.0671615909123098 0.0012215594310664845 0.026611791173237885 0.0 0.0
0.0 0.06627069910840325 -0.05616599345466626 0.05500543629099984 0.0011605571636664372 0.02317719997224276 0.0 0.0
0.0 0.052937538274186596 -0.04486580917410419 0.0437775818348568 0.0010882273392473444 0.019823064391865125 0.0 0.0
0.0 0.04079489821432972 -0.03454542461767583 0.03353086657620403 0.001014558041471763 0.016369361427688196 0.0 0.0
0.0 0.02982366734753387 -0.025249529705782554 0.024304313463759126 0.0009452162420234293 0.012783877211127056 0.0 0.0
0.0 0.020177226151074062 -0.017106273265630235 0.016225925250583712 0.000880348015046508 0.009163012358318342 0.0 0.0
0.0 0.012003375989119065 -0.010342724126033489 0.009539137375937668 0.0008035867500958264 0.005761589404654143 0.0 0.0
0.0 0.006330962617830798 -0.005218651383715778 0.004559054873657217 0.0006595965100585619 0.0029552073655320574 0.0 0.0
0.0 0.0022642383771485004 -0.001967582643432994 0.0015847050372767451 0.00038287760615624716 0.001169323895782817 0.0 0.0
0.0 0.0005315982505776121 -0.0004120920430963217 0.00031009810790069643 0.00010199393519562535 0.0002858704859977494 0.0 0.0
0.0 1.3379422937869573e-05 -1.917160497832883e-05 1.3215780737122787e-05 5.955824241206028e-06 1.9059530836334282e-05 0.0 0.0
0.0 -4.526033404766382e-06 3.4970590713200982e-06 -2.8320574519944085e-06 -6.65001619325684e-07 -6.8999496238004655e-06 0.0 0.0
0.0 -4.6989438134016567e-07 1.2936973686163635e-07 -1.01791827649838e-07 -2.7577909211796914e-08 -4.220230579850219e-07 0.0 0.0
0.0 0.0 0.0 0.0 0.0 0.0 0.0 0.0
0.0 0.0 0.0 0.0 0.0 0.0 0.0 0.0
0.0 0.0 0.0 0.0 0.0 0.0 0.0 0.0
0.0 0.0 0.0 0.0 0.0 0.0 0.0 0.0
0.0 -1.9259891853480113e-07 -1.2438204119640457e-08 9.900711751953166e-09 2.537492367688598e-09 -3.208399983975565e-08 0.0 0.0
0.0 -6.0085835530369225e-06 3.4076368069564595e-06 -2.8007109461757193e-06 -6.069258607807691e-07 5.849789505280563e-06 0.0 0.0
0.0 7.519736488295671e-05 -5.429081864951496e-05 3.752854603118401e-05 1.6762272618331033e-05 -2.420781424549884e-05 0.0 0.0
0.0 0.0008524505191036936 -0.0008001052327744416 0.0006094276364064709 0.0001906775963679703 -0.0003637241203475436 0.0 0.0
0.0 0.003549889363655756 -0.0029795769381757717 0.002467486088313534 0.000512090849862237 -0.0012147198209229368 0.0 0.0
0.0 0.008130578948180844 -0.007143505211949635 0.006385239336232205 0.0007582658757174318 -0.003017574773034724 0.0 0.0
0.0 0.015391423348450457 -0.013331610333539174 0.0124532679773388 0.0008783423562003545 -0.005638968363050647 0.0 0.0
0.0 0.024884436605871002 -0.02140822976091445 0.020453996102451577 0.0009542336584628995 -0.008777735369388692 0.0 0.0
0.0 0.03631248092250541 -0.031130773000141977 0.03010617318036065 0.0010245998197813309 -0.012139765201595593 0.0 0.0
0.0 0.049378572442380135 -0.04226189726903322 0.04116243245989658 0.0010994648091365898 -0.015467964184900202 0.0 0.0
0.0 0.06394631351919851 -0.05464365018311831 0.05346522080663552 0.001178429376482729 -0.018691101574463135 0.0 0.0
0.0 0.07952966619165552 -0.06819998030818662 0.06694195866027189 0.0012580216479147269 -0.021851243143551392 0.0 0.0
0.0 0.09666262126705837 -0.08284183134107556 0.08151343182498913 0.0013283995160865325 -0.025015849738250977 0.0 0.0
0.0 0.11464396800744248 -0.09822951282868071 0.09686686378391657 0.001362649044764068 -0.028430952236892335 0.0 0.0
0.0 0.13205602883688705 -0.11326411600839534 0.1119488143880259 0.0013153016203693668 -0.032741787406103354 0.0 0.0
0.0 0.14662303951611738 -0.1255514574932122 0.12440215620567605 0.0011493012875361756 -0.038588405144404904 0.0 0.0
0.0 0.1538066233928459 -0.13121057375317297 0.13034732860785006 0.0008632451453227526 -0.045748700288266816 0.0 0.0
0.0 0.1476721516748574 -0.125054862975904 0.1245826010265355 0.0004722619493684168 -0.05363940482625076 0.0 0.0
0.0 0.13796634206803077 -0.11272995051294665 0.10684127586412466 0.005888674648822074 2.658463726934457e-14 0.0 0.0
0.0 0.14767215167484052 -0.12505486297588245 0.12458260102651356 0.0004722619493687187 0.05363940482630976 0.0 0.0
0.0 0.1538066233928042 -0.13121057375313167 0.13034732860780904 0.0008632451453225395 0.045748700288324604 0.0 0.0
0.0 0.14662303951605157 -0.12555145749315322 0.12440215620561804 0.001149301287535226 0.038588405144435366 0.0 0.0
0.0 0.1320560288367974 -0.11326411600831766 0.11194881438794797 0.0013153016203696093 0.03274178740610283 0.0 0.0
0.0 0.11464396800734729 -0.09822951282859815 0.0968668637838344 0.0013626490447636854 0.028430952236881947 0.0 0.0
0.0 0.09666262126696261 -0.08284183134099311 0.08151343182490718 0.0013283995160859432 0.025015849738235833 0.0 0.0
0.0 0.079529666191559 -0.0681999803081031 0.06694195866018948 0.001258021647913563 0.02185124314353243 0.0 0.0
0.0 0.06394631351910425 -0.05464365018303679 0.05346522080655424 0.001178429376482532 0.018691101574443446 0.0 0.0
0.0 0.049378572442291685 -0.042261897268957876 0.04116243245982143 0.0010994648091364383 0.015467964184873591 0.0 0.0
0.0 0.03631248092242458 -0.031130773000073168 0.03010617318029205 0.0010245998197811572 0.012139765201565563 0.0 0.0
0.0 0.02488443660580726 -0.021408229760859966 0.020453996102397204 0.0009542336584627284 0.008777735369364709 0.0 0.0
0.0 0.015391423348403903 -0.013331610333498955 0.01245326797729915 0.0008783423561998015 0.00563896836303392 0.0 0.0
0.0 0.008130578948150707 -0.007143505211923754 0.006385239336207335 0.0007582658757164147 0.003017574773022729 0.0 0.0
0.0 0.003549889363638702 -0.0029795769381620154 0.002467486088301408 0.0005120908498606087 0.00121471982091675 0.0 0.0
0.0 0.0008524505190974378 -0.0008001052327697485 0.0006094276364027419 0.0001906775963670061 0.0003637241203453629 0.0 0.0
0.0 7.519736488064362e-05 -5.429081864843506e-05 3.75285460303918e-05 1.6762272618043276e-05 2.4207814245009966e-05 0.0 0.0
0.0 -6.008583553040208e-06 3.4076368067455725e-06 -2.8007109460134312e-06 -6.069258607321437e-07 -5.849789505000216e-06 0.0 0.0
0.0 -1.9259891850927365e-07 -1.243820411784055e-08 9.900711750511593e-09 2.5374923673294314e-09 3.208399983580417e-08 0.0 0.0
0.0 0.0 0.0 0.0 0.0 0.0 0.0 0.0
0.0 0.0 0.0 0.0 0.0 0.0 0.0 0.0
0.0 0.0 0.0 0.0 0.0 0.0 0.0 0.0
0.0 0.0 0.0 0.0 0.0 0.0 0.0 0.0
0.0 -7.18462332870173e-08 -5.322214849680892e-09 4.219826328331633e-09 1.102388521349622e-09 -1.0684932772376604e-08 0.0 0.0
0.0 -7.112310480982581e-06 5.049619437627992e-06 -4.206310976817401e-06 -8.433084608105814e-07 6.609690839671718e-06 0.0 0.0
0.0 0.00017897556746731194 -0.0001471451697736105 0.00010395112611118814 4.31940436624225e-05 -3.5391115868152855e-05 0.0 0.0
0.0 0.001468418886290572 -0.001295246566974119 0.0010045676213835757 0.00029067894559054374 -0.0003225242512750694 0.0 0.0
0.0 0.004728616252157124 -0.004175415453986238 0.003551252631286969 0.0006241628226992674 -0.0011322603787362441 0.0 0.0
0.0 0.01034003428447959 -0.009170132329954376 0.008339822199704559 0.0008303101302498118 -0.002720883416092407 0.0 0.0
0.0 0.01872783511140503 -0.01638241654562108 0.015441551314655941 0.0009408652309651285 -0.004921041794967135 0.0 0.0
0.0 0.02967723239125503 -0.02574543562070034 0.024724617366231286 0.0010208182544690424 -0.007592432265046874 0.0 0.0
0.0 0.042809744028369026 -0.03703130515915032 0.035933944683316434 0.0010973604758338692 -0.01046356356663486 0.0 0.0
0.0 0.05796484616283175 -0.049993385515705306 0.04881519139414194 0.001178194121563392 -0.013310717876369893 0.0 0.0
0.0 0.0746158890697867 -0.06444471390866845 0.06318234200623313 0.0012623719024353309 -0.01608703985010769 0.0 0.0
0.0 0.09318171216624761 -0.0802421958183648 0.07889788312342082 0.0013443126949439109 -0.018849334412926896 0.0 0.0
0.0 0.11277257855487645 -0.0972326131959482 0.09581408049860586 0.00141853269734231 -0.02158042917962858 0.0 0.0
0.0 0.13319209149623348 -0.11502522753112782 0.11356118259578717 0.0014640449353406516 -0.024189535053435563 0.0 0.0
0.0 0.15351233501308192 -0.13248516421052473 0.13105925877545155 0.0014259054350732356 -0.027003222571718145 0.0 0.0
0.0 0.17052712735371375 -0.14701489613565888 0.14578101782852013 0.0012338783071387176 -0.031480335863806094 0.0 0.0
0.0 0.1793706022553636 -0.15420453540231793 0.15331589431671777 0.0008886410856000441 -0.03978821475041217 0.0 0.0
0.0 0.17363292908802755 -0.14820915295168902 0.14776623294113 0.00044292001055916354 -0.053139640413508375 0.0 0.0
0.0 0.163237800416409 -0.13508970685148255 0.1288116412726615 0.006278065578820894 2.4164698020356923e-14 0.0 0.0
0.0 0.17363292908800565 -0.14820915295166445 0.14776623294110594 0.0004429200105585049 0.053139640413560583 0.0 0.0
0.0 0.17937060225531046 -0.15420453540226942 0.15331589431666837 0.0008886410856010189 0.039788214750459544 0.0 0.0
0.0 0.1705271273536345 -0.1470148961355895 0.14578101782845096 0.001233878307138518 0.03148033586383002 0.0 0.0
0.0 0.15351233501298317 -0.13248516421043913 0.13105925877536617 0.0014259054350728192 0.027003222571720213 0.0 0.0
0.0 0.13319209149612787 -0.11502522753103628 0.11356118259569611 0.0014640449353401658 0.02418953505342877 0.0 0.0
0.0 0.11277257855476865 -0.09723261319585505 0.09581408049851317 0.0014185326973417676 0.021580429179617375 0.0 0.0
0.0 0.09318171216613945 -0.08024219581827087 0.07889788312332795 0.0013443126949429108 0.018849334412911527 0.0 0.0
0.0 0.07461588906967309 -0.06444471390857098 0.06318234200613537 0.0012623719024357288 0.016087039850089857 0.0 0.0
0.0 0.05796484616273426 -0.04999338551562096 0.048815191394057975 0.001178194121563007 0.01331071787634856 0.0 0.0
0.0 0.04280974402828077 -0.037031305159074365 0.03593394468324088 0.0010973604758334771 0.010463563566610237 0.0 0.0
0.0 0.029677232391184465 -0.025745435620639336 0.024724617366170997 0.0010208182544683422 0.007592432265026828 0.0 0.0
0.0 0.018727835111351458 -0.01638241654557456 0.015441551314609803 0.0009408652309647567 0.00492104179495263 0.0 0.0
0.0 0.010340034284443852 -0.009170132329922823 0.008339822199673852 0.0008303101302489693 0.0027208834160815524 0.0 0.0
0.0 0.0047286162521363835 -0.004175415453968564 0.0035512526312707327 0.0006241628226978279 0.0011322603787303873 0.0 0.0
0.0 0.0014684188862807003 -0.0012952465669661376 0.0010045676213770447 0.00029067894558909406 0.0003225242512726968 0.0 0.0
0.0 0.00017897556746493436 -0.00014714516977216304 0.00010395112611017923 4.319404366198391e-05 3.539111586798448e-05 0.0 0.0
0.0 -7.1123104812493266e-06 5.049619437109567e-06 -4.206310976426739e-06 -8.433084606828193e-07 -6.6096908392041865e-06 0.0 0.0
0.0 -7.184623319621463e-08 -5.322214842869262e-09 4.219826322927047e-09 1.1023885199412321e-09 1.0684932758656047e-08 0.0 0.0
0.0 0.0 0.0 0.0 0.0 0.0 0.0 0.0
0.0 0.0 0.0 0.0 0.0 0.0 0.0 0.0
0.0 0.0 0.0 0.0 0.0 0.0 0.0 0.0
0.0 0.0 0.0 0.0 0.0 0.0 0.0 0.0
0.0 0.0 0.0 0.0 0.0 0.0 0.0 0.0
0.0 -8.459019687355765e-06 7.53567330288729e-06 -6.538112331629719e-06 -9.975609712575954e-07 7.846735354376423e-06 0.0 0.0
0.0 0.00032622988617834315 -0.0003200916567298871 0.00022922163070184215 9.087002602804498e-05 -1.4319150574105647e-05 0.0 0.0
0.0 0.002239218752404583 -0.0019373216681132632 0.0015392332931869579 0.000398088374926305 -0.00019419628268377406 0.0 0.0
0.0 0.005975414442090082 -0.005491436464314528 0.004781085416597722 0.0007103510477168003 -0.0008605667830097263 0.0 0.0
0.0 0.01265494609650079 -0.011253059943489126 0.010364351843755365 0.0008887080997337804 -0.0020075729560697715 0.0 0.0
0.0 0.022109619713084314 -0.01945511611553423 0.018458711092775346 0.0009964050227588665 -0.003629812509016797 0.0 0.0
0.0 0.03446529578986524 -0.030074988250014947 0.028992915464844504 0.0010820727851704576 -0.0056135306042013325 0.0 0.0
0.0 0.049387027667145936 -0.04290649381319191 0.041741214649551425 0.00116527916364041 -0.007761370328588511 0.0 0.0
0.0 0.06646116935479221 -0.05769497897215385 0.05644322044866821 0.0012517585234855847 -0.009900556567144954 0.0 0.0
0.0 0.08577574814514942 -0.07421416045039414 0.07287413884826499 0.0013400216021292408 -0.012009935750457557 0.0 0.0
0.0 0.10639053982964053 -0.09225738860733311 0.09083329841187507 0.0014240901954580246 -0.01416004287609267 0.0 0.0
0.0 0.12869512079571366 -0.11152449610969378 0.11002938838516108 0.0014951077245326317 -0.01627453346218612 0.0 0.0
0.0 0.15178973406513918 -0.13149159575998806 0.12995173585279385 0.0015398599071941924 -0.01803593993066216 0.0 0.0
0.0 0.17442685992259804 -0.15107070463091155 0.14954077529451035 0.001529929336401387 -0.01927166275182617 0.0 0.0
0.0 0.19388695778266132 -0.1678694642781439 0.1664874237529289 0.001382040525214965 -0.02143524334779181 0.0 0.0
0.0 0.20511233939760945 -0.1772615350394216 0.17630299229571592 0.0009585427437055969 -0.029438940890230303 0.0 0.0
0.0 0.2007383320531716 -0.1723883246544301 0.17202820155711113 0.00036012309731892886 -0.04970999305672039 0.0 0.0
0.0 0.19039782186390042 -0.15896293450629387 0.15240387306121078 0.006559061445082987 1.695692197767329e-14 0.0 0.0
0.0 0.2007383320531387 -0.17238832465439854 0.17202820155707949 0.00036012309731890755 0.049709993056761374 0.0 0.0
0.0 0.2051123393975454 -0.1772615350393648 0.17630299229565802 0.0009585427437070419 0.029438940890269646 0.0 0.0
0.0 0.19388695778256643 -0.1678694642780621 0.1664874237528473 0.0013820405252147287 0.021435243347808598 0.0 0.0
0.0 0.17442685992249118 -0.15107070463081854 0.14954077529441856 0.0015299293364003084 0.019271662751827876 0.0 0.0
0.0 0.1517897340650157 -0.13149159575988145 0.12995173585268716 0.0015398599071943242 0.018035939930657455 0.0 0.0
0.0 0.12869512079558892 -0.11152449610958591 0.1100293883850535 0.001495107724532478 0.01627453346217991 0.0 0.0
0.0 0.10639053982951467 -0.09225738860722404 0.09083329841176696 0.0014240901954571084 0.014160042876081618 0.0 0.0
0.0 0.08577574814502568 -0.0742141604502872 0.07287413884815783 0.001340021602129225 0.01200993575044661 0.0 0.0
0.0 0.06646116935468084 -0.05769497897205776 0.05644322044857265 0.0012517585234850734 0.009900556567129433 0.0 0.0
0.0 0.04938702766704926 -0.04290649381310779 0.04174121464946766 0.0011652791636400873 0.007761370328570057 0.0 0.0
0.0 0.034465295789788665 -0.030074988249947726 0.028992915464778397 0.0010820727851693181 0.005613530604185702 0.0 0.0
0.0 0.022109619713024223 -0.01945511611548149 0.018458711092723165 0.0009964050227583502 0.003629812509006294 0.0 0.0
0.0 0.012654946096460602 -0.011253059943453426 0.010364351843720664 0.0008887080997327544 0.00200757295606194 0.0 0.0
0.0 0.005975414442064042 -0.005491436464291136 0.004781085416575751 0.0007103510477153921 0.0008605667830045345 0.0 0.0
0.0 0.0022392187523931546 -0.0019373216681034446 0.0015392332931787674 0.0003980883749246731 0.00019419628268214112 0.0 0.0
0.0 0.0003262298861751228 -0.0003200916567277759 0.00022922163070031852 9.087002602745716e-05 1.4319150574185593e-05 0.0 0.0
0.0 -8.459019687393871e-06 7.535673302593943e-06 -6.53811233140177e-06 -9.97560971192217e-07 -7.846735354238518e-06 0.0 0.0
0.0 0.0 0.0 0.0 0.0 0.0 0.0 0.0
0.0 0.0 0.0 0.0 0.0 0.0 0.0 0.0
0.0 0.0 0.0 0.0 0.0 0.0 0.0 0.0
0.0 0.0 0.0 0.0 0.0 0.0 0.0 0.0
0.0 0.0 0.0 0.0 0.0 0.0 0.0 0.0
0.0 0.0 0.0 0.0 0.0 0.0 0.0 0.0
0.0 2.7511640184751844e-06 -5.004046537091765e-06 1.5060033357596052e-06 3.498043201332157e-06 9.397711549687542e-06 0.0 0.0
0.0 0.0006574139325507756 -0.0005707713252358465 0.0004159317614115633 0.00015483956382428353 7.368058226722407e-05 0.0 0.0
0.0 0.003015620301553559 -0.002712025143085399 0.0022119153712742683 0.0005001097718111278 3.724172285568715e-05 0.0 0.0
0.0 0.007555352990171387 -0.0068647287878426545 0.006090117642035237 0.0007746111458074212 -0.0003140940127772465 0.0 0.0
0.0 0.01499910220482448 -0.013359756488245651 0.012422541178866554 0.0009372153093790752 -0.0009168293972619975 0.0 0.0
0.0 0.025570508907038204 -0.022508711184286614 0.021462144101476534 0.00104656708281008 -0.0017722297787074663 0.0 0.0
0.0 0.03924288171572304 -0.03435387600600705 0.03321420224404907 0.001139673761957952 -0.002844929638102436 0.0 0.0
0.0 0.055867119742398906 -0.04871412595831793 0.047485100756263665 0.0012290252020543111 -0.004027104054502342 0.0 0.0
0.0 0.0752267805055438 -0.0653222307051034 0.06400190748881106 0.0013203232162923599 -0.005232523523597163 0.0 0.0
0.0 0.09642482000573344 -0.08391388215885652 0.0825008554970567 0.0014130266617997812 -0.006471419950501537 0.0 0.0
0.0 0.11985111396801344 -0.10418170441886021 0.1026833374288636 0.0014983669899965345 -0.007756307283796967 0.0 0.0
0.0 0.1446939382984734 -0.12568128375123136 0.1241181938522144 0.0015630898990170272 -0.009006908592935937 0.0 0.0
0.0 0.17013099569215143 -0.14767867228511578 0.1460833948188684 0.0015952774662471802 -0.00996282836027814 0.0 0.0
0.0 0.19479661172135523 -0.168993398807425 0.16740191982177283 0.0015914789856524582 -0.010219693045945895 0.0 0.0
0.0 0.21640464160527925 -0.1876764982299152 0.18613285694781231 0.0015436412821028193 -0.010219841127404412 0.0 0.0
0.0 0.230642641621491 -0.19994395873648413 0.1986711746132268 0.0012727841232570644 -0.014692029401976066 0.0 0.0
0.0 0.22951459281968825 -0.19814537925716663 0.19787381532264978 0.0002715639345165895 -0.03758420428923276 0.0 0.0
0.0 0.2207917455943228 -0.18559694326947537 0.1791931506632737 0.006403792606201549 9.2148511043888e-15 0.0 0.0
0.0 0.22951459281965267 -0.1981453792571331 0.19787381532261783 0.0002715639345152105 0.03758420428925771 0.0 0.0
0.0 0.2306426416214198 -0.1999439587364217 0.19867117461316536 0.0012727841232563469 0.014692029401999148 0.0 0.0
0.0 0.21640464160517067 -0.1876764982298214 0.18613285694771864 0.0015436412821027176 0.010219841127411486 0.0 0.0
0.0 0.19479661172123058 -0.16899339880731729 0.16740191982166538 0.001591478985651871 0.010219693045946098 0.0 0.0
0.0 0.1701309956920126 -0.14767867228499507 0.146083394818748 0.001595277466246894 0.009962828360274094 0.0 0.0
0.0 0.1446939382983319 -0.12568128375110893 0.12411819385209225 0.0015630898990168778 0.009006908592933512 0.0 0.0
0.0 0.11985111396787236 -0.10418170441873824 0.10268333742874175 0.0014983669899964014 0.007756307283793022 0.0 0.0
0.0 0.09642482000559979 -0.08391388215874068 0.08250085549694142 0.0014130266617993163 0.006471419950495248 0.0 0.0
0.0 0.07522678050541587 -0.06532223070499284 0.06400190748870072 0.0013203232162921667 0.005232523523588293 0.0 0.0
0.0 0.055867119742289674 -0.048714125958223525 0.04748510075616936 0.0012290252020541789 0.004027104054491651 0.0 0.0
0.0 0.039242881715635745 -0.03435387600593061 0.03321420224397354 0.0011396737619570956 0.002844929638092663 0.0 0.0
0.0 0.02557050890696954 -0.022508711184226256 0.021462144101416575 0.0010465670828096675 0.0017722297787018402 0.0 0.0
0.0 0.01499910220477877 -0.013359756488205027 0.012422541178826713 0.0009372153093783123 0.0009168293972577561 0.0 0.0
0.0 0.007555352990141681 -0.006864728787815777 0.006090117642009605 0.0007746111458061614 0.0003140940127746317 0.0 0.0
0.0 0.0030156203015400426 -0.002712025143073567 0.002211915371263895 0.0005001097718096728 -3.724172285620106e-05 0.0 0.0
0.0 0.0006574139325464725 -0.0005707713252327113 0.00041593176140927143 0.0001548395638234395 -7.368058226680745e-05 0.0 0.0
0.0 2.75116401799173e-06 -5.0040465370990575e-06 1.5060033357847197e-06 3.498043201314443e-06 -9.397711549603262e-06 0.0 0.0
0.0 0.0 0.0 0.0 0.0 0.0 0.0 0.0
0.0 0.0 0.0 0.0 0.0 0.0 0.0 0.0
0.0 0.0 0.0 0.0 0.0 0.0 0.0 0.0
0.0 0.0 0.0 0.0 0.0 0.0 0.0 0.0
0.0 0.0 0.0 0.0 0.0 0.0 0.0 0.0
0.0 0.0 0.0 0.0 0.0 0.0 0.0 0.0
0.0 5.313406178541119e-05 -5.180739864935905e-05 3.386971657870601e-05 1.793768207065313e-05 2.024241242678208e-05 0.0 0.0
0.0 0.0010468853194501326 -0.0008656554175731708 0.0006264600024127912 0.00023919541516037926 0.0002037480300772344 0.0 0.0
0.0 0.0037825118786619103 -0.0034059490269754203 0.0027476427877712274 0.0006583062392041903 0.0004396612335093776 0.0 0.0
0.0 0.008793770516980961 -0.008029812814607589 0.007026084698465623 0.0010037281161419782 0.0005735278266117557 0.0 0.0
0.0 0.01683272798705665 -0.015103037832138407 0.01382865919436024 0.0012743786377781704 0.0006279231530301698 0.0 0.0
0.0 0.028131798801599973 -0.025008509129180803 0.023474701346997712 0.0015338077821830643 0.0005892329308651197 0.0 0.0
0.0 0.042875333274059506 -0.03784803735816619 0.03602223516002077 0.001825802198145359 0.0004094692064738545 0.0 0.0
0.0 0.06087693698430866 -0.053470577821729814 0.05130192559654687 0.0021686522251829327 0.00012508438955821134 0.0 0.0
0.0 0.08148379559450954 -0.07159825964849346 0.06903377545817384 0.002564484190319592 -0.00024967653398350227 0.0 0.0
0.0 0.10467782133834691 -0.09190245443950527 0.08890396766098368 0.002998486778521578 -0.0007376423599477879 0.0 0.0
0.0 0.1299669586784767 -0.11400366500077842 0.11055641064023236 0.003447254360546139 -0.00130787048451763 0.0 0.0
0.0 0.15672211942156505 -0.13734588181634394 0.13347099712115335 0.0038748846951904875 -0.0019573910676266206 0.0 0.0
0.0 0.18393817874320523 -0.16100964431223375 0.15677616455470114 0.004233479757532727 -0.002550169971157548 0.0 0.0
0.0 0.20997509815217041 -0.18359680635508116 0.17912665032070496 0.004470156034375952 -0.0027710728069772865 0.0 0.0
0.0 0.23263451182953238 -0.20324641724526288 0.19867469639374039 0.004571720851522138 -0.0024844924870137605 0.0 0.0
0.0 0.24883862245576951 -0.21753257280477736 0.2128184184917554 0.004714154313022028 -0.005089017586435107 0.0 0.0
0.0 0.2521979862178773 -0.2209768005165555 0.21604109387610912 0.004935706640446468 -0.028973378719780483 0.0 0.0
0.0 0.24828769618093866 -0.21190326680314325 0.19976952689456867 0.012133739908574062 4.413136522884997e-15 0.0 0.0
0.0 0.2521979862178449 -0.2209768005165252 0.21604109387608264 0.00493570664044247 0.028973378719789014 0.0 0.0
0.0 0.24883862245568913 -0.21753257280470656 0.21281841849168753 0.004714154313018668 0.005089017586441605 0.0 0.0
0.0 0.23263451182941317 -0.20324641724515924 0.19867469639363872 0.004571720851520803 0.0024844924870146244 0.0 0.0
0.0 0.2099750981520277 -0.18359680635495657 0.17912665032058217 0.004470156034374172 0.0027710728069757877 0.0 0.0
0.0 0.18393817874305796 -0.16100964431210543 0.15677616455457488 0.0042334797575301255 0.0025501699711543736 0.0 0.0
0.0 0.1567221194214125 -0.13734588181621088 0.13347099712102223 0.003874884695188455 0.0019573910676238815 0.0 0.0
0.0 0.12996695867832533 -0.1140036650006467 0.11055641064010206 0.0034472543605445485 0.0013078704845149863 0.0 0.0
0.0 0.10467782133820311 -0.09190245443937975 0.0889039676608606 0.0029984867785191223 0.0007376423599441406 0.0 0.0
0.0 0.08148379559437152 -0.07159825964837353 0.06903377545805554 0.0025644841903178345 0.0002496765339793771 0.0 0.0
0.0 0.060876936984188015 -0.053470577821624565 0.05130192559644322 0.0021686522251813537 -0.0001250843895618291 0.0 0.0
0.0 0.04287533327396647 -0.037848037358085056 0.03602223515994147 0.001825802198143512 -0.0004094692064770169 0.0 0.0
0.0 0.0281317988015251 -0.025008509129115106 0.023474701346933354 0.0015338077821817411 -0.0005892329308667633 0.0 0.0
0.0 0.016832727987002912 -0.01510303783209057 0.013828659194313777 0.001274378637776781 -0.0006279231530296493 0.0 0.0
0.0 0.008793770516948964 -0.008029812814578388 0.007026084698438249 0.0010037281161401367 -0.0005735278266105876 0.0 0.0
0.0 0.003782511878645958 -0.0034059490269605437 0.002747642787758203 0.0006583062392023396 -0.00043966123350800866 0.0 0.0
0.0 0.001046885319445196 -0.0008656554175693551 0.0006264600024100749 0.00023919541515928284 -0.00020374803007603876 0.0 0.0
0.0 5.313406178461678e-05 -5.1807398648792065e-05 3.386971657831857e-05 1.793768207047348e-05 -2.0242412426631082e-05 0.0 0.0
0.0 0.0 0.0 0.0 0.0 0.0 0.0 0.0
0.0 0.0 0.0 0.0 0.0 0.0 0.0 0.0
0.0 0.0 0.0 0.0 0.0 0.0 0.0 0.0
SCALARS Wm float 4
LOOKUP_TABLE default
14.30486273831223 2.0866286941772074 6.1612773633194085 6.056956680815603
7.499100888338906 3.533829384837682 1.809511856662566 2.1557596468386597
0.8673274931096238 0.7671486838537133 0.021815057892529285 0.07836375136338095
0.6189147878271215 0.5584749275642646 0.017014381911468385 0.04342547835138798
1.3818756104060237 0.8839852504448303 0.183142352331298 0.3147480076298951
3.184317197582236 1.346949404440379 0.7217586637869802 1.1156091293548775
6.792212252056428 2.0022686126797544 2.1593186935805795 2.630624945796093
12.758907436968531 2.8777914354756575 4.844582511121885 5.036533490370991
21.68791461619923 4.041964473571058 9.21542777235636 8.430522370271806
33.96808120820994 5.513906689762542 15.612261839473861 12.841912678973545
49.70788208841316 7.28176287152592 24.207056431675447 18.219062785211797
68.68675095674035 9.315331840926433 34.903189133606276 24.468229982207603
90.85062044659075 11.567793759090556 47.799602919875014 31.483223767625176
115.88900842243399 13.982734384203562 62.75280753073814 39.15346650749234
143.23040735389827 16.366112020495205 79.54045257317847 47.32384276022453
171.90224739998203 18.414415194797044 97.7255865493219 55.76224565586301
200.42382638814803 19.801626266129297 116.46868278671803 64.15351733530073
226.99163171033038 20.323873837555862 134.63542559815716 72.03233227461715
249.7994193409548 20.12626524445749 150.80414071216853 78.86901338432904
265.8008447753606 18.74485505111915 163.0350367521 84.02095297214127
270.78254426581293 16.05070068325467 168.42221073024382 86.30963285231441
265.80084477531454 18.744855051111895 163.03503675207185 84.02095297213071
249.79941934081737 20.126265244385472 150.80414071212235 78.86901338430941
226.99163171020513 20.32387383754681 134.63542559807618 72.03233227458212
200.42382638799387 19.801626266107665 116.46868278662596 64.15351733526023
171.90224739982168 18.41441519476811 97.72558654923172 55.762245655821886
143.23040735374656 16.36611202047589 79.54045257308914 47.32384276018157
115.88900842229395 13.982734384191378 62.752807530652916 39.153466507449664
90.85062044645832 11.567793759080912 47.799602919794616 31.483223767582786
68.68675095662067 9.31533184091185 34.90318913353897 24.46822998216988
49.7078820883175 7.281762871517579 24.207056431620927 18.21906278517897
33.96808120813421 5.513906689754328 15.61226183943315 12.841912678946732
21.6879146161449 4.04196447356391 9.215427772329186 8.43052237025181
12.758907436932432 2.877791435469598 4.844582511105598 5.036533490357239
6.792212252035474 2.002268612676152 2.1593186935719233 2.630624945787397
3.1843171975716666 1.346949404438372 0.7217586637834446 1.115609129349847
1.3818756104022727 0.8839852504438769 0.18314235233014725 0.3147480076282488
0.618914787826077 0.5584749275637928 0.017014381911287565 0.04342547835099649
0.8673274931082341 0.767148683852625 0.021815057892414905 0.07836375136319293
7.499100888334285 3.5338293848395788 1.8095118566593467 2.1557596468353566
14.30486273828066 2.0866286941603183 6.161277363311225 6.056956680809126
17.283928494880644 7.429241408811028 4.835292515987637 5.0193945700819835
3.1738461124010153 0.6988037828627143 1.0658628617002737 1.4091794678380243
0.30249688572050404 0.35878033119576946 -0.02042951325833484 -0.03585393221693051
0.4723896782591209 0.4487603773101702 0.005076126939287773 0.018553174009662943
1.032282422140734 0.7144668726138166 0.10351934175728439 0.21429620776963335
2.53368547378958 1.0784476683648265 0.5718903519213222 0.8833474535034305
5.57244057362126 1.524159918836296 1.7835995452467865 2.2646811095381776
10.790027653551435 2.1020806621853074 4.196844680061266 4.49110231130486
18.63419153081604 2.8104322410253753 8.171628872711665 7.652130417079006
29.35778477859164 3.630490911740076 13.970779936081405 11.756513930770158
43.0246478607023 4.535095545931958 21.744745522544466 16.74480679222587
59.614365968139346 5.524806049303679 31.56514737923406 22.524412539601627
78.74428892795831 6.595242547793802 43.139829406338286 29.009216973826245
100.50136618196767 7.695631529826426 56.70554536025757 36.10018929188371
124.33899294207676 8.744630775982744 71.9231313747731 43.671230791320994
149.51018428984688 9.589307524037308 88.40883477814113 51.512041987668404
174.85718358797533 10.056444605938001 105.49860921862144 59.3021297634158
198.8319965309613 10.032377746889882 122.15048013228977 66.6491386517816
219.3733292529863 9.390341183111445 136.95623778110942 73.02675028876536
233.89624342330058 8.247712178557846 147.97478912175657 77.67374212298633
239.55585938114194 6.945159687632017 152.89121147988192 79.71948821362813
233.89624342325087 8.247712178541034 147.97478912173332 77.67374212297645
219.37332925295604 9.390341183150694 136.9562377810609 73.02675028874455
198.83199653086876 10.032377746903125 122.150480132216 66.64913865174974
174.8571835878552 10.056444605938314 105.49860921853835 59.30212976337844
149.51018428972344 9.589307524036192 88.40883477805743 51.5120419876298
124.33899294195454 8.74463077598313 71.92313137469074 43.67123079128075
100.50136618184511 7.6956315298190905 56.70554536018114 36.10018929184487
78.74428892784078 6.595242547788178 43.13982940626558 29.009216973786994
59.614365968037795 5.524806049298092 31.56514737917316 22.52441253956654
43.024647860618686 4.535095545928734 21.74474552249479 16.744806792195167
29.357784778524252 3.630490911732434 13.970779936045734 11.756513930746092
18.634191530768895 2.8104322410222617 8.171628872686657 7.652130417059962
10.79002765352098 2.102080662182682 4.196844680046399 4.491102311291903
5.572440573603421 1.5241599188348034 1.7835995452387978 2.2646811095298167
2.533685473780939 1.0784476683633857 0.571890351918106 0.8833474534994485
1.0322824221376916 0.7144668726124586 0.1035193417566189 0.21429620776861402
0.4723896782584107 0.44876037730956303 0.00507612693923822 0.01855317400960968
0.30249688572052863 0.3587803311955074 -0.0204295132582418 -0.03585393221673672
3.173846112392099 0.698803782860685 1.0658628616968975 1.4091794678345178
17.28392849485396 7.429241408800367 4.835292515978913 5.019394570074663
13.20405973820895 5.968479337723345 3.416109271493053 3.8194711289925496
1.9992679136281377 0.31464648706211235 0.7145254835822022 0.9700959429838244
0.18577913170852603 0.18520064513853352 0.00014409780838959364 0.0004343887616029057
0.34537756502930006 0.3453525910352184 -0.0005043326352571711 0.0005293066293387709
0.7723751772404741 0.6146336380501022 0.04455291040002601 0.11318862879034597
1.9730218186405537 0.9636815358140751 0.38223369944142255 0.6271065833850563
4.5305502025941635 1.3862331985990872 1.3360885721078195 1.8082284318872575
9.08296028315187 1.9102958941153836 3.386498664161344 3.7861657248751426
15.974528207378444 2.5311388598882947 6.814032874317795 6.629356473172352
25.42523659772904 3.232134827883147 11.871164448363658 10.321937321482228
37.42201494657175 4.003761601806774 18.62671007845287 14.791543266312111
51.8492243697317 4.85139193097784 27.044265286478602 19.953567152275234
68.76003857084832 5.785355512199342 37.24689737854573 25.72778568010327
87.68773149440645 6.779576143957985 48.8577364997408 32.05041885070762
108.62281763834862 7.754997583299146 62.06102435608948 38.80679569895995
130.83963225323427 8.605590378027552 76.40117491384325 45.832866961363514
153.3687930008822 9.174338967226628 91.31822526761509 52.87622876604043
174.7558978719231 9.269502539454828 105.95003946639781 59.53635586607058
193.02773668822485 8.75114976642645 118.98077755653775 65.2958093652607
205.93710484284375 7.887855240666637 128.601111623007 69.4481379791701
210.68930241072704 6.204134057781566 133.0995650588265 71.38560329411897
205.93710484282397 7.887855240675616 128.60111162298722 69.44813797916103
193.0277366881501 8.751149766418848 118.98077755649128 65.29580936523995
174.75589787183435 9.269502539456052 105.95003946633567 59.53635586604267
153.3687930007708 9.174338967217228 91.31822526754546 52.87622876600803
130.8396322531113 8.605590378012451 76.40117491377033 45.832866961328556
108.62281763823465 7.754997583293199 62.06102435601729 38.806795698924134
87.68773149430056 6.779576143953102 48.857736499674566 32.050418850672834
68.76003857074434 5.785355512191429 37.246897378484014 25.727785680068934
51.849224369645924 4.851391930977459 27.044265286424967 19.953567152243522
37.422014946496404 4.003761601801365 18.626710078410294 14.791543266284755
25.425236597671603 3.2321348278768234 11.87116444833367 10.32193732146111
15.974528207335442 2.5311388598840843 6.814032874296085 6.629356473155268
9.082960283123715 1.910295894110987 3.386498664148862 3.7861657248638685
4.530550202578666 1.386233198597637 1.3360885721012448 1.8082284318797817
1.9730218186331085 0.9636815358118029 0.3822336994392049 0.6271065833821001
0.7723751772385876 0.6146336380490129 0.04455291039973683 0.11318862878983779
0.345377565028963 0.34535259103481697 -0.0005043326352466373 0.0005293066293926621
0.18577913170837557 0.18520064513841317 0.0001440978083858577 0.00043438876157656024
1.9992679136223903 0.314646487061638 0.7145254835796934 0.9700959429810563
13.20405973817995 5.968479337710384 3.416109271484611 3.819471128984955
10.054270441925597 4.662648450311512 2.4543549197710495 2.9372670718430367
1.3589883188401513 0.14204642780627993 0.4913020245188662 0.7256398665150037
0.129301283979997 0.129301283979997 0.0 0.0
0.2548741550756685 0.2574545385359974 -0.0004727449893368803 -0.0021076384709920303
0.5716981045040289 0.5158447198162014 0.013063347328771372 0.042790037359055885
1.4701829450320512 0.8350128223077341 0.22058546109744212 0.41458466162687524
3.5979251127409357 1.2483571000296863 0.9723615842183532 1.3772064284928949
7.444855749056852 1.716507026231973 2.630955401702865 3.0973933211220186
13.40169198053719 2.256236701649915 5.532069509284039 5.613385769603239
21.578641215877028 2.8511466781939925 9.839944313571532 8.887550224111497
31.911574872929528 3.500908585996708 15.573019457013164 12.837646829919667
44.382772033610344 4.227035584946205 22.7758350555497 17.379901393114437
58.79263234351839 5.0354619210270695 31.305056322616824 22.4521140998745
75.28103284551716 5.915103388777242 41.37151480715512 27.994414649584794
93.31813840374804 6.830272927984998 52.549135314093625 33.938730161669426
112.55521322790537 7.687564122469204 64.71633565417125 40.15131345126489
132.3612038253101 8.339903434664938 77.60891953234238 46.41238085830285
151.29072185151117 8.580538236939715 90.31156143849466 52.39862217607675
167.57720973929193 8.274925452510065 101.67911280799814 57.62317147878363
179.24492772523604 7.576991361988501 110.20356610873647 61.464370254511145
183.56019093460543 5.570450808400583 114.59700403051667 63.39273609568813
179.2449277252127 7.576991361991872 110.2035661087177 61.464370254503095
167.57720973924555 8.274925452517303 101.67911280796118 57.62317147876704
151.29072185144125 8.580538236944859 90.31156143844319 52.39862217605321
132.36120382523146 8.339903434672898 77.60891953228389 46.41238085827464
112.55521322781925 7.6875641224773625 64.71633565410805 40.1513134512338
93.3181384036501 6.830272927977773 52.54913531403408 33.93873016163821
75.28103284542587 5.915103388774356 41.37151480709785 27.994414649553647
58.79263234343713 5.035461921028301 31.30505632256435 22.452114099844426
44.38277203352995 4.2270355849369965 22.775835055505713 17.379901393087252
31.91157487286322 3.500908585988923 15.573019456978034 12.83764682989629
21.57864121582469 2.85114667818618 9.839944313545763 8.887550224092736
13.401691980502232 2.256236701648767 5.532069509265449 5.613385769588021
7.444855749034476 1.716507026230333 2.6309554016924177 3.097393321111722
3.597925112727627 1.248357100027526 0.972361584213081 1.3772064284870214
1.4701829450269213 0.8350128223061231 0.22058546109598584 0.4145846616248129
0.5716981045027789 0.5158447198157473 0.013063347328504215 0.042790037358527114
0.2548741550755202 0.25745453853581185 -0.0004727449893265576 -0.002107638470965102
0.12930128398006535 0.12930128398006535 0.0 0.0
1.3589883188348755 0.1420464278056053 0.491302024516706 0.7256398665125637
10.054270441902652 4.6626484503026315 2.4543549197640506 2.9372670718359752
7.549061561911829 3.616172196023336 1.710106961789346 2.222782404099151
0.9961594742671522 0.12227141599751633 0.3558478757108846 0.5180401825587505
0.11753460917335992 0.11753460917335992 0.0 0.0
0.2033516699546612 0.20361164312462288 -2.388327265985864e-05 -0.00023608989730183975
0.4219606733697362 0.4182669947713729 -0.0017033104792526503 0.005396989077616118
1.0692760415767082 0.7156166085939398 0.11213428960588051 0.24152514337688738
2.743377149903856 1.0907756576000767 0.6646708722695193 0.9879306200342619
5.900693242971027 1.523948316955612 1.9440540302701712 2.4326908957452456
10.920296420405311 1.9869692999814166 4.32318178517898 4.610145335244913
17.836619787242398 2.4869941758521827 7.8900699411644615 7.459555670225755
26.583928577253804 3.0315444729791 12.666126077929354 10.886258026345342
37.07827408408523 3.643424430302925 18.626930293313354 14.807919360468956
49.29729442126759 4.3435738594208 25.780124891525407 19.17359567032138
63.00946221751023 5.125464305268824 33.9364164185545 23.94758149368691
78.33567086861557 5.958691311736315 43.30657551300403 29.070404043875257
94.84419972300284 6.80833590426944 53.58356234164323 34.45230147709015
111.82368780355033 7.549099754187699 64.33660754986566 39.93798049949696
128.38500625877566 7.971177273423034 75.17297812468941 45.240850860663194
142.9209017052294 7.886987460242198 85.08155348336587 49.952360761621364
153.68878082528383 7.337135785500136 92.8038973268539 53.54774771292968
157.76868622595498 4.987854739984359 97.2085883253085 55.57224316066218
153.6887808252527 7.337135785489774 92.80389732684 53.547747712922906
142.92090170518284 7.8869874602420005 85.0815534833345 49.95236076160641
128.38500625871546 7.971177273425152 75.1729781246477 45.24085086064262
111.82368780345868 7.549099754166968 64.33660754981807 39.93798049947367
94.84419972291899 6.808335904268434 53.5835623415886 34.45230147706191
78.33567086853834 5.958691311734892 43.30657551295471 29.07040404384877
63.00946221742493 5.125464305255217 33.93641641850865 23.947581493661072
49.29729442119461 4.343573859418255 25.780124891481346 19.173595670294997
37.078274084022596 3.6434244302972023 18.626930293278683 14.807919360446705
26.583928577200044 3.031544472974322 12.666126077900454 10.886258026325272
17.836619787201617 2.4869941758503624 7.890069941142339 7.459555670208917
10.920296420373486 1.9869692999776292 4.32318178516398 4.610145335231875
5.90069324295165 1.5239483169539323 1.9440540302613714 2.4326908957363464
2.743377149893264 1.0907756575974825 0.6646708722658603 0.9879306200299213
1.0692760415729394 0.7156166085929534 0.11213428960480543 0.24152514337518038
0.42196067336870846 0.4182669947705266 -0.0017033104793132985 0.005396989077495149
0.20335166995454002 0.20361164312451807 -2.3883272660514495e-05 -0.0002360898973175486
0.11753460917329223 0.11753460917329223 0.0 0.0
0.9961594742630084 0.12227141599727068 0.3558478757090392 0.5180401825567
7.549061561893282 3.6161721960156905 1.710106961784098 2.2227824040934903
5.567737182596517 2.7796433897998662 1.1633678636447042 1.6247259291519462
0.7084603186242943 0.14579224574501917 0.20795109812257526 0.35471697475670033
0.13317550001976153 0.13317550001976153 0.0 0.0
0.1809934797164044 0.18093961944137993 5.569367922822737e-06 4.8290907101645385e-05
0.326610633903872 0.33818307485108123 -0.0034608252569095213 -0.00811161569029963
0.7527566975917616 0.5920583482784979 0.04096057776867129 0.11973777154459227
1.9590689663283387 0.9208520489399638 0.37792589830908996 0.6602910190792852
4.518043533872868 1.321732564049842 1.3926801832815636 1.803630786541462
8.52869489662871 1.724193467268844 3.178589653907616 3.625911775452253
14.245803205711791 2.141155111521612 6.06090354657354 6.043744547616638
21.426756853852297 2.591678615305463 9.893038853209985 8.942039385336845
30.005209898336567 3.1051312417670727 14.658378431953079 12.241700224616418
39.948121368455105 3.704481713979441 20.343113915911587 15.900525738564083
51.27810290320926 4.394165235724372 26.983235458294693 19.900702209190197
63.81215199802445 5.162537356082775 34.44145636982008 24.208158272121608
77.37930699265463 5.970210670090523 42.65370517486254 28.75539114770161
91.83434977860347 6.771549102148769 51.636241297169114 33.42655937928561
106.07026052770445 7.4007913815974895 60.618482401392136 38.05098674471481
118.93158356049973 7.567491502271544 69.06602340180373 42.29806865642444
129.03134628108458 7.167232493127771 76.15389923925557 45.710214548701195
133.04753834687565 4.4601236498513686 80.70593170113034 47.88148299589404
129.0313462810596 7.167232493114133 76.153899239248 45.71021454869745
118.9315835604661 7.567491502275314 69.0660234017786 42.29806865641222
106.07026052765296 7.400791381594542 60.618482401359564 38.05098674469881
91.83434977856184 6.771549102167165 51.63624129712943 33.42655937926521
77.3793069925794 5.970210670080439 42.653705174820416 28.75539114767859
63.81215199796326 5.162537356085458 34.44145636977907 24.208158272098743
51.278102903149275 4.39416523572018 26.983235458259728 19.900702209169367
39.948121368395206 3.704481713975521 20.343113915877176 15.900525738542514
30.00520989828753 3.1051312417659425 14.65837843192444 12.241700224597137
21.426756853808584 2.591678615303928 9.89303885318557 8.942039385319084
14.245803205677316 2.141155111519878 6.060903546555427 6.043744547602012
8.528694896603767 1.724193467263908 3.1785896538972507 3.625911775442611
4.518043533857523 1.3217325640478947 1.3926801832749878 1.8036307865346417
1.9590689663199077 0.9208520489371551 0.37792589830668655 0.6602910190760658
0.7527566975884685 0.5920583482770106 0.04096057776804915 0.11973777154340905
0.32661063390320444 0.33818307485014226 -0.0034608252568547144 -0.00811161569008318
0.18099347971637414 0.18093961944137113 5.5693679206427516e-06 4.829090708237022e-05
0.13317550001945602 0.13317550001945602 0.0 0.0
0.7084603186212236 0.1457922457448656 0.20795109812125 0.35471697475510805
5.567737182582564 2.7796433897944848 1.1633678636407665 1.624725929147315
3.9696123460743333 2.1049083969470654 0.7305248901613951 1.1341790589658731
0.5264104748951781 0.18882640179343502 0.11677868550279108 0.22080538759895196
0.1605118281632136 0.16051732633041643 -2.8514702602354354e-07 -5.213020176798422e-06
0.17788049961722924 0.17788582614311016 -1.9737344837264589e-07 -5.12915243257676e-06
0.2716932278168273 0.2803389596066053 -0.001941114269134092 -0.006704617520644006
0.5312901573610191 0.4855687475129847 0.006354734130422309 0.039366675717612674
1.3438254941481695 0.7597707394307058 0.1940645205725482 0.38999023414491535
3.1752319858768767 1.0995695938981658 0.8326999968100838 1.2429623951686286
6.402744286140581 1.4657756435103952 2.2591366891310662 2.677831953499119
10.787488688364732 1.810063976828572 4.332801944298241 4.644622767237918
16.485931077266635 2.1812781776081667 7.293512507126701 7.011140392531763
23.22817149607751 2.607958702295172 10.934386321172095 9.685826472610241
31.00887654394323 3.1172517730108282 15.253449533259285 12.638175237673119
39.869016915418705 3.7240052355927133 20.281298588973087 15.863713090852912
49.766313587788666 4.4189325037032114 25.99398177370138 19.35339931038409
60.718119720823154 5.1847955223747615 32.47346850307673 23.059855695371652
72.14697427657009 6.006668432282058 39.22111420671806 26.919191637570023
84.1834494622833 6.813188371273811 46.55987563762633 30.810385453383144
95.70804413539759 7.281316908341242 53.84417134536712 34.58255588168915
105.22295116040678 7.078834391067064 60.2713103585953 37.87280641074442
109.3655715889646 4.001976936322374 65.09021616371655 40.2733784889256
105.22295116043313 7.078834391105966 60.2713103585869 37.87280641074024
95.70804413534835 7.281316908317994 53.84417134534994 34.582555881680435
84.18344946224155 6.813188371268051 46.55987563760283 30.810385453370657
72.14697427650111 6.006668432261539 39.22111420668682 26.91919163755277
60.718119720765785 5.184795522365565 32.473468503045886 23.059855695354337
49.766313587732675 4.418932503698564 25.993981773669283 19.353399310364832
39.86901691536633 3.724005235582174 20.281298588947376 15.863713090836786
31.00887654390364 3.1172517730157074 15.253449533232581 12.638175237655359
23.22817149603792 2.6079587022939874 10.934386321149637 9.685826472594291
16.485931077229292 2.1812781776035743 7.293512507108264 7.011140392517453
10.787488688340384 1.8100639768304763 4.332801944284095 4.644622767225812
6.402744286123721 1.465775643510422 2.2591366891223794 2.6778319534909194
3.175231985866104 1.0995695938980043 0.8326999968051682 1.2429623951629318
1.343825494142336 0.7597707394289913 0.1940645205708856 0.3899902341424587
0.5312901573594742 0.48556874751170875 0.006354734130347233 0.03936667571741884
0.27169322781660454 0.2803389596062275 -0.00194111426910669 -0.006704617520516408
0.1778804996170562 0.17788582614292978 -1.9737344783652903e-07 -5.129152425718009e-06
0.16051182816281787 0.16051732633001128 -2.851470254176852e-07 -5.213020168041371e-06
0.5264104748928163 0.1888264017931886 0.11677868550187274 0.2208053875977548
3.969612346063757 2.1049083969431446 0.7305248901585063 1.1341790589621077
2.7963741689501433 1.6017698405383292 0.46935787126869966 0.7252464571431146
0.383793098804437 0.21882633546766442 0.044653927635967566 0.12031283570080509
0.18886495875982018 0.18852814587581268 3.7008306799531854e-05 0.00029980457720795594
0.1863239676266026 0.1862844954276813 3.386764836324187e-07 3.913352243771005e-05
0.2440043450141375 0.24938310936621752 -0.0010931818375710574 -0.004285582514508825
0.3949149534500313 0.39643986001066056 -0.004560841651078078 0.0030359350904485935
0.8647999091307178 0.6023759020773867 0.07213222403408705 0.1902917830192436
2.070654791606604 0.8782276066363307 0.4358477121129018 0.7565794728573724
4.308756354516272 1.1857232391279882 1.3245888128830066 1.7984443025052779
7.655856597381025 1.487596192725678 2.884703604864985 3.2835567997903627
11.796679669170508 1.791308035469923 4.905838073781346 5.0995335599192435
16.761648037703583 2.1449791017483375 7.467075145826638 7.1495937901286135
22.496107576060105 2.5735779097517337 10.526312397202295 9.396217269106081
29.016288194783186 3.0979654279204643 14.06979903787577 11.848523728986947
36.42185390352752 3.73109445222793 18.17450704434084 14.516252406958762
44.58090982178357 4.446978974247676 22.748362393182738 17.38556845435315
53.50934498465946 5.2348433398740175 27.874409589071373 20.400092055714037
62.99325777880666 6.159518397273438 33.28368830579895 23.550051075734288
72.82532819039479 6.974358251399275 39.04756214441343 26.803407794582046
82.00507974060885 7.080500046948647 44.95681023390402 29.96776945975618
86.51944154422505 3.6318016820546046 50.18793649014082 32.699703372029624
82.00507974056191 7.080500046909023 44.956810233899176 29.96776945975375
72.82532819039623 6.974358251416993 39.047562144402924 26.803407794576326
62.993257778786635 6.159518397280542 33.283688305781716 23.550051075724397
53.50934498461471 5.234843339860142 27.87440958905195 20.400092055702622
44.58090982174264 4.446978974242079 22.748362393160786 17.38556845433975
36.42185390347937 3.7310944522148928 18.1745070443194 14.516252406945085
29.01628819475544 3.0979654279217907 14.069799037858445 11.84852372897521
22.496107576021995 2.5735779097444804 10.526312397184261 9.396217269093235
16.76164803767306 2.1449791017453768 7.4670751458110916 7.149593790116591
11.796679669144911 1.7913080354688982 4.905838073768 5.099533559908012
7.655856597359007 1.4875961927224968 2.8847036048551153 3.2835567997813966
4.308756354501533 1.1857232391252925 1.324588812877139 1.798444302499103
2.070654791598284 0.8782276066349315 0.43584771210989826 0.7565794728534545
0.8647999091270846 0.6023759020762569 0.0721322240332119 0.1902917830176163
0.3949149534491859 0.396439860009729 -0.00456084165107387 0.0030359350905306073
0.24400434501360121 0.2493831093655345 -0.0010931818375417377 -0.0042855825143915316
0.18632396762615114 0.1862844954270324 3.3867649581782207e-07 3.913352262292497e-05
0.1888649587596772 0.18852814587562033 3.700830680314151e-05 0.00029980457725366726
0.3837930988025659 0.21882633546723385 0.044653927635416805 0.12031283569991502
2.7963741689419033 1.6017698405350098 0.46935787126651174 0.725246457140382
1.836545300575735 1.1862000646776687 0.22514473923776473 0.4252004966603015
0.29434349146731553 0.23660483602953428 0.01117593030675575 0.04656272513102553
0.21228144611960154 0.21218277250590162 1.662850648209886e-05 8.204510721782268e-05
0.20112176616361455 0.20133792156110264 -2.3776242234956985e-05 -0.0001923791552530704
0.2325492356209878 0.2361646056673811 -0.000826501967679752 -0.002788868078713573
0.324557680893626 0.331618807878915 -0.004150888163345201 -0.0029102388219438384
0.5528910101464084 0.47180801847717463 0.014249918015347867 0.06683307365388583
1.201532163940367 0.6629825728975564 0.174198856850988 0.3643507341918228
2.543756893445821 0.8963730190329342 0.6352982353053959 1.0120856391074902
4.667917152704059 1.1409794530998312 1.5276461888332082 1.9992915107710199
7.404007724555662 1.3935519824137943 2.7677721074967674 3.2426836346451005
10.709284274786246 1.6881116130647533 4.366156141097078 4.655016520624413
14.508161190249506 2.0479144688724076 6.258123028342662 6.202123693034434
18.838510600809585 2.4921947672098383 8.456565567976108 7.88975026562364
23.81369390740183 3.0504050384693584 11.023551662945264 9.73973720598721
29.49236490208013 3.7282641446122504 13.995416177829544 11.768684579638343
35.78550736939898 4.476804720174426 17.34567305657792 13.963029592646642
42.657463205667746 5.333554211914804 21.014927749379794 16.308981244373133
50.723684054227796 6.4775147183132695 25.306999068611084 18.93917026730346
59.639260986207724 7.190342417303194 30.507495187785175 21.941423381119336
64.77338224655931 3.4132335552789703 36.13679817758268 25.223350513697643
59.6392609862512 7.190342417345676 30.507495187785846 21.941423381119705
50.72368405421266 6.477514718308751 25.306999068604448 18.939170267299453
42.65746320564421 5.333554211911612 21.014927749367168 16.308981244365416
35.785507369381726 4.476804720180622 17.345673056563683 13.963029592637412
29.49236490205152 3.728264144607281 13.995416177815391 11.768684579628866
23.81369390738289 3.050405038472053 11.023551662932576 9.73973720597825
18.838510600792663 2.4921947672118296 8.456565567965264 7.889750265615576
14.50816119023199 2.0479144688722526 6.258123028333058 6.202123693026678
10.709284274765134 1.6881116130609686 4.366156141087652 4.655016520616513
7.404007724537626 1.3935519824124478 2.7677721074881783 3.242683634636998
4.667917152693158 1.1409794531002728 1.5276461888276098 1.999291510765277
2.5437568934386694 0.8963730190319811 0.6352982353026227 1.012085639104066
1.2015321639359762 0.6629825728958948 0.17419885684991368 0.36435073419016784
0.552891010144118 0.4718080184761731 0.014249918014890606 0.06683307365305438
0.32455768089296105 0.3316188078779644 -0.004150888163292987 -0.0029102388217103316
0.23254923562061558 0.23616460566677003 -0.0008265019676558166 -0.002788868078498702
0.2011217661631354 0.20133792156062336 -2.3776242229719163e-05 -0.00019237915525819645
0.21228144611967315 0.21218277250575068 1.662850650504106e-05 8.204510741735799e-05
0.29434349146647587 0.23660483602932328 0.011175930306506944 0.0465627251306454
1.8365453005699193 1.1862000646749977 0.22514473923645636 0.425200496658466
1.174393829512773 0.8840743706086972 0.0902927891810289 0.20002666972304708
0.23415044847426655 0.23520607587318476 -0.0036117647533507272 0.002556137354432594
0.22856694543807923 0.22761451650937548 0.00012837098006910974 0.0008240579486346259
0.2183278969086332 0.21764397804259383 7.865820934071584e-05 0.0006052606566985636
0.23371866559129967 0.2360553934147792 -0.0006739223425101304 -0.0016628054809693772
0.29572969835757285 0.2988046680398764 -0.002111362530340913 -0.0009636071519625884
0.40274126754610384 0.37410431723260823 0.00330067791170765 0.025336272401787912
0.6165672070633368 0.45825969644467524 0.03929926990415107 0.1190082407145103
1.1373767542991167 0.5848266655896959 0.1789182491686632 0.3736318395407577
2.1173565381229604 0.7384083970974054 0.5197660107711726 0.8591821302543835
3.5558026380485317 0.9218766054426558 1.1062176433574704 1.5277083892484056
5.277267950661391 1.139090633446739 1.8245728337405152 2.3136044834741374
7.326889411538158 1.4144937026662778 2.7272894776489447 3.1851062312229366
9.71912922338367 1.7698709364916851 3.8033115570824667 4.145946729809515
12.522096687962197 2.2317843688750063 5.071480070286196 5.21883224880099
15.871041770040618 2.8348565627802507 6.592865706981832 6.443319500278534
19.861803971643027 3.5659541277237707 8.442645441135461 7.853204402783798
24.394203848259025 4.298700572880175 10.657651376163138 9.437851899215714
29.89941498864174 5.295830047855562 13.31620127488251 11.287383665903652
38.02006958004208 7.040049893366242 17.13101042686325 13.8490092598126
45.193174213287165 3.552511549273307 23.682824564230167 17.957838099783686
38.020069580020156 7.040049893343286 17.131010426863853 13.849009259813013
29.899414988645038 5.2958300478645315 13.316201274879115 11.287383665901398
24.39420384824301 4.298700572877057 10.657651376155561 9.437851899210397
19.861803971624397 3.565954127721979 8.442645441125732 7.8532044027766865
15.871041770031429 2.834856562783634 6.59286570697483 6.443319500272959
12.522096687939397 2.2317843688627597 5.071480070280423 5.218832248796218
9.719129223371617 1.7698709364881628 3.8033115570778686 4.145946729805585
7.326889411531296 1.4144937026698945 2.727289477643498 3.1851062312179015
5.277267950652463 1.139090633446129 1.824572833736362 2.313604483469973
3.5558026380389585 0.9218766054418541 1.1062176433532935 1.527708389243813
2.1173565381164816 0.7384083970962471 0.5197660107688014 0.8591821302514331
1.1373767542949431 0.5848266655881629 0.17891824916759708 0.37363183953918294
0.616567207062138 0.4582596964443881 0.03929926990385931 0.11900824071389086
0.40274126754508843 0.3741043172320401 0.0033006779115583315 0.025336272401489834
0.2957296983574421 0.29880466803921263 -0.002111362530255104 -0.0009636071515155254
0.23371866559074 0.23605539341414256 -0.0006739223425064686 -0.0016628054808960427
0.2183278969083426 0.21764397804213811 7.865820935638347e-05 0.0006052606568480957
0.22856694543803713 0.22761451650920125 0.0001283709800808368 0.0008240579487550321
0.2341504484739363 0.23520607587311054 -0.003611764753412231 0.002556137354238028
1.1743938295091567 0.8840743706069597 0.09029278918031873 0.20002666972187796
0.7256446011783784 0.6464633437329436 0.01804113319811297 0.061140124247321855
0.20256117120880027 0.21340389327895581 -0.0027927853985111216 -0.00804993667164451
0.23787301668143457 0.23821892722345145 -3.617115647144523e-05 -0.00030973938554542524
0.23499787664347382 0.2338264526011415 0.00015277006254926445 0.001018653979783118
0.2455220237208715 0.24594172465500327 -0.00038794012892339163 -3.1760805208426954e-05
0.2923795607620231 0.2925691079782143 -0.0012827021861283574 0.0010931549699373189
0.3682765946494662 0.33761687800087015 0.0056541746715833814 0.025005541977012984
0.4255651285630936 0.3331782430129062 0.02388534225450542 0.06850154329568205
0.48955307738216525 0.2882676634984499 0.06677307633540795 0.1345123375483077
0.6753554683348859 0.2824996150607783 0.14166003726343915 0.2511958160106692
1.102844772834143 0.30939629710460304 0.31524456373764836 0.4782039119918908
1.733138099183059 0.311240789030533 0.5790218929734234 0.8428754171791024
2.560065000083763 0.3318622573685115 0.9523858173316929 1.2758169253835583
3.5688479943964615 0.39675773004691806 1.4110197062427685 1.7610705581067772
4.78129834772526 0.5302701876345824 1.955201498038769 2.2958266620519066
6.195951858703792 0.7548692769601034 2.5687152129952104 2.872367368748477
7.859098475197627 1.0952913840908325 3.282232664554595 3.4815744265522004
9.725070866499564 1.5137203421694199 4.094536672695376 4.116813851634768
12.265385835736115 2.133711183741251 5.1767142588066015 4.9549603931882675
19.089568134535686 4.4906965617405765 7.46572182712335 7.133149745671761
31.91023709892046 3.949049232343704 15.178751504644065 12.782436361932687
19.089568134523304 4.490696561719333 7.465721827128348 7.13314974567562
12.265385835713282 2.133711183725223 5.176714258802887 4.954960393185172
9.725070866497386 1.5137203421745027 4.094536672691181 4.116813851631703
7.859098475169162 1.0952913840751894 3.282232664547757 3.4815744265462083
6.195951858686765 0.7548692769507459 2.5687152129914614 2.8723673687445572
4.78129834773163 0.5302701876444773 1.9552014980367547 2.295826662050396
3.5688479943923466 0.39675773004683995 1.4110197062407233 1.761070558104783
2.5600650000643492 0.33186225735889285 0.9523858173270787 1.275816925378379
1.7331380991776704 0.3112407890304833 0.5790218929709486 0.8428754171762392
1.1028447728286126 0.3093962971034806 0.3152445637357174 0.4782039119894133
0.675355468334539 0.28249961506020493 0.14166003726340745 0.251195816010927
0.48955307738267906 0.2882676634995761 0.06677307633514824 0.13451233754795416
0.42556512856273254 0.3331782430131941 0.023885342254282155 0.06850154329525651
0.36827659464905627 0.33761687800053264 0.005654174671513564 0.025005541977009986
0.2923795607615279 0.2925691079775661 -0.0012827021861042515 0.0010931549700660139
0.24552202372038615 0.2459417246544195 -0.0003879401289211688 -3.176080511213108e-05
0.23499787664314414 0.2338264526006441 0.00015277006256837725 0.0010186539799315244
0.23787301668107824 0.2382189272229811 -3.617115645280964e-05 -0.0003097393854500791
0.2025611712083473 0.21340389327820494 -0.002792785398461054 -0.00804993667139659
0.7256446011765415 0.646463343731914 0.018041133197831155 0.0611401242467965
0.45849595683978506 0.4562790793789462 0.0001353951111807473 0.0020814823496580967
0.18699755226228096 0.1879248754774653 -9.840652807850664e-05 -0.0008289166871058724
0.2405381358862217 0.2401354556346723 9.265552867492952e-06 0.00039341469868197347
0.2489387088080472 0.24755548936018001 0.00017505504406806362 0.0012081644037991038
0.263780158532385 0.2625403562205569 -0.00013503641013483172 0.0013748387219629304
0.31512829657737307 0.31097806299609376 -0.0007964682522993344 0.004946701833578619
0.41767277325416086 0.3814798508783928 0.006260883397402979 0.029932038978365143
0.6258516130628654 0.46060683491496957 0.04205179544524173 0.12319298270265386
1.1404572524688845 0.5848338461239877 0.1801902764993446 0.37543312984555227
2.116978080418396 0.7380979979817667 0.5196490590201632 0.8592310234164658
3.563188865817426 0.924202773943017 1.1091200391219875 1.5298660527524226
5.306750723211651 1.1438825781061552 1.8383610122319123 2.324507132873583
7.380241095694847 1.420641379575756 2.7517888918985 3.2078108242205916
9.746455474104245 1.764177628050498 3.822352646494763 4.159925199558985
12.309002644523922 2.175220519019428 4.989290048651763 5.144492076852725
14.90899005479781 2.6524673763254167 6.16874665874663 6.087776019725769
17.223388641958604 3.1726677439020587 7.185241530897244 6.8654793671592955
19.06440872260709 3.790204926219542 7.931508145903327 7.342695650484229
19.692428943457102 4.219731853023889 8.095957186807306 7.376739903625904
16.173297421887614 3.173103938434764 6.942781409387026 6.057412074065824
32.33006034113495 5.88285516499781 14.111527752495991 12.335677423641144
16.173297421901538 3.1731039384445694 6.942781409389495 6.057412074067478
19.69242894344251 4.219731853017011 8.095957186802899 7.376739903622605
19.064408722591203 3.7902049262129784 7.931508145897899 7.342695650480314
17.223388641939 3.1726677439045834 7.18524153088468 6.865479367149743
14.908990054784404 2.6524673763279667 6.168746658737787 6.087776019718639
12.309002644500607 2.1752205190088336 4.989290048644876 5.144492076846905
9.74645547408239 1.7641776280440082 3.8223526464864634 4.159925199551921
7.380241095685519 1.4206413795838686 2.751788891889488 3.207810824212161
5.3067507231959405 1.1438825781044173 1.8383610122249243 2.324507132866601
3.5631888658065987 0.924202773942947 1.1091200391167793 1.529866052746872
2.1169780804085714 0.7380979979793383 0.5196490590169036 0.8592310234123302
1.1404572524659766 0.5848338461229319 0.18019027649863922 0.37543312984440563
0.6258516130611084 0.4606068349141958 0.042051795444862525 0.12319298270205001
0.4176727732531468 0.38147985087778036 0.006260883397268308 0.029932038978097795
0.315128296576603 0.31097806299512887 -0.000796468252299182 0.004946701833773318
0.26378015853199566 0.26254035622006955 -0.00013503641013173928 0.001374838722057877
0.24893870880773336 0.24755548935968208 0.00017505504408557872 0.001208164403965884
0.2405381358859404 0.24013545563430694 9.265552869043444e-06 0.00039341469876416125
0.18699755226200215 0.18792487547721687 -9.84065280819459e-05 -0.0008289166871327268
0.45849595683879485 0.4562790793777592 0.00013539511119360577 0.0020814823498419744
0.2948562446095059 0.2949298611366544 -5.074825948644306e-06 -6.854170119983136e-05
0.1726170596054669 0.1727524344534824 -1.1730363480213817e-05 -0.00012364448453534567
0.2368368321710871 0.2375141013244747 -0.0001202850985760944 -0.0005569840548115324
0.2586089934877014 0.2571438201221995 0.000127314164508446 0.0013378592009934602
0.2866573295404956 0.28747758621968894 -0.0004683702027492179 -0.00035188647644396115
0.36389991735696353 0.35726938737205505 -0.0002673696961683368 0.006897899681076474
0.5759624177732876 0.47357698585464797 0.02000137694262088 0.0823840549760187
1.2126984660326268 0.6637840460710531 0.17865807719031024 0.3702563427712635
2.544497634005544 0.8959549406756165 0.6357692880553222 1.012773405274605
4.6674857812164205 1.141083216325181 1.5272258002607264 1.9991767646305116
7.412281725548166 1.395152790328233 2.771109852135456 3.2460190830844757
10.735947415624114 1.6917689339565865 4.378566200412887 4.665612281254637
14.55010930112345 2.049733350316542 6.280655273225695 6.219720677581218
18.833550314649848 2.474819699627058 8.464286305879469 7.894444309143309
23.54018567075591 2.9709481930601784 10.911876659732453 9.657360817963271
28.444995808471738 3.5265235034070113 13.494993679910067 11.423478625154644
33.15383108103521 4.151052942795481 15.953747567821235 13.049030570418505
37.099323996802205 4.860396204860606 17.896015010715832 14.342912781225756
39.01574394110206 5.227846596316009 18.86192407860518 14.925973266180883
36.40192752892966 5.120651802817574 17.441139932205914 13.840135793906162
44.95426574022882 10.533831492486659 19.185218816755526 15.23521543098663
36.40192752896002 5.120651802840898 17.441139932210344 13.840135793908782
39.01574394110723 5.227846596329042 18.86192407860035 14.925973266177834
37.09932399677356 4.860396204848449 17.89601501070571 14.34291278121942
33.1538310810164 4.151052942808044 15.95374756780224 13.049030570406105
28.44499580844885 3.5265235034098876 13.494993679894753 11.42347862514421
23.54018567072834 2.9709481930577457 10.911876659717734 9.657360817952855
18.833550314628685 2.4748196996315355 8.464286305864853 7.894444309132296
14.550109301096978 2.049733350315833 6.28065527321131 6.21972067756983
10.735947415595357 1.691768933952246 4.378566200399651 4.665612281243462
7.412281725522974 1.3951527903236216 2.7711098521247983 3.2460190830745566
4.667485781202323 1.1410832163256444 1.5272258002535362 1.9991767646231438
2.544497633995639 0.8959549406725854 0.6357692880522 1.0127734052708546
1.2126984660273195 0.6637840460702104 0.17865807718852872 0.37025634276858077
0.5759624177711191 0.4735769858540268 0.020001376942103653 0.08238405497498907
0.36389991735606186 0.35726938737121955 -0.000267369696202089 0.0068978996810443215
0.2866573295399884 0.28747758621883956 -0.00046837020270025607 -0.00035188647615103596
0.25860899348736466 0.25714382012168935 0.00012731416452337754 0.0013378592011520254
0.23683683217104468 0.23751410132425052 -0.00012028509855923241 -0.0005569840546466273
0.17261705960524598 0.17275243445332208 -1.1730363484932797e-05 -0.00012364448459114362
0.29485624460862914 0.2949298611357848 -5.074825949206164e-06 -6.854170120644613e-05
0.18337337077491725 0.18337337077491725 0.0 0.0
0.1536136457186552 0.15361020611512932 6.930878470774438e-07 2.74651567886476e-06
0.2264624662792895 0.2272182383258366 -0.00011025292907890276 -0.0006455191174681768
0.2645137497649531 0.26501152206816936 -0.00016024717176307972 -0.00033752513145321526
0.3134777379329008 0.31276484845862057 -0.0004440764142499713 0.0011569658885302128
0.4427521533861051 0.41314824791164734 0.0022638091407179263 0.027340096333740068
0.8967591101769266 0.6088625358820688 0.08393749298971998 0.20395908130513773
2.0772892824417317 0.8782997244806484 0.43936386572757363 0.7596256922335098
4.3066771680877665 1.1857886955171062 1.3234870054694383 1.7974014671012182
7.657375454142674 1.488200748138099 2.885430457821869 3.283744248182706
11.80496698339945 1.7924157707019481 4.908458520301795 5.104092692395703
16.77870600787911 2.1462692397685226 7.476111051100116 7.1563257170104775
22.50447372472 2.570284724398637 10.533246686948404 9.400942313372953
28.951139593989108 3.0711725962354492 14.047164414524845 11.832802583228817
36.10085523357821 3.6416954690045884 18.033911351983896 14.42524841258972
43.63389229011699 4.2660896593068145 22.274839940258246 17.092962690551918
51.199889629850986 4.9344586728134985 26.613934412074506 19.651496544962974
57.50065931748417 5.473230246266585 30.232314771222807 21.795114299994793
60.6340629262989 5.64501421217009 32.11891194081862 22.870136773310183
56.75747087493458 5.0614740201397375 30.04643545208692 21.649561402707903
63.467842644668366 13.60684223345856 28.847421610765707 21.0135788004441
56.75747087494133 5.061474020137535 30.046435452092588 21.649561402711186
60.6340629262921 5.645014212173117 32.118911940812424 22.870136773306605
57.500659317437865 5.473230246250175 30.232314771203768 21.79511429998393
51.1998896298048 4.934458672807886 26.613934412049055 19.65149654494786
43.6338922900573 4.266089659286854 22.274839940233612 17.092962690536826
36.100855233529984 3.641695468996242 18.03391135195961 14.425248412574138
28.951139593945058 3.0711725962279957 14.047164414502952 11.832802583214109
22.504473724678668 2.570284724394171 10.533246686926885 9.40094231335763
16.77870600784211 2.1462692397672116 7.476111051079842 7.15632571699504
11.804966983368226 1.792415770702616 4.908458520284378 5.104092692381239
7.657375454118283 1.4882007481349635 2.8854304578107426 3.2837442481725754
4.306677168072049 1.185788695515191 1.3234870054627086 1.7974014670941476
2.0772892824340876 0.8782997244805396 0.4393638657243284 0.7596256922292195
0.8967591101729009 0.6088625358809985 0.08393749298863522 0.2039590813032671
0.4427521533844304 0.4131482479106857 0.002263809140492559 0.027340096333252222
0.3134777379323452 0.3127648484577866 -0.00044407641420778966 0.0011569658887665426
0.26451374976482545 0.26501152206787065 -0.00016024717174071637 -0.00033752513130457976
0.22646246627933125 0.22721823832594631 -0.00011025292908670601 -0.0006455191175283934
0.1536136457183611 0.1536102061148164 6.930878486701044e-07 2.7465156960667e-06
0.18337337077421004 0.18337337077421004 0.0 0.0
0.10769656783571621 0.10769656783571621 0.0 0.0
0.12982422448744863 0.12981999841372122 2.3276924337965782e-07 3.99330448403657e-06
0.2102478169470097 0.21065526672393597 -5.410423456487858e-05 -0.0003533455423613917
0.2668639277844855 0.26733270338982296 -0.00021842129996511986 -0.0002503543053725091
0.34531271108584977 0.3464458150378924 -0.0012579862857190803 0.00012488233367656445
0.5836969464330838 0.5001940081691545 0.019086109844084955 0.06441682841984446
1.3617720219357525 0.756342647239397 0.20151134950845206 0.40391802518790343
3.1755740852312386 1.100223696436258 0.8330471440675206 1.242303244727459
6.400177554998444 1.4665740214543896 2.257362019683391 2.6762415138606626
10.791061318366998 1.8108889830296984 4.3340858215304205 4.646086513806882
16.494184392449423 2.1809974826436376 7.2986141515807965 7.014572758224995
23.22502036221394 2.603886696768039 10.935009338349705 9.686124327096195
30.96225739509724 3.104292947267965 15.233407661276688 12.624556786552624
39.72795106874293 3.691754333303214 20.214680625998156 15.821516109441534
49.44708506778453 4.352086413929241 25.83600406452651 19.25899458932877
59.98878394798234 5.051863644162089 32.09350880720706 22.843411496613196
70.19474007684464 5.661979493848764 38.1845352333191 26.34822534967681
78.90810767305756 5.974615819063022 43.6687520560533 29.264739797941207
82.90780204102633 5.667373300964226 46.51170285576702 30.728725884295102
78.01349375397554 5.1318683680376 43.66744670234562 29.214178683592337
84.3852654971362 16.6903030993993 40.247201956623826 27.447760441113054
78.01349375395165 5.131868368014636 43.66744670234516 29.2141786835919
82.90780204100848 5.667373300963972 46.511702855755416 30.728725884289055
78.90810767303628 5.974615819080571 43.66875205602804 29.264739797927664
70.19474007679219 5.6619794938484596 38.18453523328544 26.348225349658296
59.98878394793226 5.05186364416541 32.09350880717308 22.843411496593784
49.447085067729574 4.352086413928248 25.836004064492787 19.258994589308514
39.727951068685584 3.691754333298043 20.214680625966103 15.821516109421431
30.962257395044123 3.1042929472636853 15.233407661247291 12.624556786533145
23.225020362168415 2.6038866967672107 10.935009338323665 9.68612432707755
16.494184392410784 2.1809974826444787 7.298614151558593 7.014572758207714
10.791061318333657 1.8108889830258545 4.334085821514557 4.6460865137932466
6.40017755497731 1.4665740214523597 2.2573620196735567 2.6762415138513957
3.175574085218756 1.1002236964340588 0.8330471440627332 1.2423032447219629
1.3617720219296023 0.7563426472377655 0.20151134950660085 0.403918025185236
0.5836969464312813 0.5001940081684482 0.01908610984373319 0.0644168284190999
0.3453127110852808 0.346445815037077 -0.0012579862856777146 0.0001248823338815038
0.2668639277844018 0.26733270338947024 -0.00021842129994130248 -0.00025035430512739763
0.21024781694685052 0.21065526672381318 -5.4104234569006745e-05 -0.00035334554239368023
0.12982422448715028 0.1298199984134229 2.3276924336996675e-07 3.9933044839934034e-06
0.10769656783540016 0.10769656783540016 0.0 0.0
0.05944926927862752 0.05944926927862752 0.0 0.0
0.10360011234411166 0.10360011234411166 0.0 0.0
0.1893815844877489 0.1894777592222457 -1.1985397583788925e-05 -8.418933691299767e-05
0.2668650980552126 0.2688921849109352 -0.00039722500885185677 -0.0016298618468708443
0.38858506713130214 0.38289120982926117 -0.0010870293980357758 0.006780886700076674
0.7946929967353141 0.6006153541874957 0.055049447492175205 0.13902819505564315
1.9712208709734778 0.9202471435414715 0.38473011956706804 0.6662436078649389
4.514902379216344 1.323319289709414 1.3905832241358573 1.8009998653710722
8.528091225740843 1.7254936396224783 3.1777339186523355 3.6248636674660313
14.251704463594308 2.141791971041367 6.063766241593294 6.04614625095964
21.42954084989914 2.5889839173104154 9.896224804572984 8.944332128015748
29.973085780081846 3.0927255747848603 14.646620274129257 12.233739931167744
39.83313858889995 3.6777805828269505 20.288982208577945 15.86637579749504
51.05811292339067 4.362259700996866 26.865265329118046 19.830587893275762
63.510428642752196 5.136748043754091 34.26497541654832 24.10870518244978
76.85474717195012 5.882689401295586 42.36943619505131 28.602621575603255
90.2126473829775 6.389427190116606 50.8202250200206 33.00299517284026
100.9069371338647 6.330614226146089 57.90025327403218 36.67606963368642
105.43628034561159 5.608117870818116 61.352997788668816 38.475164686124664
100.09706273956687 5.373922748138732 58.01581248241983 36.70732750900828
107.21924082046249 19.784351151518816 53.200148493210264 34.23474117573345
100.09706273955679 5.373922748138655 58.01581248241324 36.70732750900489
105.43628034556843 5.6081178708049535 61.352997788648764 38.475164686114695
100.90693713381208 6.330614226139554 57.90025327400163 36.67606963367093
90.21264738289979 6.389427190106581 50.82022501997613 33.0029951728171
76.85474717186624 5.882689401279573 42.369436195007104 28.60262157557955
63.51042864267561 5.136748043746249 34.26497541650439 24.108705182424963
51.05811292331787 4.362259700992571 26.86526532907507 19.830587893250232
39.8331385888348 3.6777805828223946 20.288982208540766 15.866375797471648
29.973085780018536 3.0927255747767135 14.646620274096199 12.23373993114561
21.429540849844 2.5889839173057494 9.896224804543746 8.944332127994507
14.251704463556077 2.1417919710397615 6.063766241572971 6.04614625094335
8.528091225714173 1.7254936396196034 3.177733918640042 3.6248636674545245
4.514902379199095 1.3233192897070547 1.390583224128527 1.8009998653635133
1.9712208709647028 0.9202471435396855 0.38473011956407627 0.6662436078609417
0.7946929967322667 0.6006153541859068 0.05504944749163613 0.13902819505472358
0.38858506713081564 0.38289120982865754 -0.0010870293980366726 0.006780886700194788
0.266865098055183 0.2688921849108524 -0.00039722500884492254 -0.0016298618468246308
0.18938158448709586 0.18947775922161486 -1.1985397585756755e-05 -8.418933693325008e-05
0.10360011234410622 0.10360011234410622 0.0 0.0
0.059449269278528054 0.059449269278528054 0.0 0.0
0.030746711643958695 0.030746711643958695 0.0 0.0
0.07807985569221317 0.07807985569221317 0.0 0.0
0.16631040109725895 0.16630358433359102 3.960330448053176e-07 6.420730623111643e-06
0.26726781657950116 0.2691662507954893 -0.00040443860960313996 -0.0014939956063850302
0.4590089313562438 0.43919915480498456 0.002889121017902038 0.016920655533357337
1.0773265768304832 0.7025994207635059 0.11456207630745402 0.26016507975952274
2.7473198254436406 1.0911827572824264 0.6677664044352417 0.9883706637259715
5.897620584444453 1.525794363920806 1.941417314712825 2.430408905810821
10.922709503601425 1.9884317871956547 4.323937605560694 4.6103401108450734
17.84346305623633 2.4869441340778113 7.894024826599172 7.462494095559354
26.57715660222301 3.025234878366324 12.665874427243251 10.886047296613429
37.01300342810892 3.621645511926129 18.600421326441356 14.790936589741431
49.11603093380426 4.303248305928149 25.691970435959103 19.120812191917018
62.709071978348454 5.090954058040923 33.7666729614455 23.851444958862068
78.00214963101953 5.9614939771488 43.087924337330115 28.952731316540593
94.40782924285988 6.764710331336882 53.3238942272623 34.319224684260675
110.35623543348873 7.11273501745329 63.64727389567907 39.596226520356346
123.14315168089097 6.6291886664030395 72.54378654775493 43.97017646673304
128.72944411217134 5.586936876848333 77.01959365238983 46.12291358293317
123.22535079769352 5.687171510935937 73.24495110596153 44.29322818079605
131.4966689588075 22.855095284824934 67.24821456343405 41.39335911054852
123.22535079766979 5.687171510927509 73.24495110595107 44.293228180791125
128.72944411214672 5.586936876862596 77.01959365236365 46.122913582920496
123.14315168081751 6.6291886663902035 72.54378654771406 43.970176466713156
110.35623543342142 7.1127350174670045 63.64727389562495 39.5962265203295
94.40782924278204 6.764710331343191 53.3238942272068 34.31922468423207
78.00214963093968 5.961493977151014 43.087924337276775 28.9527313165119
62.709071978272405 5.090954058044925 33.76667296139426 23.85144495883321
49.116030933721724 4.303248305921633 25.691970435911568 19.120812191888522
37.013003428034224 3.6216455119199167 18.600421326399633 14.790936589714665
26.577156602165633 3.0252348783687535 12.665874427207934 10.886047296588938
17.8434630561884 2.4869441340744913 7.89402482657384 7.4624940955400785
10.922709503568498 1.9884317871933503 4.323937605544375 4.6103401108307684
5.897620584424172 1.5257943639186007 1.9414173147037868 2.430408905801784
2.747319825432598 1.0911827572800301 0.6677664044312702 0.9883706637212951
1.077326576825792 0.7025994207613884 0.11456207630644064 0.2601650797579624
0.4590089313549355 0.43919915480417354 0.0028891210177456115 0.016920655533016162
0.2672678165795119 0.2691662507954095 -0.0004044386095947048 -0.001493995606302895
0.16631040109690995 0.1663035843332429 3.960330447626668e-07 6.4207306222634735e-06
0.07807985569205025 0.07807985569205025 0.0 0.0
0.030746711643850035 0.030746711643850035 0.0 0.0
0.015053900247008268 0.015053900247008268 0.0 0.0
0.05588117524349741 0.05588117524349741 0.0 0.0
0.14404164142070677 0.14403913909603508 1.22441077168008e-07 2.379883594554421e-06
0.272553343811766 0.27509682330171414 -0.0005584878545802154 -0.00198499163536809
0.5647622510279977 0.5056860029083876 0.013894169709527017 0.045182078410083315
1.4665326683582867 0.8305809402811801 0.22180728326105903 0.41414444481604684
3.5959427152216894 1.2488811757376146 0.9712554174670369 1.3758061220170386
7.44558065315233 1.7180269553228333 2.6308110093403148 3.0967426884891807
13.407727661869181 2.25753171092495 5.5348079890433315 5.6153879619008995
21.58387921110066 2.849571250405873 9.843961685458751 8.89034627523603
31.89123870152933 3.4901831744729614 15.56727060503978 12.833784922016603
44.28574233423431 4.197411585664795 22.734055151849716 17.3542755967198
58.5590490465004 4.985260786973174 31.18860647980045 22.385181779726818
74.8968766356574 5.867043971865068 41.15371880165411 27.876113862138194
92.85232069126668 6.818526601239411 52.24995103561744 33.78384305440985
111.96470805562602 7.6438033286781675 64.35115967843629 39.96974504851155
130.73071133330464 7.852313761690826 76.83606320691656 46.04233436469726
145.7370357654369 6.979973066874981 87.61420724043145 51.142855458130484
152.73895784674818 5.620779074941838 93.31394022398517 53.804238547821214
147.7252654570955 6.005793076329077 89.64708245595138 52.07238992481506
157.79535761952133 25.862775406407245 82.98078408987207 48.951798123241936
147.72526545707046 6.005793076324696 89.64708245593718 52.07238992480862
152.7389578466763 5.620779074920725 93.31394022395047 53.804238547805056
145.73703576536371 6.979973066876453 87.61420724038038 51.142855458106965
130.73071133321938 7.852313761696751 76.83606320685489 46.04233436466771
111.96470805552514 7.643803328672661 64.35115967837257 39.96974504847985
92.8523206911636 6.818526601231093 52.249951035554965 33.78384305437757
74.89687663555054 5.867043971850671 41.15371880159427 27.876113862105623
58.55904904640779 4.985260786974082 31.188606479741093 22.385181779692598
44.2857423341555 4.197411585663464 22.73405515180179 17.354275596690243
31.891238701457013 3.4901831744675462 15.56727060499963 12.833784921989848
21.58387921104858 2.8495712504043573 9.84396168542947 8.890346275214744
13.407727661830426 2.2575317109223403 5.534807989023497 5.615387961884595
7.445580653126784 1.7180269553196696 2.6308110093291 3.096742688478018
3.59594271520719 1.2488811757344689 0.9712554174616661 1.3758061220110531
1.4665326683519975 0.8305809402793348 0.2218072832592213 0.4141444448134408
0.564762251026668 0.5056860029077116 0.013894169709303471 0.04518207840965298
0.2725533438115125 0.27509682330126595 -0.0005584878545662719 -0.001984991635187153
0.14404164142050277 0.14403913909583424 1.2244107697319608e-07 2.3798835915387224e-06
0.055881175243321084 0.055881175243321084 0.0 0.0
0.015053900246962829 0.015053900246962829 0.0 0.0
0.00725739900345931 0.00725739900345931 0.0 0.0
0.0386916769405251 0.0386916769405251 0.0 0.0
0.1259040655040854 0.1259040655040854 0.0 0.0
0.2903562086100149 0.29409917597868873 -0.0009681531057938689 -0.0027748142628798316
0.716906300592367 0.5838741638111977 0.03526939961598417 0.09776273716518541
1.9510372393937696 0.9596191506598442 0.3743278438719657 0.6170902448619602
4.528234900957622 1.3867045636769437 1.33391831098547 1.8076120262952062
9.091510395648944 1.9115723993105436 3.3918587093572645 3.788079286981139
15.983204545186302 2.5315840372520353 6.818621012997193 6.632999494937072
25.426193331680295 3.2282875071395094 11.874097473317565 10.32380835122323
37.38584255197122 3.9885333485914822 18.613967452026166 14.78334175135355
51.72520917129732 4.816629636959407 26.988198020817546 19.9203815135204
68.48891567646112 5.729226685366621 37.10860613010236 25.651082860992098
87.22118761445836 6.709227991152451 48.59799466291271 31.91396496039322
107.91698638006548 7.670478957993369 61.647104445532 38.599402976540105
129.7369952293851 8.442023643665452 75.76717561464224 45.52779597107731
151.0722707776982 8.618239046332045 90.13314021501591 52.32089151635022
168.54832001717133 7.528605556537991 102.8626892768074 58.15702518382599
177.52284837606015 5.66653006129912 110.37322076094824 61.48309755381276
173.91253281926765 6.279412324545747 107.46754829804006 60.165572196681644
186.37722341981535 28.70488311947575 100.5633705239619 57.10896977637776
173.91253281921212 6.279412324521572 107.46754829801823 60.165572196672294
177.52284837600922 5.6665300613112395 110.37322076090476 61.483097553793264
168.54832001707518 7.528605556533017 102.86268927674476 58.15702518379739
151.0722707776045 8.618239046339507 90.13314021494676 52.32089151631825
129.73699522925708 8.442023643651721 75.76717561456519 45.52779597104021
107.91698637994644 7.670478957986577 61.64710444545719 38.599402976502674
87.22118761434527 6.709227991149106 48.59799466284082 31.913964960355386
68.48891567636232 5.729226685371827 37.10860613003543 25.651082860955064
51.72520917119762 4.816629636949875 26.988198020760926 19.920381513486824
37.38584255189015 3.9885333485853702 18.613967451980525 14.783341751324256
25.426193331614353 3.2282875071299157 11.874097473284486 10.323808351199954
15.98320454514207 2.5315840372493423 6.818621012973995 6.632999494918729
9.09151039562024 1.9115723993076508 3.3918587093437655 3.7880792869688222
4.528234900940927 1.386704563675503 1.333918310978376 1.8076120262870476
1.951037239385768 0.9596191506573988 0.37432784386959117 0.6170902448587782
0.7169063005898463 0.5838741638097101 0.0352693996155999 0.09776273716453658
0.2903562086096565 0.29409917597821555 -0.0009681531057745317 -0.0027748142627847076
0.1259040655038213 0.1259040655038213 0.0 0.0
0.038691676940466505 0.038691676940466505 0.0 0.0
0.0072573990034391755 0.0072573990034391755 0.0 0.0
0.0034467363788850233 0.0034467363788850233 0.0 0.0
0.026929884117678698 0.026929884117678698 0.0 0.0
0.11654342203563825 0.11654342203563825 0.0 0.0
0.33304760452090176 0.3327652002889251 -0.0007434164603510021 0.0010258206923273666
0.9417606301083437 0.6840472356534923 0.08169522383254774 0.1760181706223036
2.497317144298646 1.075084216373975 0.5541931495118275 0.8680397784128432
5.571826625942836 1.5244198064866306 1.7819931041359518 2.2654137153202534
10.798362805466349 2.102247438244359 4.199400997628157 4.496714369593831
18.64652023078272 2.8097045570872363 8.179919111244015 7.656896562451468
29.35259855409811 3.6240407406858477 13.971652508015227 11.756905305397039
42.97239756377671 4.515770682683833 21.724438468667596 16.732188412425256
59.46787964475671 5.48697864437285 31.49609111674063 22.484809883643216
78.4429207665966 6.534379981809408 42.983464562413005 28.925076222374212
99.94808344722182 7.596175876671257 56.40493002954574 35.946977541004806
123.32465566780604 8.549916589012705 71.37195901270555 43.40278006608783
147.5816275422467 9.17029357346309 87.37925572659044 51.032078242193094
171.1137351574676 9.209703616267603 103.49716638428359 58.406865156916396
191.22901754553956 8.331204677896057 118.04205376688282 64.85575910076064
202.77851469328937 5.861584600590636 127.81368629259718 69.10324380010161
202.07267351534577 6.301547695141458 127.04090327897624 68.73022254122793
217.8211338568991 30.593675032423803 121.05056384936736 66.17689497510796
202.07267351533832 6.301547695170061 127.04090327895159 68.73022254121668
202.77851469320763 5.861584600579853 127.81368629254786 69.10324380007988
191.22901754544375 8.331204677907337 118.04205376680854 64.85575910072791
171.1137351573316 9.209703616251547 103.49716638420078 58.40686515687915
147.58162754212412 9.170293573471852 87.3792557265011 51.03207824215124
123.32465566767345 8.549916589009916 71.37195901261828 43.402780066045224
99.94808344709685 7.596175876671421 56.40493002946275 35.94697754096264
78.44292076647366 6.53437998180125 42.98346456233844 28.92507622233394
59.467879644647866 5.486978644369388 31.49609111667366 22.484809883604818
42.97239756368247 4.51577068267556 21.724438468614476 16.73218841239244
29.35259855402595 3.6240407406790425 13.971652507976321 11.7569053053706
18.64652023073169 2.8097045570846526 8.179919111216496 7.656896562430533
10.798362805432113 2.102247438240152 4.199400997612139 4.496714369579822
5.571826625923779 1.524419806485471 1.7819931041272132 2.2654137153110954
2.4973171442888686 1.0750842163711456 0.5541931495087223 0.8680397784090012
0.9417606301049584 0.684047235651685 0.08169522383193961 0.1760181706213336
0.33304760452022647 0.3327652002882601 -0.0007434164603664496 0.0010258206923330778
0.11654342203551223 0.11654342203551223 0.0 0.0
0.0269298841176535 0.0269298841176535 0.0 0.0
0.0034467363788705553 0.0034467363788705553 0.0 0.0
0.001123255888153596 0.001123255888153596 0.0 0.0
0.019923909686637674 0.019923909686637674 0.0 0.0
0.12369003758294371 0.12369003758294371 0.0 0.0
0.4220536551075186 0.403008048848134 0.0036041078141566558 0.015441498445228134
1.2611579563969686 0.8486026130884633 0.1435147793687303 0.2690405639397755
3.1880646784936655 1.3635471316741745 0.7368853837316481 1.0876321630878412
6.794781742779542 2.002761223798339 2.157363615359786 2.6346569036214142
12.777098686543773 2.8778106884841286 4.855291870591215 5.043996127468435
21.69776801992919 4.0388721362796 9.223124999954647 8.435770883694952
33.95250951264862 5.5002274397640765 15.611235873113399 12.841046199771126
49.6332520724023 7.248821786916369 24.181105868602664 18.2033244168833
68.50571747906409 9.256698406739455 34.82477911709436 24.42423995523026
90.4830253359748 11.46110398493654 47.62872247367251 31.393198877365762
115.13718996324523 13.736472849824999 62.41557836059881 38.98513875282146
141.61873380706578 15.74721732050666 78.86644679028382 47.00506969627521
168.47684918217521 16.9959145463164 96.34653814125325 55.13439649460558
193.61829732600216 17.024648868901735 113.67212314174478 62.92152531535562
214.80368179799154 15.909392614442881 129.1959128938859 69.69837628966289
229.29886123837332 14.220944929533545 140.53056780371213 74.54734850512769
225.00345951392723 6.477389391932023 142.8969460193224 75.62912410267288
306.71910246973175 92.30730876259966 140.12253503029564 74.28925867683647
225.00345951385566 6.477389391892558 142.89694601929943 75.62912410266362
229.29886123827384 14.220944929514173 140.53056780365537 74.54734850510422
214.8036817978753 15.909392614445935 129.19591289380327 69.69837628962617
193.61829732588257 17.0246488689221 113.67212314164804 62.92152531531252
168.47684918202785 16.995914546308487 96.34653814115681 55.13439649456238
141.61873380690997 15.747217320492902 78.86644679018771 47.00506969622946
115.13718996309713 13.736472849813348 62.41557836050789 38.98513875277594
90.48302533583589 11.46110398492222 47.62872247359077 31.393198877322938
68.50571747894271 9.256698406733275 34.824779117020654 24.42423995518876
49.633252072303485 7.248821786913736 24.181105868542673 18.203324416847067
33.95250951256859 5.500227439754105 15.611235873071127 12.841046199743353
21.697768019872 4.038872136275686 9.223124999923963 8.435770883672369
12.777098686507527 2.877810688483585 4.85529187057184 5.043996127452102
6.794781742756935 2.002761223795331 2.1573636153500044 2.6346569036115994
3.188064678482029 1.3635471316713175 0.7368853837278215 1.08763216308289
1.2611579563922315 0.848602613085707 0.14351477936793042 0.2690405639385939
0.4220536551064781 0.4030080488473327 0.003604107814089881 0.015441498445054953
0.12369003758268309 0.12369003758268309 0.0 0.0
0.01992390968660252 0.01992390968660252 0.0 0.0
0.0011232558881732616 0.0011232558881732616 0.0 0.0
CELL_DATA 800
SCALARS Stress float 6
LOOKUP_TABLE default
171.66349920565244 -524.9859811066683 -181.97330789503954 -110.88368662066468 0.0 0.0
404.57383145251913 -85.52682894303015 115.64318180940064 54.33530000189968 0.0 0.0
421.72968546200116 7.648533803724667 128.97059509293115 -2.605407099344334 0.0 0.0
480.76594637607025 -17.122209091898217 152.55669966982242 -15.809469112827705 0.0 0.0
559.2934986120558 -23.967812737044348 214.65311487706913 -11.684437417533212 0.0 0.0
635.1599127484465 -20.60925555150007 285.9814904016456 -10.485065495101159 0.0 0.0
708.4979797500145 -15.155463766508603 339.10552003786165 -11.50001929382551 0.0 0.0
783.1484633377031 -1.2613195636129717 387.01232390787607 -13.528950987761029 0.0 0.0
861.25029671067 21.64278475584635 438.5215133444183 -15.436203495902184 0.0 0.0
942.0190151444585 52.11580714887552 494.66311322898775 -16.62903142666311 0.0 0.0
1023.2962020526628 87.47920214268049 553.3628930577015 -17.095978294990875 0.0 0.0
1103.6531807646804 126.34987030684314 613.2577758645743 -17.077631139078758 0.0 0.0
1183.2825588519124 167.83005855224647 674.0106982130549 -16.897836394809673 0.0 0.0
1263.0291709650637 212.49105731958983 736.3524357756689 -16.56433817299419 0.0 0.0
1343.3599037463423 260.80672015340883 800.7767023785912 -15.92480565051241 0.0 0.0
1423.4074814665987 312.0397695900861 866.49815949889 -14.780871933528847 0.0 0.0
1500.7032433170907 364.1579817415415 931.2744832098738 -13.040130289131465 0.0 0.0
1573.0308390723878 415.5366666286745 993.1701446271055 -11.105687653995613 0.0 0.0
1641.087937388156 467.7235061879977 1053.2470207625074 -10.916743254803162 0.0 0.0
1746.659611937805 564.5958634510569 1153.9792176077285 -18.255122727927187 0.0 0.0
1746.6596119361584 564.595863449425 1153.9792176065632 18.25512272798964 0.0 0.0
1641.0879373861283 467.72350618600603 1053.247020760894 10.916743254829582 0.0 0.0
1573.030839069048 415.53666662540894 993.1701446244969 11.105687654189035 0.0 0.0
1500.7032433152126 364.1579817397627 931.2744832082741 13.040130289243791 0.0 0.0
1423.4074814657981 312.0397695894319 866.4981594979953 14.780871933557234 0.0 0.0
1343.3599037453523 260.8067201525672 800.7767023777286 15.924805650413095 0.0 0.0
1263.0291709644189 212.4910573191131 736.3524357751455 16.56433817297783 0.0 0.0
1183.2825588511614 167.83005855170086 674.0106982125216 16.897836394920912 0.0 0.0
1103.6531807648312 126.34987030724386 613.2577758646446 17.077631139245483 0.0 0.0
1023.2962020526038 87.47920214286677 553.3628930575903 17.095978294970188 0.0 0.0
942.0190151440728 52.11580714876675 494.6631132287308 16.629031426800374 0.0 0.0
861.2502967103018 21.642784755745964 438.52151334418414 15.43620349576438 0.0 0.0
783.1484633373219 -1.2613195637190984 387.01232390762203 13.528950987760686 0.0 0.0
708.4979797496899 -15.155463766549758 339.10552003764514 11.500019293707348 0.0 0.0
635.1599127481892 -20.60925555146361 285.9814904014119 10.485065495178027 0.0 0.0
559.2934986122593 -23.967812736479534 214.65311487711296 11.684437417621766 0.0 0.0
480.76594637589596 -17.122209091769477 152.55669966974648 15.809469112787864 0.0 0.0
421.7296854619882 7.648533804031596 128.97059509301883 2.6054070992448866 0.0 0.0
404.5738314524974 -85.5268289430248 115.64318180935336 -54.33530000180665 0.0 0.0
171.66349920614726 -524.9859811061792 -181.9733078945361 110.88368662029137 0.0 0.0
70.87445231012109 -551.092141173877 -243.54950740899116 -161.67644908610015 0.0 0.0
281.89873834547393 -79.99444143865517 60.98034564246031 8.143399859146774 0.0 0.0
370.70030416905763 34.667033856173845 121.62738751432677 -9.571173104698442 0.0 0.0
446.0229017723412 -15.663944163030822 135.10939655106722 -36.33076193326464 0.0 0.0
531.9607092230897 -23.94756351503824 191.67335345208699 -33.71928129031545 0.0 0.0
612.0488665889703 -21.169466198206326 267.1150859233227 -31.02529319954134 0.0 0.0
688.9935804340987 -15.003703470546796 326.8903999486678 -32.47488297452231 0.0 0.0
764.5784693170646 -1.1679128891992434 376.94267654064186 -35.54621753319287 0.0 0.0
841.1323115001758 20.281237299610297 427.3985178419191 -38.35732857457828 0.0 0.0
918.4508272916496 47.85054448779263 480.52726772172343 -39.72532422773802 0.0 0.0
994.9707226569244 79.25097157496404 534.9358388519648 -39.781243646190205 0.0 0.0
1070.2546032582038 113.35402812340419 589.9367558050194 -39.18927834905981 0.0 0.0
1144.5629465383165 150.3775876661319 645.8242047668207 -38.347934249105755 0.0 0.0
1218.6717038440363 190.14520704841377 702.927557495246 -37.2807507616592 0.0 0.0
1292.756298734324 232.70800012128547 761.3749239664639 -35.71465830237384 0.0 0.0
1366.3360545286787 277.79376070533067 820.8011027766306 -33.26663650058871 0.0 0.0
1438.5525243566885 324.9305255387877 880.5354596898825 -29.928181931612308 0.0 0.0
1509.32014557071 374.78454759570013 940.8400715926834 -26.75286796620223 0.0 0.0
1586.46175826729 436.3920893831866 1010.0727440532829 -25.574177403832802 0.0 0.0
1643.9971475506663 485.13830057966567 1063.1092558113085 -26.556394926140364 0.0 0.0
1643.9971475493078 485.13830057831257 1063.1092558104096 26.556394926165552 0.0 0.0
1586.4617582674396 436.3920893833843 1010.0727440534082 25.57417740384585 0.0 0.0
1509.3201455715962 374.78454759668256 940.8400715934897 26.752867966276856 0.0 0.0
1438.5525243565914 324.9305255387943 880.5354596899501 29.928181931672672 0.0 0.0
1366.3360545282142 277.79376070500905 820.8011027765372 33.26663650066371 0.0 0.0
1292.7562987347903 232.70800012186913 761.3749239668217 35.71465830217804 0.0 0.0
1218.6717038440834 190.14520704862485 702.9275574953563 37.28075076156017 0.0 0.0
1144.562946537933 150.3775876659397 645.8242047665249 38.347934249172525 0.0 0.0
1070.2546032584007 113.3540281238806 589.9367558051641 39.1892783493297 0.0 0.0
994.970722656749 79.25097157504067 534.9358388518938 39.7812436462669 0.0 0.0
918.4508272909127 47.85054448731432 480.52726772128017 39.72532422780327 0.0 0.0
841.1323114996345 20.28123729934657 427.39851784159646 38.35732857457239 0.0 0.0
764.5784693174255 -1.167912888520874 376.9426765408882 35.54621753326563 0.0 0.0
688.9935804341758 -15.003703470149546 326.8903999486674 32.474882974522565 0.0 0.0
612.0488665891312 -21.169466197668996 267.1150859233604 31.02529319951551 0.0 0.0
531.9607092226852 -23.947563515242095 191.67335345177582 33.71928129017105 0.0 0.0
446.0229017718264 -15.663944163381297 135.10939655079784 36.330761933330244 0.0 0.0
370.7003041689388 34.667033856089056 121.6273875142702 9.571173104769802 0.0 0.0
281.8987383455687 -79.99444143815685 60.98034564264779 -8.14339985934062 0.0 0.0
70.87445231045598 -551.0921411736069 -243.54950740868682 161.67644908581428 0.0 0.0
15.406448680822905 -561.3210461588985 -270.6859277027805 -177.4811857948889 0.0 0.0
157.98381917403273 -67.51986253444946 27.13918699187498 -47.231124652905656 0.0 0.0
300.9542620752268 38.83773298627117 101.93759851844936 -34.32882302390344 0.0 0.0
401.47855096332216 -6.374906329933372 120.28719992156243 -56.991329811218606 0.0 0.0
496.0631027364392 -22.70095889382472 167.59306718418048 -57.804174088015586 0.0 0.0
585.253985560896 -22.835755656748432 243.53133624756487 -53.13791565957448 0.0 0.0
665.453133342526 -13.998768235705555 311.8451483357676 -53.82187435983004 0.0 0.0
741.5486146301364 -0.9877591639240819 364.3110900110529 -57.3906079259032 0.0 0.0
816.7508474806393 18.908840525841 414.04769273819323 -60.68327963774192 0.0 0.0
890.5521588570168 43.28261979508967 464.0322416669309 -61.989340210533584 0.0 0.0
962.548362540716 70.64119465699143 514.2354387942783 -61.634788560441116 0.0 0.0
1032.7635185682357 100.52003963100061 564.6291225961238 -60.497861480344774 0.0 0.0
1101.9481977683954 132.65457391225038 615.540009185423 -59.11479642078768 0.0 0.0
1170.2134473545907 167.23124522747412 667.158552823549 -57.35052533174708 0.0 0.0
1237.8649180744287 203.81990619359192 719.4305887464396 -54.924464504093095 0.0 0.0
1305.1830948994407 242.76384797693424 772.6625800225331 -51.482256662856464 0.0 0.0
1372.7900781350866 285.21777043551117 827.7293560298837 -47.129990281473226 0.0 0.0
1442.8604947576791 334.2545045185262 887.2449860829884 -42.813731781489345 0.0 0.0
1509.0940398323394 384.6067442811471 945.4827098769256 -38.61749733308844 0.0 0.0
1556.6335934714273 422.4438070134971 988.101876486187 -33.498837560506786 0.0 0.0
1556.6335934707845 422.44380701285024 988.1018764855708 33.49883756039934 0.0 0.0
1509.0940398315176 384.6067442803673 945.4827098761795 38.617497333095855 0.0 0.0
1442.8604947568908 334.2545045178329 887.2449860823126 42.813731781724606 0.0 0.0
1372.790078133784 285.21777043430785 827.7293560289238 47.12999028138826 0.0 0.0
1305.1830948968716 242.7638479744615 772.6625800206017 51.48225666280672 0.0 0.0
1237.8649180740138 203.81990619331208 719.4305887460165 54.92446450406199 0.0 0.0
1170.2134473539427 167.2312452269943 667.1585528230047 57.350525331710685 0.0 0.0
1101.948197768164 132.65457391224464 615.5400091851843 59.11479642090602 0.0 0.0
1032.7635185686008 100.52003963159689 564.6291225963804 60.49786148036516 0.0 0.0
962.5483625404992 70.64119465701367 514.235438794058 61.63478856042887 0.0 0.0
890.5521588563712 43.282619794626186 464.0322416664659 61.98934021028805 0.0 0.0
816.7508474798433 18.908840525287616 414.0476927376799 60.68327963769052 0.0 0.0
741.5486146290087 -0.9877591647731094 364.3110900103265 57.39060792595607 0.0 0.0
665.4531333420514 -13.998768235882721 311.8451483354262 53.82187435975602 0.0 0.0
585.2539855603108 -22.835755657072042 243.53133624711015 53.13791565952749 0.0 0.0
496.06310273599894 -22.700958894018534 167.5930671838815 57.804174087888406 0.0 0.0
401.4785509632357 -6.374906329689095 120.28719992160579 56.991329811148134 0.0 0.0
300.9542620751357 38.837732986012554 101.93759851834449 34.32882302379669 0.0 0.0
157.98381917420326 -67.51986253408354 27.13918699203591 47.231124652918474 0.0 0.0
15.406448681018105 -561.3210461585049 -270.6859277024731 177.48118579477048 0.0 0.0
-6.0908963775941345 -551.4591235958701 -269.86202702447525 -179.4876317679873 0.0 0.0
89.92275080791507 -62.049417284379516 8.36200005706066 -94.24218599215835 0.0 0.0
235.0819162643306 34.99665122286808 81.02357024615961 -68.0584484330675 0.0 0.0
347.20496932135853 3.522849218392399 105.46449259541635 -79.56787167180264 0.0 0.0
450.4661136695471 -20.821887921075103 142.8531793780972 -84.46791502520786 0.0 0.0
549.1981502938494 -22.709422472231275 215.8429496074171 -77.0056432910902 0.0 0.0
635.3294476995588 -14.123404946146202 290.98335440023817 -75.82188013904545 0.0 0.0
713.8749931272873 -0.24287832107705043 348.97574665481875 -79.1361401542503 0.0 0.0
787.3871078902431 17.343472398421028 397.92022907019543 -82.38519249936589 0.0 0.0
857.9040404120261 38.50354852995743 444.97953771804816 -83.43459180625953 0.0 0.0
925.5607191977215 61.92260339909271 491.1578141099627 -82.66399523222195 0.0 0.0
990.9873502873503 87.4273560583748 537.0221559941635 -81.06820121844925 0.0 0.0
1054.74635918331 114.84582880942705 582.8977039104266 -79.12382146558538 0.0 0.0
1117.4423274418302 144.0847730995888 629.099799049231 -76.74137941489886 0.0 0.0
1178.7854759458905 174.55318807868588 675.190084725843 -73.60998872610294 0.0 0.0
1239.6099123234003 207.34599372848996 722.1105035164735 -69.48176432050731 0.0 0.0
1302.445030793219 244.8383084546771 772.3015579781714 -64.47479455225118 0.0 0.0
1366.89109720858 287.69174524435545 825.930435275759 -58.734838321988974 0.0 0.0
1426.9370500903851 330.7835930936535 877.4639744146926 -51.27795757250477 0.0 0.0
1471.005315989497 363.48684770027916 915.7902228258055 -40.800211890829026 0.0 0.0
1471.0053159895629 363.4868477003791 915.7902228259019 40.80021189102044 0.0 0.0
1426.9370500903797 330.78359309369506 877.4639744146932 51.27795757247027 0.0 0.0
1366.8910972090741 287.69174524495213 825.9304352760881 58.73483832219365 0.0 0.0
1302.4450307926993 244.83830845426945 772.3015579777718 64.47479455232717 0.0 0.0
1239.6099123242232 207.3459937295002 722.1105035171192 69.48176432069054 0.0 0.0
1178.785475946091 174.55318807902 675.1900847260669 73.6099887260455 0.0 0.0
1117.4423274415071 144.084773099423 629.0997990489832 76.74137941490046 0.0 0.0
1054.7463591836156 114.84582880996265 582.897703910575 79.12382146568709 0.0 0.0
990.9873502867779 87.42735605805382 537.0221559937876 81.06820121859937 0.0 0.0
925.5607191960379 61.922603397595026 491.15781410884216 82.66399523209844 0.0 0.0
857.9040404103428 38.50354852838822 444.97953771694506 83.43459180599937 0.0 0.0
787.3871078900883 17.34347239856953 397.92022907009016 82.38519249941332 0.0 0.0
713.8749931279079 -0.24287832007001953 348.9757466552187 79.13614015440274 0.0 0.0
635.3294476997876 -14.123404945459725 290.98335440034987 75.82188013924684 0.0 0.0
549.1981502937931 -22.70942247189862 215.84294960728602 77.00564329106301 0.0 0.0
450.4661136697439 -20.821887920196193 142.85317937830519 84.46791502535409 0.0 0.0
347.2049693214798 3.522849218993967 105.46449259563715 79.56787167173448 0.0 0.0
235.08191626434237 34.99665122282432 81.02357024614999 68.0584484329394 0.0 0.0
89.92275080815364 -62.04941728388685 8.36200005728004 94.24218599207722 0.0 0.0
-6.090896377515477 -551.4591235956618 -269.86202702426556 179.4876317678538 0.0 0.0
-11.424579658478649 -529.4872732011819 -253.40374035949765 -176.6199654545265 0.0 0.0
52.80796562595666 -57.81669239784692 -1.5026180315670778 -130.87153670731783 0.0 0.0
178.8594980305769 27.913472832139476 62.031891258814916 -102.14722306132269 0.0 0.0
289.04996115393124 10.45357538043367 89.89002859594734 -103.48665704664988 0.0 0.0
393.5749901725426 -16.539173571988613 119.13544856704564 -112.19111477544043 0.0 0.0
502.4152483102548 -22.160908803598687 184.1988231748531 -103.92871071789696 0.0 0.0
598.0290789651758 -14.485078032376208 264.00051787752665 -99.2119177750345 0.0 0.0
679.8745403758255 0.03002808014551306 328.99234316600973 -100.84154072256521 0.0 0.0
752.4791068026774 15.846113531594455 378.67717780133444 -103.48242801446594 0.0 0.0
819.8621246810156 33.55794741301672 423.01530621448853 -104.11491250541931 0.0 0.0
883.4637726085227 53.11350190699259 465.4075965483238 -102.87555370347226 0.0 0.0
943.9433855021917 74.20396758106405 506.6734946634509 -100.83926948223154 0.0 0.0
1002.4213765966622 96.7743064695465 547.5380383568772 -98.47109299457983 0.0 0.0
1059.3007701136632 120.7994825790183 588.2568661645739 -95.45772308947795 0.0 0.0
1114.6697313681357 145.5758364714543 628.5509020352067 -91.704595572516 0.0 0.0
1169.3733769012022 171.95495987030506 669.2370909158179 -87.20485236699028 0.0 0.0
1225.1679203025155 202.3618994869175 712.3845594935611 -81.72579527146264 0.0 0.0
1283.2018048130756 237.96727433145855 759.1900002657578 -74.71780543007665 0.0 0.0
1339.0768679837736 275.0896352911265 805.652391810727 -64.34703910606667 0.0 0.0
1383.4727209026635 305.6087178861248 843.0331479874171 -49.08911859140988 0.0 0.0
1383.4727209017174 305.60871788520086 843.0331479868566 49.08911859150805 0.0 0.0
1339.0768679826422 275.0896352899852 805.6523918099142 64.34703910596727 0.0 0.0
1283.2018048130747 237.96727433158765 759.1900002655116 74.71780543030471 0.0 0.0
1225.1679203012156 202.36189948575475 712.3845594925162 81.7257952715921 0.0 0.0
1169.3733768997072 171.95495986889915 669.2370909146513 87.20485236703553 0.0 0.0
1114.6697313680568 145.5758364715361 628.5509020351303 91.70459557251351 0.0 0.0
1059.3007701121644 120.79948257764391 588.25686616352 95.45772308940201 0.0 0.0
1002.4213765957741 96.77430646875894 547.5380383562724 98.47109299443092 0.0 0.0
943.943385501945 74.20396758096996 506.673494663265 100.83926948208796 0.0 0.0
883.4637726076206 53.113501906310916 465.40759654767373 102.87555370350827 0.0 0.0
819.8621246809174 33.55794741314412 423.01530621432096 104.11491250534357 0.0 0.0
752.47910680267 15.846113531927045 378.67717780137457 103.48242801456186 0.0 0.0
679.874540375191 0.030028079782212558 328.99234316556397 100.84154072251812 0.0 0.0
598.0290789642985 -14.485078032881404 264.0005178769456 99.21191777516304 0.0 0.0
502.41524830980217 -22.160908803676126 184.1988231745018 103.92871071782433 0.0 0.0
393.57499017219027 -16.539173572076294 119.13544856687506 112.19111477525749 0.0 0.0
289.04996115373456 10.453575380265708 89.89002859584708 103.48665704639006 0.0 0.0
178.85949803073333 27.913472832255295 62.03189125889658 102.14722306116045 0.0 0.0
52.80796562610132 -57.81669239734572 -1.5026180313733217 130.87153670723242 0.0 0.0
-11.424579658444458 -529.48727320094 -253.40374035928386 176.61996545444407 0.0 0.0
-9.451320999812225 -499.3405070643173 -227.6697732459836 -172.52998115824494 0.0 0.0
31.44421304386687 -53.19680667690584 -6.52577808991169 -158.26126889192724 0.0 0.0
131.436051498229 20.301105213300477 45.52114701345884 -132.08350702159217 0.0 0.0
230.73078899969437 13.305898594316218 73.20702981961962 -127.63155088671917 0.0 0.0
327.1610816704041 -9.530712574795363 97.49117048094563 -138.11819443319024 0.0 0.0
439.3740275556612 -21.216903148011124 149.16691978609646 -134.2270589827994 0.0 0.0
547.5544994029688 -13.873293582607097 229.24781908770936 -124.8920982994265 0.0 0.0
636.1342503363016 -0.8700645851535924 301.2633443093317 -123.14590171302663 0.0 0.0
710.4559850403543 14.02305733336349 354.8821384938535 -124.23674362142891 0.0 0.0
775.3167824150123 28.603953688102706 397.5193639463319 -124.0347670276319 0.0 0.0
834.8071401485225 44.16475331434714 436.1816757119002 -122.28646485209501 0.0 0.0
890.5429296378175 60.945276842007715 473.06524535820836 -119.82567319760174 0.0 0.0
943.4717959723083 78.66831617648158 508.81147284649074 -117.05291912842992 0.0 0.0
994.6629269255448 97.31725326041384 544.03500439225 -113.64451498183388 0.0 0.0
1044.621334163126 116.83103872344549 579.0254584247864 -109.33970378646791 0.0 0.0
1092.5992350363604 137.00818797804135 613.3101329478543 -104.35231085392452 0.0 0.0
1140.4429303298677 158.89843804691685 648.2751888102707 -98.70023021624235 0.0 0.0
1190.8707857534084 185.62175252671494 686.84242741737 -91.01594966980468 0.0 0.0
1243.2808078637086 216.99746990669314 728.6721055263135 -78.43002733996927 0.0 0.0
1290.9170324728418 247.1739277272246 767.4544015709364 -59.05813348579389 0.0 0.0
1290.9170324707197 247.17392772512034 767.45440156943 59.0581334859707 0.0 0.0
1243.2808078623023 216.99746990533373 728.6721055253782 78.43002734003198 0.0 0.0
1190.8707857542393 185.62175252764808 686.8424274180097 91.0159496698736 0.0 0.0
1140.442930329595 158.89843804673131 648.2751888101513 98.70023021631664 0.0 0.0
1092.5992350369534 137.0081879789093 613.3101329482896 104.35231085418951 0.0 0.0
1044.6213341628168 116.83103872323835 579.0254584244504 109.33970378641753 0.0 0.0
994.6629269258704 97.3172532609268 544.0350043923584 113.64451498185582 0.0 0.0
943.4717959719857 78.66831617634892 508.8114728461435 117.05291912851129 0.0 0.0
890.5429296377447 60.94527684217755 473.0652453580238 119.82567319769137 0.0 0.0
834.8071401485241 44.16475331460438 436.1816757119251 122.28646485217698 0.0 0.0
775.3167824150261 28.603953688385445 397.51936394633094 124.0347670276462 0.0 0.0
710.455985038844 14.023057332028628 354.88213849283795 124.23674362133387 0.0 0.0
636.1342503354017 -0.8700645858373122 301.26334430870287 123.1459017129412 0.0 0.0
547.5544994019888 -13.873293583405697 229.24781908698967 124.89209829924545 0.0 0.0
439.3740275549752 -21.216903148466738 149.16691978562153 134.22705898262365 0.0 0.0
327.16108167014784 -9.530712574592421 97.49117048092961 138.11819443312092 0.0 0.0
230.73078899953634 13.305898594083509 73.20702981950382 127.63155088673906 0.0 0.0
131.43605149817296 20.301105213105654 45.52114701338358 132.0835070214128 0.0 0.0
31.44421304382203 -53.19680667692506 -6.525778089930906 158.26126889179915 0.0 0.0
-9.45132099992398 -499.3405070642146 -227.6697732458307 172.5299811581455 0.0 0.0
-4.030572743465228 -462.6641403779238 -196.06807698010604 -168.78643622681267 0.0 0.0
17.42964676298624 -48.799042728316905 -9.410616594057574 -177.61382496628664 0.0 0.0
90.1084119102419 13.391345673644803 31.049309307991873 -156.0233432216848 0.0 0.0
172.7037447456764 14.27332023640719 56.08999591693789 -150.09942922691118 0.0 0.0
255.44372859836702 -2.479749264300736 76.89212476484708 -160.44858020453347 0.0 0.0
360.7338443404751 -17.454635986772566 114.21208976744057 -165.76621722269525 0.0 0.0
478.7049015165809 -13.792654554642791 185.6193205760884 -154.47683986570786 0.0 0.0
578.8882417389726 -1.5407152847202195 263.5557229569081 -146.91799919278532 0.0 0.0
657.1859969532067 11.285128721299486 323.0046258225689 -145.0570456446132 0.0 0.0
721.5920847790862 23.480073380090698 366.6452203629905 -143.40296335464578 0.0 0.0
777.2271313577371 35.07250776527451 402.1407622757057 -140.91591678641055 0.0 0.0
828.3319157522051 47.76251130702607 434.9513831865518 -138.00973492678452 0.0 0.0
875.6645251605473 60.60613073117761 465.6080537693582 -134.91009473709545 0.0 0.0
920.698495308766 73.8808989566379 495.1484463426414 -131.26064553986896 0.0 0.0
964.8298091176107 87.96940354826253 524.5310191701728 -126.58456167444673 0.0 0.0
1007.787784520116 102.80504780789408 553.70285477149 -121.02681168435221 0.0 0.0
1046.9396027132857 116.01695854242658 580.1039819252965 -115.07062359202331 0.0 0.0
1087.2585302985738 131.57292194604366 608.0575607340821 -107.5398659753435 0.0 0.0
1135.5904736061773 155.32310400238796 643.9714419799349 -94.13804111596652 0.0 0.0
1189.412545904599 186.5095473950728 686.2482459683952 -71.73269815830297 0.0 0.0
1189.4125459072316 186.50954739778825 686.2482459701577 71.73269815843842 0.0 0.0
1135.5904736065745 155.32310400290527 643.9714419801746 94.13804111613409 0.0 0.0
1087.2585302969362 131.5729219444164 608.0575607329898 107.5398659753115 0.0 0.0
1046.9396027116322 116.01695854085278 580.1039819241579 115.07062359222003 0.0 0.0
1007.7877845178866 102.80504780570783 553.702854770033 121.02681168423442 0.0 0.0
964.8298091163794 87.9694035470526 524.5310191693951 126.58456167437471 0.0 0.0
920.6984953082083 73.8808989562533 495.1484463422655 131.26064553982965 0.0 0.0
875.6645251605185 60.60613073119799 465.60805376922445 134.9100947370518 0.0 0.0
828.3319157530034 47.76251130824906 434.9513831870918 138.00973492704605 0.0 0.0
777.2271313571382 35.07250776504583 402.1407622752887 140.91591678657255 0.0 0.0
721.5920847795162 23.48007338076215 366.6452203632211 143.40296335461355 0.0 0.0
657.185996954351 11.285128723032273 323.00462582336064 145.05704564487124 0.0 0.0
578.8882417396611 -1.5407152834061009 263.55572295732134 146.91799919293544 0.0 0.0
478.70490151662545 -13.792654553984008 185.61932057610574 154.47683986578969 0.0 0.0
360.733844340082 -17.45463598660666 114.21208976730694 165.76621722274734 0.0 0.0
255.44372859819995 -2.4797492642023213 76.89212476483243 160.44858020434725 0.0 0.0
172.70374474566884 14.273320236456664 56.08999591695146 150.09942922675995 0.0 0.0
90.1084119103586 13.391345673965318 31.04930930812367 156.0233432215245 0.0 0.0
17.4296467632066 -48.79904272785392 -9.41061659385273 177.61382496609164 0.0 0.0
-4.030572743521951 -462.6641403778025 -196.06807697993645 168.78643622668866 0.0 0.0
1.4622101736991695 -420.8313345848703 -162.7316318909625 -166.2994012595208 0.0 0.0
4.9677732186415575 -45.380496781608315 -12.12381408085739 -189.10555721927892 0.0 0.0
52.45168689514294 7.910984636428081 18.109133357095182 -173.90859738464712 0.0 0.0
115.57451428831324 15.203239917287043 39.24738465202372 -168.7809714178646 0.0 0.0
181.77819810389266 2.330655711464442 55.810780990744554 -179.68438166290264 0.0 0.0
265.25996158130766 -10.036794782096402 81.18909634034864 -192.48353224664777 0.0 0.0
381.5579241357691 -12.29824531784689 134.65529554370485 -188.39573424958365 0.0 0.0
497.9664352831493 -2.6478551339104266 210.82385739707237 -174.57578356115178 0.0 0.0
586.2424578825432 8.149553096620668 277.64779168931256 -166.865217866914 0.0 0.0
651.931391471745 17.764091998731097 325.23340487696726 -162.50733018702647 0.0 0.0
705.3406856967252 25.769721609972855 359.93884987392215 -159.00877504036976 0.0 0.0
751.578442785304 34.504567456202416 389.1546714150262 -155.46955503651947 0.0 0.0
793.2193669544046 42.874709055001055 415.10350354415044 -151.96423436657187 0.0 0.0
831.7665511144102 50.72103289818732 438.87991409258854 -148.2500198105812 0.0 0.0
869.4422617131875 58.909823085079665 462.16459765906575 -143.6123588791363 0.0 0.0
907.4669433985061 68.51353022229289 486.2510725979809 -137.44807554414155 0.0 0.0
941.8630944698332 76.06987642798887 507.60826789485196 -130.64593173754199 0.0 0.0
969.2704192046086 77.84773423087128 522.4059843550378 -123.71613465708442 0.0 0.0
1007.944111653466 88.52699972857317 546.8219518997622 -111.74075922320328 0.0 0.0
1070.370814004867 121.01682882013418 593.8097562208502 -88.63776086474996 0.0 0.0
1070.370814002431 121.01682881768681 593.8097562192803 88.63776086483865 0.0 0.0
1007.9441116527661 88.52699972780351 546.8219518993212 111.74075922321316 0.0 0.0
969.270419204536 77.84773423105042 522.4059843549545 123.71613465747222 0.0 0.0
941.8630944682877 76.0698764266844 507.6082678937017 130.645931737723 0.0 0.0
907.4669433968095 68.51353022050216 486.25107259658955 137.44807554387936 0.0 0.0
869.4422617115729 58.909823083530256 462.16459765789807 143.61235887909743 0.0 0.0
831.7665511141846 50.721032898086094 438.8799140924648 148.25001981062923 0.0 0.0
793.219366953901 42.87470905482954 415.10350354389607 151.9642343668489 0.0 0.0
751.5784427846579 34.504567455738794 389.15467141461903 155.46955503649613 0.0 0.0
705.3406856965954 25.769721609944952 359.9388498737836 159.00877504024083 0.0 0.0
651.9313914716271 17.764091998757152 325.2334048768206 162.5073301868973 0.0 0.0
586.242457881521 8.14955309561104 277.64779168857126 166.86521786673282 0.0 0.0
497.9664352819405 -2.6478551350169752 210.82385739621006 174.5757835610794 0.0 0.0
381.55792413478133 -12.2982453185998 134.65529554307233 188.39573424951033 0.0 0.0
265.2599615809755 -10.036794782195672 81.1890963401833 192.48353224637282 0.0 0.0
181.77819810395107 2.330655711779224 55.81078099085706 179.6843816627232 0.0 0.0
115.57451428834776 15.203239917493748 39.2473846521017 168.78097141754262 0.0 0.0
52.451686895118655 7.9109846365243355 18.10913335712037 173.90859738435134 0.0 0.0
4.967773218651321 -45.380496781435546 -12.123814080803994 189.10555721904856 0.0 0.0
1.4622101737472093 -420.8313345845127 -162.73163189070925 166.2994012594524 0.0 0.0
3.7802855495696335 -374.58228984684933 -131.64256868662142 -163.65144926006235 0.0 0.0
-10.114157507089999 -44.25206968240642 -16.31352757617425 -194.70165393239296 0.0 0.0
16.88232321296649 4.562905570044014 6.4373279270493935 -185.93402186099277 0.0 0.0
59.91906358734525 16.373019757967093 22.915026694349514 -182.8285644854913 0.0 0.0
105.9000635079289 6.406040279921301 34.05829964990125 -194.57615799814636 0.0 0.0
160.37979211370694 -3.2165862242083216 49.072064321714905 -211.7074579211415 0.0 0.0
248.54209472160386 -6.021033546632915 81.31720529998893 -219.52590864688486 0.0 0.0
369.0363569107483 -2.779419859045433 138.71722382766757 -208.8507418928884 0.0 0.0
476.2447855011414 4.999480521415677 206.20588933144205 -192.75296699169013 0.0 0.0
549.5691195221214 11.14859871305234 259.9472472274934 -182.51690147922383 0.0 0.0
602.0508943099597 16.73518008564666 298.1057179254932 -176.71823517421967 0.0 0.0
643.4808147185365 21.04409729240578 325.64138725151594 -172.369840085664 0.0 0.0
679.150964158797 25.302598206923477 348.13938441641136 -168.31992223209545 0.0 0.0
710.8419213508815 28.277614935313238 366.85353466766423 -164.42762999747 0.0 0.0
740.8161257880438 30.213926797476006 383.5402273055528 -160.03939099531115 0.0 0.0
772.2103450667664 32.86252372876967 400.90590436560706 -154.15854427072904 0.0 0.0
806.4255312460759 37.255461288986226 420.49075568548375 -145.95908010839332 0.0 0.0
830.3949413258761 32.53845176260131 430.77002239796525 -138.01245020868143 0.0 0.0
845.916371460424 15.807454228782404 430.00848319165675 -130.2632414194509 0.0 0.0
915.6328764147005 44.32440749858412 477.85967749984695 -112.51439380191428 0.0 0.0
915.6328764167512 44.32440750090626 477.85967750122006 112.51439380240191 0.0 0.0
845.916371462359 15.807454231288148 430.00848319310336 130.26324142016 0.0 0.0
830.3949413259052 32.538451762848695 430.7700223981043 138.01245020898608 0.0 0.0
806.4255312463365 37.25546128948605 420.49075568589376 145.95908010862627 0.0 0.0
772.2103450658655 32.86252372778267 400.9059043651166 154.15854427061828 0.0 0.0
740.8161257881123 30.213926797746808 383.54022730568545 160.0393909954671 0.0 0.0
710.8419213521182 28.277614936929666 366.8535346685346 164.4276299978027 0.0 0.0
679.1509641594183 25.302598208102637 348.1393844168888 168.31992223250776 0.0 0.0
643.4808147177516 21.044097291741522 325.64138725097 172.36984008573228 0.0 0.0
602.0508943093345 16.735180085232415 298.1057179251045 176.71823517425193 0.0 0.0
549.5691195223324 11.148598713677657 259.94724722764045 182.5169014793065 0.0 0.0
476.2447855014548 4.999480522238308 206.20588933163813 192.75296699172517 0.0 0.0
369.0363569100748 -2.779419859587886 138.7172238271906 208.85074189279084 0.0 0.0
248.5420947210796 -6.021033546742828 81.31720529974892 219.52590864682017 0.0 0.0
160.37979211358436 -3.216586224016133 49.07206432172856 211.70745792089792 0.0 0.0
105.9000635081495 6.406040280510372 34.05829965014628 194.5761579980318 0.0 0.0
59.91906358741158 16.37301975819764 22.91502669444121 182.8285644852733 0.0 0.0
16.88232321290856 4.562905569898144 6.437327926989512 185.93402186093434 0.0 0.0
-10.114157507296415 -44.25206968274186 -16.313527576340142 194.701653932434 0.0 0.0
3.7802855494953285 -374.58228984655096 -131.6425686864618 163.65144926005277 0.0 0.0
1.647873797454924 -324.6555638892181 -104.62242672548527 -158.63406941683493 0.0 0.0
-28.979311540462646 -46.120572891088955 -22.53730545184669 -196.43497906076277 0.0 0.0
-17.386681251631188 3.5201240148876134 -4.16210279130579 -192.96814404686785 0.0 0.0
5.882678719400846 17.565107232334245 7.049308043622394 -191.8025321482416 0.0 0.0
29.30462633703942 10.815086224006187 12.15860581099427 -203.3693494413059 0.0 0.0
51.59346716048404 2.2248046822893714 16.73521009863098 -222.66617850826478 0.0 0.0
83.84935676864218 -0.8849824698349149 26.807706343068883 -237.6334361678705 0.0 0.0
145.26944519622495 1.1244878967586303 49.07745298066419 -239.34220487052607 0.0 0.0
234.14902872143563 5.211819932289227 85.35430525545524 -225.01629967237932 0.0 0.0
316.8240679896008 7.1201553113574505 127.17517025298082 -208.21229444510425 0.0 0.0
377.48432998280344 8.483541060448985 165.98127442361786 -195.95249340318512 0.0 0.0
416.0287123844176 8.725550223962358 194.80228695509078 -188.52717559116388 0.0 0.0
443.68449732907266 8.769221129756346 216.59989922217648 -183.22259175303344 0.0 0.0
466.7472046619709 6.5904348246059214 232.85363853592537 -178.76144059550504 0.0 0.0
489.7458292430597 2.31508166237748 245.70444469989877 -174.50431223570646 0.0 0.0
517.8643420739546 -3.1434411219760534 258.3332527354681 -169.72298409376037 0.0 0.0
555.6277338323456 -6.3289937199474195 275.4449637915367 -162.46172778446837 0.0 0.0
602.0689006469674 -5.865513353774844 298.6613600832371 -151.33724412286992 0.0 0.0
618.7811162519016 -38.369031963005995 291.68043195654434 -143.04763264682205 0.0 0.0
657.4236061917886 -67.79738218831412 292.83521307746634 -143.66434184400808 0.0 0.0
657.4236061918515 -67.79738218790175 292.8352130776281 143.6643418444761 0.0 0.0
618.781116252637 -38.36903196228633 291.6804319569674 143.04763264714114 0.0 0.0
602.0689006472348 -5.8655133533791854 298.6613600834354 151.33724412286978 0.0 0.0
555.6277338324944 -6.328993719717687 275.44496379159017 162.4617277845142 0.0 0.0
517.8643420745933 -3.143441121244763 258.33325273584575 169.72298409363083 0.0 0.0
489.74582924229486 2.315081661754448 245.70444469944206 174.50431223584673 0.0 0.0
466.74720466211835 6.590434824388325 232.85363853589882 178.76144059543364 0.0 0.0
443.68449732959704 8.76922113015759 216.59989922244444 183.22259175312917 0.0 0.0
416.0287123854925 8.725550225468766 194.80228695582613 188.52717559117076 0.0 0.0
377.4843299826346 8.483541060489586 165.98127442346905 195.95249340317042 0.0 0.0
316.82406798921943 7.120155310921845 127.17517025264605 208.21229444498002 0.0 0.0
234.14902872055546 5.211819930901282 85.3543052547536 225.0162996723941 0.0 0.0
145.26944519583824 1.124487896290752 49.07745298038076 239.34220487047781 0.0 0.0
83.84935676858407 -0.8849824696384481 26.807706343110894 237.6334361677595 0.0 0.0
51.59346716033729 2.2248046819763454 16.735210098494036 222.66617850806273 0.0 0.0
29.304626336907727 10.815086223709763 12.158605810867279 203.3693494412051 0.0 0.0
5.882678719290106 17.56510723211407 7.049308043523099 191.80253214795675 0.0 0.0
-17.38668125151832 3.5201240151489204 -4.162102791194247 192.96814404668206 0.0 0.0
-28.979311540542113 -46.120572891146274 -22.53730545189031 196.43497906061077 0.0 0.0
1.6478737973556612 -324.6555638889684 -104.62242672538423 158.6340694166417 0.0 0.0
-9.238101633769237 -273.39154413427104 -85.99534312202464 -149.29045839463578 0.0 0.0
-48.8835816465362 -48.841437276756196 -29.332453295693583 -196.08579457005396 0.0 0.0
-50.72670431341608 3.720006505885484 -14.131191551877723 -195.65430034952712 0.0 0.0
-46.53263916533706 18.61806168279919 -8.423890427197737 -195.4660156485734 0.0 0.0
-46.34399966260249 15.273166524401402 -9.483374310757895 -205.52658469792854 0.0 0.0
-58.22958865339672 7.3567186249674545 -15.91848389884369 -223.60775720062475 0.0 0.0
-87.05411012985644 2.602701314427402 -27.347352737138234 -237.7937868180942 0.0 0.0
-146.42673890954325 -0.6925332506126889 -49.37049259069804 -239.54381393077733 0.0 0.0
-234.03870742548855 -4.93593123381023 -85.24760618019604 -225.1382811795341 0.0 0.0
-316.550494668938 -6.663297184524133 -126.9251111533905 -208.18657076221615 0.0 0.0
-377.74032130924746 -6.896819169103679 -165.40473306615064 -195.76120650872792 0.0 0.0
-417.95941747135885 -7.121259188327002 -194.9113693707284 -188.04238903878203 0.0 0.0
-448.36622373199214 -9.85931290270966 -219.02449975741217 -182.907918004911 0.0 0.0
-472.24533927471055 -15.69510020370086 -239.7701390166781 -179.70947192018613 0.0 0.0
-487.8241649105935 -24.77426771652418 -257.3833319915028 -178.28793354426347 0.0 0.0
-491.78631907366736 -36.081811601519604 -270.93485392238085 -178.1230750801609 0.0 0.0
-475.2901641358867 -46.853960191258096 -276.9994338886645 -178.04685518756335 0.0 0.0
-409.1147985432681 -39.68345674744924 -259.2946598368718 -177.72963535926294 0.0 0.0
-227.57925158025608 -40.67460710521132 -200.59354703849368 -180.78086466837036 0.0 0.0
-29.186292446402604 -175.70136085149565 -72.61818797729975 -176.37053198584746 0.0 0.0
-29.186292447988194 -175.7013608543233 -72.61818797846882 176.3705319861621 0.0 0.0
-227.57925158193643 -40.67460710906863 -200.59354704032546 180.78086466892552 0.0 0.0
-409.1147985432776 -39.683456747774244 -259.29465983688505 177.72963535953147 0.0 0.0
-475.29016413656814 -46.853960191893805 -276.99943388905285 178.0468551876013 0.0 0.0
-491.78631907489734 -36.081811603602176 -270.9348539233969 178.1230750801385 0.0 0.0
-487.8241649103697 -24.774267716788955 -257.3833319915014 178.28793354435868 0.0 0.0
-472.24533927331856 -15.695100201929392 -239.77013901565215 179.7094719200581 0.0 0.0
-448.3662237332966 -9.859312904657557 -219.02449975830933 182.90791800509572 0.0 0.0
-417.9594174718179 -7.1212591901722675 -194.91136937132472 188.04238903890342 0.0 0.0
-377.7403213093485 -6.896819169904219 -165.40473306626217 195.76120650873 0.0 0.0
-316.5504946681044 -6.66329718450703 -126.92511115299165 208.18657076210008 0.0 0.0
-234.03870742428236 -4.93593123256014 -85.24760617940487 225.1382811795811 0.0 0.0
-146.42673890889827 -0.6925332501383092 -49.37049259034631 239.54381393084986 0.0 0.0
-87.05411012902627 2.602701315537968 -27.347352736539307 237.79378681796163 0.0 0.0
-58.229588653537014 7.356718624422516 -15.918483899046665 223.6077572003699 0.0 0.0
-46.34399966298541 15.273166523310945 -9.483374311199652 205.52658469781446 0.0 0.0
-46.532639165628225 18.61806168203424 -8.42389042751552 195.46601564836172 0.0 0.0
-50.72670431330508 3.720006506235395 -14.131191551741892 195.65430034930804 0.0 0.0
-48.883581646536506 -48.841437276718864 -29.332453295688968 196.08579456986357 0.0 0.0
-9.238101633960374 -273.39154413410847 -85.99534312203944 149.2904583944545 0.0 0.0
-22.269728574537467 -223.82602384957363 -73.8211309349171 -136.4288122370672 0.0 0.0
-66.3544772258656 -49.30874344568582 -34.71656950901445 -192.6685404567289 0.0 0.0
-83.11208831058069 3.875703327610825 -23.830967648188835 -194.50199426504466 0.0 0.0
-97.29427969117566 19.531137035792653 -23.459259855597892 -193.9408748402584 0.0 0.0
-120.23555760345938 18.88402931443111 -30.944853043094326 -200.86044926626974 0.0 0.0
-165.74956578306066 12.293736212477778 -48.27779165695432 -213.98316757601867 0.0 0.0
-250.027499397695 7.610180480479622 -81.62894833295934 -220.4938722874859 0.0 0.0
-368.5806643869987 3.1458407350958986 -138.6254857674349 -209.42990606294455 0.0 0.0
-475.79353190013916 -4.765474350492454 -205.96307290980485 -192.95230310461818 0.0 0.0
-549.1477747811686 -10.62967454169798 -259.55956354363525 -182.4758652318203 0.0 0.0
-601.5637206681818 -15.504365206685122 -297.34769419621125 -176.37623287119723 0.0 0.0
-643.67339200539 -19.61027994992385 -325.02201470556173 -171.51310726547263 0.0 0.0
-681.5360482639664 -26.127964062728296 -349.5210576078632 -167.40996753815588 0.0 0.0
-717.0213604566567 -35.95772124129721 -373.4244284626242 -165.15053755960358 0.0 0.0
-750.3028823493153 -49.438610349317884 -397.7085778139319 -165.13103884388252 0.0 0.0
-779.1738380029317 -65.25790632412958 -420.93520335059515 -167.259937766526 0.0 0.0
-798.6072940265688 -80.06889257993964 -439.0694444798088 -172.02195491923032 0.0 0.0
-806.8095440046666 -93.09751864767276 -450.5234455038679 -179.4779079025853 0.0 0.0
-838.910281540943 -146.33523426039864 -494.560424538871 -188.96328124397493 0.0 0.0
-859.2120607167269 -241.0840188390005 -553.7681855034834 -207.79589124244706 0.0 0.0
-859.2120607174686 -241.08401883988972 -553.7681855040654 207.7958912427123 0.0 0.0
-838.9102815428851 -146.33523426325803 -494.56042454045587 188.96328124464813 0.0 0.0
-806.809544005398 -93.09751864907639 -450.5234455046022 179.47790790295187 0.0 0.0
-798.6072940269383 -80.06889258017776 -439.06944448009205 172.02195491918098 0.0 0.0
-779.1738380033939 -65.25790632473473 -420.9352033509623 167.25993776644526 0.0 0.0
-750.3028823495417 -49.4386103498741 -397.7085778140871 165.13103884409122 0.0 0.0
-717.021360456436 -35.95772124121666 -373.42442846245115 165.15053755952357 0.0 0.0
-681.53604826437 -26.127964063490268 -349.5210576081505 167.40996753819968 0.0 0.0
-643.6733920051743 -19.61027995016518 -325.022014705452 171.51310726558268 0.0 0.0
-601.5637206674111 -15.50436520598344 -297.3476941956291 176.37623287101465 0.0 0.0
-549.1477747805939 -10.629674541336819 -259.55956354315674 182.4758652317554 0.0 0.0
-475.7935318996436 -4.765474350638108 -205.963072909559 192.95230310477453 0.0 0.0
-368.5806643860991 3.14584073558645 -138.6254857668824 209.42990606303607 0.0 0.0
-250.02749939727906 7.610180480163736 -81.6289483328374 220.4938722874104 0.0 0.0
-165.74956578279546 12.293736212571172 -48.27779165684106 213.98316757581944 0.0 0.0
-120.23555760318933 18.884029314703717 -30.944853042929196 200.86044926604626 0.0 0.0
-97.29427969118426 19.53113703541763 -23.45925985571386 193.94087484012618 0.0 0.0
-83.11208831060537 3.875703327435409 -23.83096764825243 194.50199426496246 0.0 0.0
-66.35447722593852 -49.3087434459394 -34.71656950911817 192.66854045655464 0.0 0.0
-22.269728574553287 -223.82602384936928 -73.82113093486278 136.42881223694317 0.0 0.0
-28.60414077583373 -177.2093532365562 -61.74404820371697 -121.4664538510439 0.0 0.0
-80.75824313746378 -47.2319800049534 -38.39580232357768 -185.3799061696068 0.0 0.0
-114.11041475656248 3.7572082861339093 -33.16642256075437 -189.36382215634123 0.0 0.0
-146.3127296742868 19.946977357633994 -38.12755728127946 -187.23677726012306 0.0 0.0
-191.71636863915262 21.306112954076163 -52.1697626940412 -189.92039251755534 0.0 0.0
-267.14280927866105 17.88914746071132 -80.28499462957573 -195.78551516842236 0.0 0.0
-380.45061090982176 13.729042855817909 -134.30269397323195 -189.92756668170085 0.0 0.0
-497.0650735915874 3.0375031830290595 -210.37772573001868 -175.20830600296648 0.0 0.0
-585.9443876850343 -8.00047473618416 -277.4541364694826 -166.95261171585835 0.0 0.0
-651.6216401567137 -17.388249787330793 -324.93901757312165 -162.48430551676105 0.0 0.0
-704.967677573946 -24.880045369733693 -359.3525852095205 -158.64867976394956 0.0 0.0
-751.5871001805683 -33.30901582786461 -388.5477923905436 -154.39431356124246 0.0 0.0
-794.9341137436128 -43.266922969019106 -416.01048865329267 -150.48767893214898 0.0 0.0
-837.1142600833869 -56.65162325098632 -444.2601045466524 -148.187420754865 0.0 0.0
-878.8425675387571 -74.38517197025266 -474.3885446920001 -148.4065337332862 0.0 0.0
-917.677687370456 -94.91055891801452 -504.5181243492823 -151.48453932296968 0.0 0.0
-951.7165140415935 -116.55247232395578 -532.7526641928782 -156.95858845571686 0.0 0.0
-989.5812426488721 -149.44357853044568 -568.4945141428793 -162.9793677509873 0.0 0.0
-1034.1376183989094 -199.7069033531256 -616.0442703460021 -168.05592531953903 0.0 0.0
-1140.3101627048823 -339.247206438677 -738.4625368666107 -172.17310891280133 0.0 0.0
-1140.3101627046715 -339.24720643851475 -738.462536866565 172.17310891298223 0.0 0.0
-1034.1376183983791 -199.70690335271877 -616.0442703457506 168.0559253197651 0.0 0.0
-989.5812426481434 -149.44357852990908 -568.4945141424507 162.9793677512423 0.0 0.0
-951.7165140401387 -116.55247232262252 -532.752664191826 156.9585884558239 0.0 0.0
-917.6776873688073 -94.91055891645115 -504.5181243481485 151.48453932285582 0.0 0.0
-878.8425675373876 -74.3851719688451 -474.38854469105166 148.40653373314078 0.0 0.0
-837.1142600819865 -56.651623249653056 -444.26010454574106 148.1874207548175 0.0 0.0
-794.9341137424415 -43.266922967881385 -416.0104886525401 150.48767893202518 0.0 0.0
-751.58710017975 -33.30901582714692 -388.54779238997014 154.39431356115819 0.0 0.0
-704.9676775743579 -24.880045370528542 -359.3525852098349 158.64867976404062 0.0 0.0
-651.6216401565225 -17.38824978735928 -324.9390175730354 162.4843055165842 0.0 0.0
-585.944387684357 -8.000474735584302 -277.4541364689679 166.9526117157094 0.0 0.0
-497.06507359212657 3.0375031815908047 -210.3777257303728 175.20830600325405 0.0 0.0
-380.4506109096885 13.729042855294086 -134.3026939731605 189.92756668165654 0.0 0.0
-267.14280927829554 17.889147460715304 -80.28499462941782 195.78551516824 0.0 0.0
-191.71636863903117 21.306112953794212 -52.169762694088824 189.92039251731194 0.0 0.0
-146.312729674116 19.946977357636957 -38.12755728123114 187.23677725996188 0.0 0.0
-114.11041475639959 3.7572082861777156 -33.166422560697384 189.36382215619972 0.0 0.0
-80.75824313739571 -47.231980004880505 -38.39580232353822 185.37990616951657 0.0 0.0
-28.604140775776614 -177.20935323635175 -61.744048203638506 121.46645385081759 0.0 0.0
-30.80761690423516 -134.5624664350214 -49.61102500177696 -105.558994413698 0.0 0.0
-92.56961543061182 -42.888555914304746 -40.63692437219929 -173.54973915674879 0.0 0.0
-143.31047711231696 3.4033096420705773 -42.01978855265223 -180.10971123749104 0.0 0.0
-193.4062512030061 19.312279138798225 -52.54925951487991 -175.63001045031962 0.0 0.0
-259.48005041570957 23.550920989040975 -72.69927787341905 -173.63690812491518 0.0 0.0
-358.2230330174142 23.437529524092902 -113.00554760164317 -169.82257557349078 0.0 0.0
-476.60223789775006 15.436555274039023 -184.42753543930064 -156.19205175133686 0.0 0.0
-578.3967556401542 1.700285945869382 -263.2259152593325 -147.21048827568845 0.0 0.0
-657.0645345706137 -11.239910659985156 -322.9363840175751 -145.0964854919769 0.0 0.0
-721.4244340890209 -23.25816683529706 -366.4719465241053 -143.38910710903332 0.0 0.0
-777.1048624562961 -34.57266529083927 -401.84350971319714 -140.55153675375163 0.0 0.0
-828.4153331680604 -46.95958384038681 -434.58602715145696 -136.83649238479651 0.0 0.0
-876.5696624505741 -60.4479896436103 -465.909708099155 -133.07919620416828 0.0 0.0
-923.7899662653382 -77.22166350324721 -498.2090084952132 -130.6395888443868 0.0 0.0
-971.3399794800573 -98.63718259214701 -532.9332710958885 -130.93037789881208 0.0 0.0
-1019.4792307040931 -125.41180865127015 -570.639040659567 -134.25425683599465 0.0 0.0
-1069.2616264971246 -159.2234749303619 -612.6681701138721 -139.3706768900845 0.0 0.0
-1123.4921515824863 -203.72698064629202 -662.1608353457326 -143.64616164364728 0.0 0.0
-1197.6496280881056 -277.56666113754176 -736.0049580106838 -143.63021497699597 0.0 0.0
-1296.8219439739564 -401.0670927092793 -847.3867436468764 -141.90433944582753 0.0 0.0
-1296.8219439727677 -401.06709270818953 -847.3867436460167 141.9043394459669 0.0 0.0
-1197.6496280874853 -277.56666113702323 -736.0049580101498 143.63021497721303 0.0 0.0
-1123.4921515828032 -203.72698064690064 -662.160835345791 143.6461616440647 0.0 0.0
-1069.2616264980677 -159.22347493176204 -612.6681701144155 139.37067689060564 0.0 0.0
-1019.4792307040052 -125.41180865143892 -570.6390406594783 134.25425683615975 0.0 0.0
-971.3399794804914 -98.63718259282057 -532.9332710961788 130.93037789894908 0.0 0.0
-923.789966264841 -77.221663502904 -498.20900849491113 130.63958884438915 0.0 0.0
-876.569662449313 -60.44798964247293 -465.90970809827513 133.07919620405033 0.0 0.0
-828.4153331681746 -46.959583840788916 -434.586027151524 136.83649238489505 0.0 0.0
-777.1048624571403 -34.57266529208883 -401.8435097137578 140.5515367538669 0.0 0.0
-721.4244340889011 -23.2581668355092 -366.47194652402675 143.38910710907243 0.0 0.0
-657.0645345701566 -11.239910659798506 -322.93638401725116 145.09648549188933 0.0 0.0
-578.3967556400606 1.7002859456276926 -263.2259152591697 147.21048827563732 0.0 0.0
-476.602237897132 15.436555274236623 -184.4275354388464 156.19205175135386 0.0 0.0
-358.22303301742215 23.437529523344363 -113.00554760176092 169.82257557345693 0.0 0.0
-259.48005041563823 23.55092098859899 -72.69927787352029 173.63690812472714 0.0 0.0
-193.4062512028699 19.31227913869527 -52.54925951487846 175.6300104502514 0.0 0.0
-143.31047711226276 3.4033096417175 -42.01978855274888 180.10971123752643 0.0 0.0
-92.56961543065675 -42.8885559144465 -40.63692437225547 173.54973915666986 0.0 0.0
-30.807616904230358 -134.56246643486074 -49.61102500172731 105.55899441348878 0.0 0.0
-31.905094407072767 -96.67222141741922 -38.573194747347586 -89.14686844998434 0.0 0.0
-102.76625942189834 -36.701614311153314 -41.84036211991549 -157.3969518968966 0.0 0.0
-170.6438398527135 2.905836497268095 -50.34548424627134 -166.3571553034028 0.0 0.0
-238.86101198386967 17.984124797243652 -66.57766189142721 -159.72463946466195 0.0 0.0
-324.0680333184764 26.127232975712467 -93.0559309127689 -152.55988796337272 0.0 0.0
-435.42015164354973 26.005426983560696 -147.27593177563753 -138.86173625917831 0.0 0.0
-545.9031853975565 15.193288118135207 -227.94822104101047 -125.76303285503977 0.0 0.0
-636.039318946782 0.7909270333327214 -301.20140159359244 -123.21561250611698 0.0 0.0
-710.4399142583345 -14.036528838359857 -354.89428755336854 -124.27492146591368 0.0 0.0
-775.3227653107017 -28.53234563474183 -397.4886940418485 -124.01041270787222 0.0 0.0
-834.9763290792855 -44.07351214859233 -436.21520622372736 -121.9217816802867 0.0 0.0
-890.7712589134724 -60.626713553498746 -473.0232608201492 -118.70058931937734 0.0 0.0
-943.3750529656902 -77.92821408619821 -508.38713024212495 -115.21349895526745 0.0 0.0
-994.7023792396396 -97.5315205678258 -544.0855729290226 -112.71197354666934 0.0 0.0
-1048.0187266460873 -122.82855643336936 -583.5285520668849 -112.68789381463677 0.0 0.0
-1105.8179384863768 -157.2940046671691 -629.788015178978 -115.57673973956042 0.0 0.0
-1169.9694099319822 -202.76635622331892 -684.7137410505989 -120.04364404364725 0.0 0.0
-1243.7092636285133 -264.3459174140334 -752.3902315253296 -122.71943857160721 0.0 0.0
-1328.101206561968 -347.62070510632407 -836.213558613757 -121.5735814889972 0.0 0.0
-1413.8114990943368 -455.7076548584673 -933.2412157538032 -120.83048277015956 0.0 0.0
-1413.8114990942936 -455.7076548584737 -933.2412157538146 120.83048277026452 0.0 0.0
-1328.101206561377 -347.62070510569623 -836.2135586133536 121.57358148883307 0.0 0.0
-1243.7092636270427 -264.34591741253513 -752.3902315243154 122.71943857151521 0.0 0.0
-1169.969409930415 -202.7663562218193 -684.7137410496009 120.04364404364584 0.0 0.0
-1105.8179384852638 -157.29400466617832 -629.7880151782153 115.5767397395397 0.0 0.0
-1048.0187266447433 -122.82855643209626 -583.528552065943 112.68789381459943 0.0 0.0
-994.702379239162 -97.53152056756478 -544.0855729286525 112.71197354674447 0.0 0.0
-943.3750529645858 -77.92821408523719 -508.38713024146915 115.21349895516312 0.0 0.0
-890.7712589119516 -60.6267135521339 -473.0232608191592 118.7005893193249 0.0 0.0
-834.9763290781161 -44.0735121476298 -436.2152062228819 121.92178168022329 0.0 0.0
-775.3227653101806 -28.53234563456192 -397.48869404152197 124.01041270795203 0.0 0.0
-710.4399142584075 -14.036528838747046 -354.8942875534389 124.27492146586052 0.0 0.0
-636.0393189462361 0.7909270336215037 -301.20140159318623 123.21561250603907 0.0 0.0
-545.9031853971147 15.193288118171512 -227.94822104062183 125.76303285500016 0.0 0.0
-435.4201516429369 26.005426983762078 -147.2759317752373 138.86173625914046 0.0 0.0
-324.0680333181084 26.12723297581135 -93.05593091262509 152.55988796333557 0.0 0.0
-238.86101198362604 17.984124797398863 -66.57766189131259 159.7246394645062 0.0 0.0
-170.64383985227428 2.9058364977986186 -50.345484245985176 166.35715530321954 0.0 0.0
-102.76625942182042 -36.701614311071104 -41.84036211986745 157.39695189678986 0.0 0.0
-31.905094407104926 -96.67222141731632 -38.57319474732637 89.14686844986052 0.0 0.0
-32.74734925178737 -64.12544012655306 -29.061836813502126 -72.27007850063156 0.0 0.0
-111.94422698548865 -29.24762265997419 -42.35755489363885 -137.34101071006125 0.0 0.0
-196.31586563381146 2.2340970711438297 -58.22234346297981 -148.15881071128015 0.0 0.0
-281.63006670039226 16.297295491164594 -80.05387371175306 -139.50436068667616 0.0 0.0
-383.6582004816287 28.30777634260425 -114.12262687122504 -126.80735189545011 0.0 0.0
-497.8251164402924 25.887922803987664 -181.66561990021444 -107.73993392072111 0.0 0.0
-597.2499867216447 15.1123773982032 -263.18825052784064 -99.40012710160971 0.0 0.0
-679.9272160009881 -0.16182472130014958 -329.06622084202024 -100.82300765705483 0.0 0.0
-752.5564590036299 -15.915193082231553 -378.75515283557746 -103.51813380163351 0.0 0.0
-820.0182529438604 -33.6322725237348 -423.12001934111476 -104.06197404358547 0.0 0.0
-883.8595493979083 -53.35651071656886 -465.71254674651436 -102.5184276175747 0.0 0.0
-944.2419096196176 -74.29344005800294 -506.8769076044423 -99.90504024124178 0.0 0.0
-1001.4691788910707 -95.65446923930304 -546.5360789282231 -96.96163887617496 0.0 0.0
-1056.7854090277083 -118.50071227998615 -585.8250725343252 -94.37087907648872 0.0 0.0
-1115.004634393597 -147.3431008402789 -629.4209265975603 -93.61348172674596 0.0 0.0
-1182.1387765804575 -188.9268834912922 -683.8053322315237 -95.61088960767079 0.0 0.0
-1260.4888748774342 -247.18717005612064 -752.1423771915504 -99.18539071077504 0.0 0.0
-1348.906042622435 -322.7544857953866 -834.170140034981 -101.78671255903943 0.0 0.0
-1438.462318815768 -411.5060590173585 -923.3829605965013 -102.4792891730084 0.0 0.0
-1516.4190160200444 -510.79477725631256 -1012.1647888691097 -105.24742550251112 0.0 0.0
-1516.41901601983 -510.7947772561952 -1012.1647888690877 105.24742550273041 0.0 0.0
-1438.462318815637 -411.50605901725197 -923.382960596481 102.47928917304455 0.0 0.0
-1348.9060426219867 -322.7544857951882 -834.1701400347542 101.78671255947631 0.0 0.0
-1260.4888748778724 -247.18717005666977 -752.1423771917171 99.18539071079434 0.0 0.0
-1182.138776582092 -188.92688349314773 -683.8053322326209 95.61088960791562 0.0 0.0
-1115.0046343941322 -147.34310084102395 -629.4209265978661 93.61348172680383 0.0 0.0
-1056.7854090284668 -118.5007122809309 -585.8250725346804 94.37087907653898 0.0 0.0
-1001.4691788914885 -95.65446924006571 -546.5360789284624 96.96163887647467 0.0 0.0
-944.2419096181785 -74.29344005675543 -506.87690760344736 99.90504024115295 0.0 0.0
-883.8595493985184 -53.3565107174156 -465.7125467469151 102.51842761748838 0.0 0.0
-820.0182529444482 -33.63227252464408 -423.1200193415287 104.0619740436369 0.0 0.0
-752.5564590032998 -15.915193082223631 -378.7551528353011 103.5181338016616 0.0 0.0
-679.927216000712 -0.16182472132621228 -329.0662208417879 100.8230076569853 0.0 0.0
-597.2499867214134 15.112377398072432 -263.18825052758723 99.40012710153644 0.0 0.0
-497.8251164395368 25.887922804534938 -181.66561989964327 107.73993392051347 0.0 0.0
-383.6582004812713 28.307776342660347 -114.12262687104865 126.80735189527445 0.0 0.0
-281.6300667002705 16.29729549078815 -80.05387371183832 139.5043606867239 0.0 0.0
-196.31586563374617 2.234097070972397 -58.22234346301247 148.1588107113607 0.0 0.0
-111.94422698536269 -29.247622659908 -42.3575548935812 137.34101070995453 0.0 0.0
-32.74734925172899 -64.125440126488 -29.0618368134651 72.27007850069987 0.0 0.0
-33.331595490541176 -37.43856275920322 -21.23104747492332 -54.88892737389642 0.0 0.0
-120.07305634766841 -21.088408892012417 -42.34843957190425 -113.80609215327907 0.0 0.0
-220.57304239062233 1.2717723973356216 -65.78962051389688 -125.4179559370869 0.0 0.0
-323.5793889388403 15.236659398749133 -93.14078433033525 -115.63539962867154 0.0 0.0
-438.58900345915123 28.742598751448064 -137.0356804916151 -97.4994589206731 0.0 0.0
-546.338459796928 25.13441858062759 -213.53974647040377 -79.16136735795885 0.0 0.0
-635.2028662690365 14.188274678670467 -290.77550997333196 -75.6343715639547 0.0 0.0
-713.9967854338925 0.11951687540368994 -349.0986757177744 -79.09651223304849 0.0 0.0
-787.5417953223283 -17.458107169108672 -398.0507187273729 -82.40572482846643 0.0 0.0
-858.1803298691065 -38.710472973331804 -445.2053501719619 -83.35276240481507 0.0 0.0
-926.0371370575208 -62.35254146912172 -491.59702443587355 -82.33775083463541 0.0 0.0
-991.1930990118287 -87.69775437210586 -537.2717021375129 -80.4033807869471 0.0 0.0
-1053.4383643775457 -113.76043834287037 -581.7396667909125 -78.11772440310955 0.0 0.0
-1113.8736371666569 -140.886400369965 -625.7229097871814 -75.7183382836726 0.0 0.0
-1176.3106002772106 -172.8595886083516 -672.973262932524 -74.00863830455789 0.0 0.0
-1249.3441693550185 -219.35772503676446 -732.6757956380477 -74.4258032930525 0.0 0.0
-1339.9189511364482 -288.4330885325727 -812.4802716705626 -77.35874410737013 0.0 0.0
-1440.7443331294921 -375.8323817974474 -906.6513585256278 -81.21650215619547 0.0 0.0
-1538.3238308990344 -472.7801521387407 -1004.0044992366904 -85.33205013140169 0.0 0.0
-1614.5518587394315 -569.648480777617 -1090.7190075624267 -92.78331238280325 0.0 0.0
-1614.5518587391068 -569.6484807774445 -1090.7190075621997 92.78331238321357 0.0 0.0
-1538.3238308972386 -472.78015213689486 -1004.0044992354142 85.33205013109631 0.0 0.0
-1440.744333128424 -375.8323817964677 -906.6513585247626 81.21650215636073 0.0 0.0
-1339.9189511368374 -288.4330885330836 -812.4802716706413 77.35874410735839 0.0 0.0
-1249.3441693541038 -219.35772503602487 -732.6757956372602 74.42580329324159 0.0 0.0
-1176.3106002764443 -172.85958860774647 -672.9732629318515 74.00863830458968 0.0 0.0
-1113.8736371645757 -140.88640036803776 -625.7229097857851 75.71833828368554 0.0 0.0
-1053.4383643768347 -113.76043834233211 -581.739666790425 78.11772440302894 0.0 0.0
-991.1930990121872 -87.69775437269251 -537.2717021376783 80.4033807868813 0.0 0.0
-926.0371370573869 -62.35254146922048 -491.59702443575753 82.3377508345623 0.0 0.0
-858.1803298692445 -38.71047297381767 -445.20535017204867 83.35276240492854 0.0 0.0
-787.5417953226882 -17.45810716977067 -398.0507187276821 82.40572482844013 0.0 0.0
-713.9967854335516 0.11951687548125278 -349.09867571755956 79.0965122329218 0.0 0.0
-635.2028662680593 14.188274679430641 -290.77550997263245 75.63437156378541 0.0 0.0
-546.3384597959761 25.134418581247765 -213.5397464697337 79.16136735800401 0.0 0.0
-438.58900345914003 28.742598750818225 -137.0356804916903 97.4994589207513 0.0 0.0
-323.57938893849246 15.236659398731526 -93.14078433024909 115.63539962865786 0.0 0.0
-220.57304239033866 1.2717723977945976 -65.78962051367499 125.41795593699366 0.0 0.0
-120.07305634752645 -21.088408891866166 -42.34843957181778 113.80609215306558 0.0 0.0
-33.331595490408745 -37.438562759136175 -21.231047474863473 54.88892737367865 0.0 0.0
-33.06548134588501 -17.089945929339173 -15.046628182567254 -37.122479632099534 0.0 0.0
-126.39240529440141 -12.732952875409246 -41.73760745094319 -87.03421426530929 0.0 0.0
-243.97271510421342 -0.09352835049596031 -73.21987303641279 -98.11385126676018 0.0 0.0
-365.54443187296084 15.619925912200664 -106.11643481343921 -87.89871779840797 0.0 0.0
-485.8518948708798 27.566673454406686 -161.47923928041882 -67.04456632636779 0.0 0.0
-584.0510626842706 23.433582157330754 -242.3270546885151 -53.94258903881532 0.0 0.0
-665.6195643112918 13.84389635578161 -311.999339723263 -53.566061397122134 0.0 0.0
-741.7367496850627 0.860096885821406 -364.46623787607837 -57.33634937495226 0.0 0.0
-816.9602582889362 -19.062313968526922 -414.2184149532721 -60.687612047522585 0.0 0.0
-890.8882280053454 -43.58035778893202 -464.3346341955285 -61.89457861159891 0.0 0.0
-962.9549261046808 -71.10069902291383 -514.6600121839972 -61.37515014572257 0.0 0.0
-1032.7696485947095 -100.7663070467149 -564.7639010880825 -60.09790611480307 0.0 0.0
-1100.7447863430866 -131.90500037700156 -614.5852660941271 -58.57750776638996 0.0 0.0
-1167.23424938489 -164.83224770156463 -664.4782886106498 -56.60432430961736 0.0 0.0
-1234.5617994537918 -201.20165106741524 -716.3971157188864 -54.256194729237166 0.0 0.0
-1309.7662439791104 -248.75435780926705 -777.7014457931496 -52.85400837111635 0.0 0.0
-1403.7173415848197 -320.24903356355435 -860.315242047931 -54.708488342076635 0.0 0.0
-1520.3500873094195 -422.597799591554 -969.8493372427008 -60.336898436787244 0.0 0.0
-1631.3387859722593 -532.291391056266 -1080.3113066968342 -68.91076605682326 0.0 0.0
-1716.583193933937 -636.860944967541 -1175.3863186375524 -82.00972401651903 0.0 0.0
-1716.583193934191 -636.8609449679044 -1175.3863186377016 82.00972401685316 0.0 0.0
-1631.338785971989 -532.2913910560403 -1080.3113066967965 68.91076605682454 0.0 0.0
-1520.350087309279 -422.59779959149233 -969.8493372429089 60.336898436755874 0.0 0.0
-1403.717341583961 -320.2490335627777 -860.3152420473251 54.70848834205817 0.0 0.0
-1309.7662439780963 -248.75435780840252 -777.7014457924754 52.85400837116186 0.0 0.0
-1234.561799452626 -201.20165106635613 -716.3971157181202 54.25619472912118 0.0 0.0
-1167.2342493845092 -164.83224770135837 -664.4782886103868 56.60432430955477 0.0 0.0
-1100.7447863436337 -131.9050003777297 -614.58526609442 58.57750776625311 0.0 0.0
-1032.769648593838 -100.76630704604081 -564.7639010875329 60.097906114685784 0.0 0.0
-962.9549261030768 -71.10069902150445 -514.6600121829252 61.37515014557852 0.0 0.0
-890.8882280045528 -43.580357788450044 -464.33463419497673 61.8945786117135 0.0 0.0
-816.9602582879864 -19.062313967862067 -414.2184149525606 60.68761204750143 0.0 0.0
-741.7367496851357 0.8600968854293427 -364.4662378760912 57.33634937493936 0.0 0.0
-665.6195643112414 13.843896355479458 -311.9993397231697 53.56606139708389 0.0 0.0
-584.0510626837037 23.433582157552912 -242.32705468803113 53.942589038726496 0.0 0.0
-485.85189487059034 27.566673454393097 -161.4792392801952 67.04456632618322 0.0 0.0
-365.5444318726455 15.619925912233205 -106.11643481334993 87.89871779828296 0.0 0.0
-243.9727151039615 -0.09352835036358798 -73.21987303629751 98.11385126673883 0.0 0.0
-126.39240529424768 -12.732952875306761 -41.73760745086632 87.03421426530929 0.0 0.0
-33.06548134573142 -17.089945929261912 -15.046628182497997 37.1224796320483 0.0 0.0
-30.62175311710277 -3.4828811441054905 -10.231390278362477 -19.486078227740705 0.0 0.0
-129.1888225563266 -4.838189207214585 -40.208103529062356 -56.98415691633814 0.0 0.0
-267.00139628954355 -1.4892587838210876 -80.54719652200936 -65.76501479656963 0.0 0.0
-408.35720297194894 17.062848247439483 -120.05728601297457 -56.446548656557 0.0 0.0
-524.3775485417838 25.958910658834217 -186.1536732636529 -38.5065571181527 0.0 0.0
-612.0365358169463 20.712864202647836 -266.95588415945116 -31.186171142363524 0.0 0.0
-689.40300212343 14.675382633718613 -327.30685002714506 -32.25799145676947 0.0 0.0
-764.7453559303937 1.0497857505919228 -377.07889802638306 -35.48433864244911 0.0 0.0
-841.3699417477156 -20.459669831150393 -427.593011959745 -38.35204891357207 0.0 0.0
-918.7909085870372 -48.193735404462046 -480.8591457019688 -39.6437555568581 0.0 0.0
-995.2129074373202 -79.62491986337363 -535.2409308316131 -39.61712685585012 0.0 0.0
-1070.0721741770294 -113.499262185025 -589.9203514500267 -38.9989978073035 0.0 0.0
-1143.7153797007913 -150.07688736696466 -645.2503269310265 -38.11163784204593 0.0 0.0
-1217.2290841446343 -189.45173659717926 -701.847819787317 -36.810893764165876 0.0 0.0
-1291.387437349876 -232.32259481000398 -760.4534996566645 -34.71782666849583 0.0 0.0
-1368.0072287360842 -281.04903524166923 -823.124837021837 -32.10520684213206 0.0 0.0
-1455.283285529331 -345.18890417387564 -898.706030716877 -31.672589686575243 0.0 0.0
-1568.7873151869762 -443.0000734942186 -1004.23857143739 -37.7558187480184 0.0 0.0
-1726.3879391342666 -597.1798504955248 -1160.27644727305 -51.57616117688972 0.0 0.0
-1831.761542546845 -719.7076316940248 -1274.4340587532868 -71.90388909663183 0.0 0.0
-1831.7615425478095 -719.7076316950045 -1274.4340587539457 71.90388909667533 0.0 0.0
-1726.387939134963 -597.1798504963322 -1160.276447273537 51.57616117720115 0.0 0.0
-1568.787315186103 -443.00007349339353 -1004.2385714366089 37.75581874778962 0.0 0.0
-1455.2832855285153 -345.1889041731636 -898.7060307159899 31.672589686613406 0.0 0.0
-1368.0072287348278 -281.0490352405409 -823.1248370208033 32.105206842025396 0.0 0.0
-1291.3874373505305 -232.32259481082355 -760.4534996570633 34.717826668611025 0.0 0.0
-1217.229084144732 -189.4517365974745 -701.8478197872273 36.81089376420984 0.0 0.0
-1143.7153796999114 -150.07688736631957 -645.25032693033 38.111637842152156 0.0 0.0
-1070.0721741767688 -113.49926218504375 -589.9203514497808 38.99899780749992 0.0 0.0
-995.2129074362684 -79.62491986254174 -535.2409308308715 39.617126855648294 0.0 0.0
-918.7909085860744 -48.19373540374038 -480.85914570132616 39.64375555661089 0.0 0.0
-841.369941748062 -20.459669831808 -427.5930119599208 38.35204891371018 0.0 0.0
-764.7453559297583 1.0497857509196962 -377.0788980259437 35.48433864247271 0.0 0.0
-689.4030021228116 14.675382634020103 -327.30685002669134 32.25799145667954 0.0 0.0
-612.0365358160601 20.712864203263578 -266.9558841588159 31.186171142171673 0.0 0.0
-524.3775485408934 25.958910659498308 -186.1536732630305 38.50655711803778 0.0 0.0
-408.3572029717908 17.062848246985123 -120.05728601305127 56.446548656585236 0.0 0.0
-267.00139628950546 -1.4892587842928062 -80.54719652213949 65.76501479661233 0.0 0.0
-129.18882255625218 -4.838189207329078 -40.208103529074364 56.98415691627835 0.0 0.0
-30.621753116960797 -3.482881144033967 -10.231390278298427 19.486078227719357 0.0 0.0
-23.449021074364644 3.091052778399112 -6.10739048878966 -3.2790309015305286 0.0 0.0
-125.23095769874902 1.6948256229063254 -37.0608396227528 -23.047435464884636 0.0 0.0
-291.1311450221716 -2.046699453931918 -87.95335334283105 -27.32820844920402 0.0 0.0
-448.1220151807282 19.12851051031454 -135.78153949541343 -22.52185845903936 0.0 0.0
-556.2174525047983 23.693298959584745 -210.73142435906402 -13.00198321024454 0.0 0.0
-636.1473358612373 19.304843361217777 -286.9540401503883 -10.466870572098026 0.0 0.0
-708.965330350657 14.771146824627877 -339.5643241780109 -11.368970126439358 0.0 0.0
-783.3438221631789 1.1906937740450019 -387.1418225906457 -13.482425309311267 0.0 0.0
-861.5015931124706 -21.841705397720062 -438.73298575014263 -15.420884088401017 0.0 0.0
-942.3208955123912 -52.45873262464056 -494.9801727878366 -16.589472438494635 0.0 0.0
-1023.373844813041 -87.73750753438108 -553.5309216110702 -17.039763649494255 0.0 0.0
-1103.3684857923347 -126.42509885690569 -613.1475234836223 -17.02101760148851 0.0 0.0
-1182.9256139905765 -168.04443156714598 -673.9204862722943 -16.77522343513068 0.0 0.0
-1263.298120193642 -213.6251722079416 -737.0195820202694 -16.18270162310659 0.0 0.0
-1345.100173439977 -263.9367910935507 -803.1612428328744 -14.978535217658413 0.0 0.0
-1427.369807600701 -318.4151195153509 -871.5888764422579 -12.922936339534232 0.0 0.0
-1508.6855257925386 -376.54993829139596 -941.3014700586618 -10.683308700762716 0.0 0.0
-1596.6915294167425 -447.6736448024994 -1020.7118164699589 -12.976547354614702 0.0 0.0
-1725.5941627868021 -569.5896873004572 -1145.894770592969 -28.99030048169742 0.0 0.0
-2037.390369221778 -893.1295802054624 -1463.9655462558958 -59.83319018197752 0.0 0.0
-2037.3903692201209 -893.129580203814 -1463.9655462545327 59.83319018195424 0.0 0.0
-1725.5941627848986 -569.5896872986137 -1145.8947705913365 28.9903004817905 0.0 0.0
-1596.691529416472 -447.67364480230776 -1020.7118164696321 12.976547354420013 0.0 0.0
-1508.6855257926886 -376.5499382916697 -941.301470058726 10.683308700905929 0.0 0.0
-1427.3698076006754 -318.41511951545766 -871.5888764421487 12.922936339359627 0.0 0.0
-1345.1001734389888 -263.9367910927161 -803.1612428321774 14.978535217616045 0.0 0.0
-1263.2981201932819 -213.62517220775698 -737.0195820201067 16.182701623072827 0.0 0.0
-1182.9256139904703 -168.04443156726018 -673.9204862722539 16.775223435261818 0.0 0.0
-1103.3684857920869 -126.42509885691247 -613.1475234834209 17.02101760150982 0.0 0.0
-1023.3738448134671 -87.73750753508156 -553.5309216113333 17.039763649407433 0.0 0.0
-942.3208955124368 -52.45873262495358 -494.9801727878455 16.589472438278975 0.0 0.0
-861.5015931126354 -21.84170539819206 -438.732985750236 15.420884088354214 0.0 0.0
-783.3438221642002 1.1906937726988076 -387.14182259127375 13.482425309328345 0.0 0.0
-708.9653303508485 14.77114682409833 -339.5643241781015 11.368970126507339 0.0 0.0
-636.1473358608171 19.304843361322924 -286.9540401500536 10.466870572209878 0.0 0.0
-556.2174525041027 23.693298960008434 -210.73142435855897 13.00198321022119 0.0 0.0
-448.12201518022 19.12851051051488 -135.78153949516621 22.521858459033222 0.0 0.0
-291.13114502196555 -2.0466994539412067 -87.953353342772 27.32820844921256 0.0 0.0
-125.23095769855547 1.6948256229282759 -37.06083962268816 23.04743546505544 0.0 0.0
-23.449021074326282 3.091052778422798 -6.107390488771044 3.279030901641551 0.0 0.0
SCALARS Strain float 6
LOOKUP_TABLE default
0.013353673607707221 -0.014424265187299334 0.0 -0.008051883892752021 0.0 0.0
0.0027400441483445732 -0.0018706637797067938 0.0 0.0013633927758278097 0.0 0.0
0.001906397168994614 -0.0007896995402772999 0.0 -3.399904838852219e-05 0.0 0.0
0.0025310265702878296 -0.0012986256963798404 0.0 -0.00025307837400462274 0.0 0.0
0.004253448971811943 -0.0027534913703077812 0.0 -0.00033920857672053994 0.0 0.0
0.007789651705832311 -0.005988587410635127 0.0 -0.000547104624257555 0.0 0.0
0.01358782059627794 -0.0115229245242352 0.0 -0.0009059284242048937 0.0 0.0
0.022049946908009356 -0.019712147972645422 0.0 -0.001472075507932824 0.0 0.0
0.033371403075310946 -0.03072857388568906 0.0 -0.0022638502802833638 0.0 0.0
0.047492545790555625 -0.04451494991951099 0.0 -0.003208336270350054 0.0 0.0
0.06418484387064709 -0.06085656727614097 0.0 -0.00418621252818846 0.0 0.0
0.08316457167978003 -0.0794780500259078 0.0 -0.005134332479388992 0.0 0.0
0.10413675665492592 -0.1000865100236914 0.0 -0.0060581967945597115 0.0 0.0
0.12676003236328237 -0.12233628703516164 0.0 -0.006940526595955898 0.0 0.0
0.1505310992171609 -0.14572121256460413 0.0 -0.00772287268967653 0.0 0.0
0.17466071303103456 -0.16945682220992353 0.0 -0.00823832522915785 0.0 0.0
0.19803016940880944 -0.1924378979922725 0.0 -0.008225809056474687 0.0 0.0
0.21923591651503518 -0.21327244121437872 0.0 -0.007498086116582647 0.0 0.0
0.23661421790835543 -0.23029010097967806 0.0 -0.006592691229635461 0.0 0.0
0.24759522827262204 -0.24066475888662886 0.0 -0.008340926398845316 0.0 0.0
0.2475952282726026 -0.2406647588866182 0.0 0.008340926398858306 0.0 0.0
0.23661421790830517 -0.23029010097963898 0.0 0.0065926912296618845 0.0 0.0
0.2192359165149483 -0.21327244121431033 0.0 0.007498086116602742 0.0 0.0
0.1980301694086995 -0.19243789799217303 0.0 0.008225809056485067 0.0 0.0
0.17466071303091624 -0.16945682220980984 0.0 0.008238325229147136 0.0 0.0
0.15053109921703822 -0.1457212125644869 0.0 0.007722872689671867 0.0 0.0
0.12676003236316047 -0.12233628703504307 0.0 0.006940526595956453 0.0 0.0
0.10413675665480537 -0.1000865100235746 0.0 0.006058196794559989 0.0 0.0
0.08316457167966584 -0.07947805002579234 0.0 0.005134332479382553 0.0 0.0
0.0641848438705454 -0.060856567276039275 0.0 0.004186212528181188 0.0 0.0
0.04749254579046974 -0.044514949919426616 0.0 0.0032083362703394513 0.0 0.0
0.03337140307524422 -0.030728573885623778 0.0 0.00226385028027809 0.0 0.0
0.022049946907960805 -0.01971214797259835 0.0 0.0014720755079286052 0.0 0.0
0.013587820596244582 -0.011522924524203004 0.0 0.0009059284242011745 0.0 0.0
0.007789651705812972 -0.005988587410616697 0.0 0.0005471046242568889 0.0 0.0
0.004253448971803131 -0.002753491370297345 0.0 0.000339208576720762 0.0 0.0
0.0025310265702851442 -0.0012986256963773979 0.0 0.0002530783740037901 0.0 0.0
0.001906397168993934 -0.0007896995402758566 0.0 3.399904838718992e-05 0.0 0.0
0.002740044148342391 -0.0018706637797047398 0.0 -0.0013633927758242015 0.0 0.0
0.013353673607695737 -0.014424265187284877 0.0 0.008051883892714884 0.0 0.0
0.009614477737666965 -0.011062012130212462 0.0 -0.009848015958718481 0.0 0.0
0.0014605163461294743 -0.0009347470610309161 0.0 0.000120616041667021 0.0 0.0
0.0016194136723503769 -0.0005654242212712601 0.0 -0.0001245486214804803 0.0 0.0
0.002193207292383585 -0.00106227058406283 0.0 -0.0005212934876801523 0.0 0.0
0.0035739250785810153 -0.0021745520802607388 0.0 -0.0007472093483948394 0.0 0.0
0.006614955050061627 -0.004898966077433453 0.0 -0.0012536334928484605 0.0 0.0
0.011794746933545923 -0.00979298637972148 0.0 -0.0021432298116542126 0.0 0.0
0.019451976632976688 -0.017171270167039676 0.0 -0.003463827197301539 0.0 0.0
0.0297080380513811 -0.027130413918097673 0.0 -0.005216313273825768 0.0 0.0
0.04245179282794062 -0.03955813554893828 0.0 -0.007231816180603978 0.0 0.0
0.057448718726789076 -0.054230403660621374 0.0 -0.0092864369494714 0.0 0.0
0.07445700305414268 -0.0709099122797694 0.0 -0.011257125919145239 0.0 0.0
0.09325088505786806 -0.08936935557992554 0.0 -0.013192730705814282 0.0 0.0
0.11354842609842142 -0.10932493716164604 0.0 -0.015083254690246684 0.0 0.0
0.1349190488712066 -0.13034537042556238 0.0 -0.016776478611633727 0.0 0.0
0.15669720079072424 -0.15176733895470296 0.0 -0.017949509810311848 0.0 0.0
0.17791867006765533 -0.17263063304848458 0.0 -0.018122186825367592 0.0 0.0
0.19727968529916026 -0.191629795769642 0.0 -0.01704953946195975 0.0 0.0
0.21295809486121148 -0.20689224167780385 0.0 -0.01520396184818451 0.0 0.0
0.2224099738178311 -0.21602548440994784 0.0 -0.012420406069232559 0.0 0.0
0.22240997381781313 -0.21602548440993719 0.0 0.01242040606926198 0.0 0.0
0.21295809486116526 -0.20689224167775677 0.0 0.015203961848231917 0.0 0.0
0.19727968529908396 -0.1916297957695603 0.0 0.017049539461993835 0.0 0.0
0.1779186700675604 -0.17263063304838955 0.0 0.018122186825384246 0.0 0.0
0.15669720079061772 -0.15176733895459815 0.0 0.0179495098103013 0.0 0.0
0.13491904887109746 -0.13034537042545047 0.0 0.01677647861162357 0.0 0.0
0.11354842609831117 -0.10932493716153502 0.0 0.0150832546902403 0.0 0.0
0.09325088505776108 -0.08936935557982029 0.0 0.013192730705807842 0.0 0.0
0.07445700305404085 -0.07090991227966592 0.0 0.011257125919134192 0.0 0.0
0.05744871872669771 -0.054230403660530335 0.0 0.009286436949459631 0.0 0.0
0.04245179282786404 -0.039558135548865 0.0 0.007231816180586659 0.0 0.0
0.029708038051320662 -0.027130413918039498 0.0 0.005216313273817774 0.0 0.0
0.01945197663293219 -0.017171270166992603 0.0 0.0034638271972936563 0.0 0.0
0.011794746933516675 -0.009792986379691282 0.0 0.002143229811648606 0.0 0.0
0.0066149550500444465 -0.004898966077414801 0.0 0.0012536334928440196 0.0 0.0
0.0035739250785742915 -0.0021745520802558538 0.0 0.0007472093483913977 0.0 0.0
0.0021932072923816492 -0.001062270584063163 0.0 0.0005212934876809294 0.0 0.0
0.0016194136723500785 -0.0005654242212714822 0.0 0.00012454862148142398 0.0 0.0
0.0014605163461289261 -0.0009347470610288067 0.0 -0.00012061604166940798 0.0 0.0
0.009614477737652671 -0.011062012130196357 0.0 0.009848015958686784 0.0 0.0
0.0071910790286617565 -0.008824280079023472 0.0 -0.009179977462586364 0.0 0.0
0.0008504901091840253 -0.0006152838219211088 0.0 -0.0006140046204877736 0.0 0.0
0.0012936083131190532 -0.0004101491259591583 0.0 -0.0004462746993107447 0.0 0.0
0.0018771971767472112 -0.0008464154876373087 0.0 -0.0007667152254352549 0.0 0.0
0.0029684278080263984 -0.0016865173859728078 0.0 -0.0010813532194670072 0.0 0.0
0.0054899257314268216 -0.0038780265991233964 0.0 -0.0017715981674530368 0.0 0.0
0.010016805135172654 -0.008090206108287479 0.0 -0.0030588814166045974 0.0 0.0
0.01682205738942002 -0.014612313498465479 0.0 -0.0049879759582811545 0.0 0.0
0.025970438829418574 -0.023471024067929225 0.0 -0.007490185748420863 0.0 0.0
0.0373092151971252 -0.034513481156487114 0.0 -0.010325917951717722 0.0 0.0
0.05060183268819976 -0.04750698269621578 0.0 -0.013215970396899535 0.0 0.0
0.06563704865198956 -0.06224122329039883 0.0 -0.016003614463100668 0.0 0.0
0.08223611786543059 -0.07853583230369843 0.0 -0.018722470593131868 0.0 0.0
0.10018539538906725 -0.09617618889825597 0.0 -0.02139104951625387 0.0 0.0
0.11914641903177997 -0.11482418820575102 0.0 -0.02382456604842803 0.0 0.0
0.1385850237816104 -0.13394380473581258 0.0 -0.0255801839176496 0.0 0.0
0.15768611186920978 -0.1527146374600088 0.0 -0.02608820733381778 0.0 0.0
0.17522009280211592 -0.16989137283139755 0.0 -0.024949296698726586 0.0 0.0
0.18940865032575965 -0.18373028333777874 0.0 -0.021682465651781002 0.0 0.0
0.19824527701720696 -0.19231091846326454 0.0 -0.015230002497637063 0.0 0.0
0.19824527701719144 -0.192310918463253 0.0 0.015230002497682471 0.0 0.0
0.1894086503257175 -0.18373028333774144 0.0 0.021682465651845728 0.0 0.0
0.17522009280204964 -0.16989137283133537 0.0 0.02494929669877788 0.0 0.0
0.1576861118691263 -0.1527146374599324 0.0 0.026088207333836877 0.0 0.0
0.13858502378151655 -0.13394380473573264 0.0 0.025580183917637722 0.0 0.0
0.11914641903168355 -0.11482418820565687 0.0 0.02382456604841998 0.0 0.0
0.10018539538896837 -0.09617618889816049 0.0 0.021391049516247596 0.0 0.0
0.0822361178653373 -0.07853583230360606 0.0 0.018722470593125484 0.0 0.0
0.06563704865190001 -0.0622412232903069 0.0 0.01600361446308174 0.0 0.0
0.05060183268811902 -0.04750698269613585 0.0 0.013215970396880161 0.0 0.0
0.03730921519705721 -0.03451348115642228 0.0 0.010325917951691133 0.0 0.0
0.025970438829364673 -0.023471024067879043 0.0 0.007490185748406986 0.0 0.0
0.016822057389380418 -0.014612313498431284 0.0 0.004987975958270274 0.0 0.0
0.010016805135147355 -0.008090206108264164 0.0 0.0030588814165961598 0.0 0.0
0.005489925731412326 -0.003878026599111628 0.0 0.001771598167447097 0.0 0.0
0.0029684278080214233 -0.0016865173859696991 0.0 0.0010813532194636766 0.0 0.0
0.0018771971767461704 -0.0008464154876358654 0.0 0.0007667152254341447 0.0 0.0
0.0012936083131191434 -0.0004101491259601575 0.0 0.0004462746993093569 0.0 0.0
0.0008504901091840877 -0.0006152838219197765 0.0 0.0006140046204879401 0.0 0.0
0.0071910790286477955 -0.008824280079007724 0.0 0.009179977462562161 0.0 0.0
0.005477118600584405 -0.007131942694580284 0.0 -0.007827374884013083 0.0 0.0
0.0005301448798805536 -0.00045767421271936115 0.0 -0.0012251484178980587 0.0 0.0
0.0010013792491181117 -0.0002991749736513949 0.0 -0.0008847598296298775 0.0 0.0
0.0015781973819837813 -0.0006658127597134467 0.0 -0.0010402093570822668 0.0 0.0
0.002434641866859752 -0.0012896470566066132 0.0 -0.0013702631704757273 0.0 0.0
0.004450882215062721 -0.00296621886020465 0.0 -0.0021287953938989856 0.0 0.0
0.008271877781157011 -0.006447498986849709 0.0 -0.0036634079256354646 0.0 0.0
0.014192902352397604 -0.01206768662947555 0.0 -0.0060386301990300595 0.0 0.0
0.02219815469704506 -0.019792853078327344 0.0 -0.009076820881880332 0.0 0.0
0.03210907868362324 -0.02942630443030314 0.0 -0.012497366125505338 0.0 0.0
0.04368540633239408 -0.04072812405898052 0.0 -0.015978067444497424 0.0 0.0
0.056740122649792335 -0.05350924892511255 0.0 -0.019359126296153828 0.0 0.0
0.07113829824802295 -0.06763331846421661 0.0 -0.02267140901799919 0.0 0.0
0.08672630493555958 -0.08294505113637829 0.0 -0.02588562398808708 0.0 0.0
0.10325735670765059 -0.09920029921014972 0.0 -0.028827487643155958 0.0 0.0
0.12033419472435727 -0.1159960619052205 0.0 -0.031093507237865303 0.0 0.0
0.13729331634814188 -0.13265414655368968 0.0 -0.03204061144787329 0.0 0.0
0.1530500434792173 -0.14808901692375986 0.0 -0.03090298587730822 0.0 0.0
0.1660670052666121 -0.16079663603141459 0.0 -0.026530888011450204 0.0 0.0
0.1746566198827861 -0.16915605510975507 0.0 -0.01750063682096903 0.0 0.0
0.17465661988277242 -0.16915605510974085 0.0 0.017500636821030424 0.0 0.0
0.16606700526657406 -0.1607966360313764 0.0 0.026530888011524922 0.0 0.0
0.15305004347915982 -0.14808901692369947 0.0 0.03090298587736573 0.0 0.0
0.13729331634806904 -0.1326541465536195 0.0 0.03204061144789727 0.0 0.0
0.12033419472427603 -0.11599606190513434 0.0 0.031093507237857088 0.0 0.0
0.10325735670756597 -0.09920029921006357 0.0 0.028827487643143135 0.0 0.0
0.08672630493547417 -0.08294505113629436 0.0 0.025885623988076922 0.0 0.0
0.07113829824794188 -0.06763331846413356 0.0 0.022671409017987587 0.0 0.0
0.056740122649715174 -0.053509248925037944 0.0 0.019359126296132567 0.0 0.0
0.043685406332324206 -0.040728124058919235 0.0 0.015978067444471944 0.0 0.0
0.03210907868356433 -0.02942630443025296 0.0 0.012497366125474696 0.0 0.0
0.022198154696998207 -0.019792853078280714 0.0 0.00907682088186379 0.0 0.0
0.014192902352363479 -0.012067686629437357 0.0 0.006038630199016515 0.0 0.0
0.008271877781135084 -0.006447498986825728 0.0 0.003663407925628026 0.0 0.0
0.004450882215051466 -0.002966218860193104 0.0 0.002128795393892491 0.0 0.0
0.00243464186685588 -0.0012896470566001739 0.0 0.0013702631704755053 0.0 0.0
0.0015781973819832262 -0.0006658127597110042 0.0 0.0010402093570814341 0.0 0.0
0.0010013792491182505 -0.00029917497365161694 0.0 0.0008847598296282122 0.0 0.0
0.0005301448798806785 -0.0004576742127175848 0.0 0.001225148417897004 0.0 0.0
0.005477118600571984 -0.0071319426945668715 0.0 0.007827374883992877 0.0 0.0
0.0041593963487513985 -0.005748027535189715 0.0 -0.006424960965491167 0.0 0.0
0.0003530187937739043 -0.000366041483380819 0.0 -0.0017013299771951318 0.0 0.0
0.0007593794440164531 -0.00022176971977339033 0.0 -0.001327913899797195 0.0 0.0
0.0012955729478058425 -0.0005167858175452178 0.0 -0.0013465692381393057 0.0 0.0
0.00196763515733156 -0.0009752926269963602 0.0 -0.0016343853906185535 0.0 0.0
0.003516288642829088 -0.002187382317466069 0.0 -0.0023865334104953284 0.0 0.0
0.0066058961602393634 -0.00491080712261871 0.0 -0.0039787696899643565 0.0 0.0
0.011591174930580372 -0.00957338110733641 0.0 -0.006575558122331737 0.0 0.0
0.018429837377555797 -0.016135832581284593 0.0 -0.009970612486451313 0.0 0.0
0.026893197451480236 -0.02434032669486319 0.0 -0.013745623767685455 0.0 0.0
0.036742105544996184 -0.03393813580286853 0.0 -0.01758425935863983 0.0 0.0
0.047808190949407206 -0.04475854925391376 0.0 -0.02132180586721938 0.0 0.0
0.05999848819553463 -0.05670502075268846 0.0 -0.024989343560269495 0.0 0.0
0.07321988886611817 -0.06968317462840368 0.0 -0.028562678713581646 0.0 0.0
0.0873045229854638 -0.08352693004571421 0.0 -0.031833160040022235 0.0 0.0
0.10197041520888953 -0.0979492843535148 0.0 -0.034435899934950776 0.0 0.0
0.116732876451766 -0.11245304769319997 0.0 -0.035790385367787225 0.0 0.0
0.13076184293387583 -0.12620112477505518 0.0 -0.034871521399259975 0.0 0.0
0.14280336973306787 -0.13796373194289657 0.0 -0.029993943538155765 0.0 0.0
0.15138146301068153 -0.14631723383712902 0.0 -0.019405809655563044 0.0 0.0
0.15138146301066957 -0.14631723383712192 0.0 0.01940580965562777 0.0 0.0
0.14280336973303415 -0.13796373194286904 0.0 0.02999394353823559 0.0 0.0
0.13076184293382667 -0.12620112477500633 0.0 0.034871521399323036 0.0 0.0
0.11673287645170391 -0.1124530476931449 0.0 0.0357903853678162 0.0 0.0
0.10197041520882 -0.09794928435345351 0.0 0.034435899934941894 0.0 0.0
0.08730452298539076 -0.08352693004564138 0.0 0.031833160040008135 0.0 0.0
0.07321988886604636 -0.06968317462833973 0.0 0.028562678713569434 0.0 0.0
0.059998488195465716 -0.05670502075262407 0.0 0.02498934356025495 0.0 0.0
0.04780819094934263 -0.044758549253850255 0.0 0.021321805867193122 0.0 0.0
0.03674210554493712 -0.03393813580281391 0.0 0.017584259358614074 0.0 0.0
0.026893197451430206 -0.024340326694813452 0.0 0.01374562376765276 0.0 0.0
0.018429837377516578 -0.016135832581244625 0.0 0.009970612486432273 0.0 0.0
0.011591174930551729 -0.009573381107310652 0.0 0.00657555812231525 0.0 0.0
0.006605896160221669 -0.004910807122604943 0.0 0.003978769689956918 0.0 0.0
0.00351628864282022 -0.0021873823174589635 0.0 0.002386533410488556 0.0 0.0
0.0019676351573290063 -0.0009752926269950279 0.0 0.0016343853906147232 0.0 0.0
0.0012955729478054678 -0.0005167858175457729 0.0 0.0013465692381362526 0.0 0.0
0.0007593794440169388 -0.00022176971977316828 0.0 0.0013279138997950857 0.0 0.0
0.00035301879377358514 -0.0003660414833788206 0.0 0.0017013299771940216 0.0 0.0
0.0041593963487411845 -0.005748027535178522 0.0 0.0064249609654758455 0.0 0.0
0.0031115022586033353 -0.004584425461223562 0.0 -0.0051873725858445074 0.0 0.0
0.00024680494236956063 -0.00030336168581546197 0.0 -0.002057396495595054 0.0 0.0
0.0005584468791510061 -0.00016393027170102936 0.0 -0.0017170855912806982 0.0 0.0
0.0010237974406222677 -0.0003893100057950072 0.0 -0.0016590058401272367 0.0 0.0
0.001559388322729588 -0.0007291452435764789 0.0 -0.0018911474149908014 0.0 0.0
0.002685635376116116 -0.0015509872877286224 0.0 -0.0025788334662529278 0.0 0.0
0.005065477194841128 -0.003539619145024986 0.0 -0.004114021695593606 0.0 0.0
0.009067028711737632 -0.00719397365161667 0.0 -0.006678813124348759 0.0 0.0
0.014700769870023389 -0.012542047508288245 0.0 -0.010147148441827791 0.0 0.0
0.021702992031638793 -0.0193001118315399 0.0 -0.01406111265630644 0.0 0.0
0.029814002866388675 -0.027183695728039137 0.0 -0.01802032628274386 0.0 0.0
0.03888620881582221 -0.03603710191214615 0.0 -0.02188237049300823 0.0 0.0
0.048863384972617246 -0.045801481802626665 0.0 -0.02568096018710242 0.0 0.0
0.05970968565199669 -0.05643765528284028 0.0 -0.02937726922906192 0.0 0.0
0.07133313296937621 -0.06785217730675352 0.0 -0.03278600058414183 0.0 0.0
0.0835413831228787 -0.07985554801095418 0.0 -0.035581401961585324 0.0 0.0
0.09603046456568365 -0.09213523145130953 0.0 -0.037238621275962336 0.0 0.0
0.10829999479196839 -0.1041733248605734 0.0 -0.03673821298082369 0.0 0.0
0.11945379062371134 -0.11507588985711781 0.0 -0.03207131099835636 0.0 0.0
0.12818866324960515 -0.12357757252606305 0.0 -0.020996751247096768 0.0 0.0
0.12818866324959538 -0.12357757252606483 0.0 0.02099675124716449 0.0 0.0
0.11945379062368253 -0.11507588985709649 0.0 0.032071310998441294 0.0 0.0
0.108299994791927 -0.10417332486052722 0.0 0.03673821298088453 0.0 0.0
0.09603046456563191 -0.0921352314512589 0.0 0.037238621275989314 0.0 0.0
0.08354138312282122 -0.0798555480108929 0.0 0.03558140196157611 0.0 0.0
0.07133313296931504 -0.06785217730669402 0.0 0.03278600058412584 0.0 0.0
0.05970968565193818 -0.056437655282779886 0.0 0.029377269229047265 0.0 0.0
0.048863384972561874 -0.04580148180257293 0.0 0.025680960187090318 0.0 0.0
0.03888620881576965 -0.03603710191209375 0.0 0.02188237049298547 0.0 0.0
0.02981400286634084 -0.02718369572799073 0.0 0.018020326282717214 0.0 0.0
0.021702992031597645 -0.019300111831498157 0.0 0.01406111265627441 0.0 0.0
0.014700769869991692 -0.012542047508264265 0.0 0.010147148441807752 0.0 0.0
0.009067028711714997 -0.007193973651598462 0.0 0.0066788131243330495 0.0 0.0
0.00506547719482725 -0.003539619145016104 0.0 0.004114021695582004 0.0 0.0
0.00268563537610933 -0.0015509872877250697 0.0 0.0025788334662448786 0.0 0.0
0.0015593883227278948 -0.0007291452435749246 0.0 0.0018911474149895247 0.0 0.0
0.0010237974406220318 -0.00038931000579578434 0.0 0.0016590058401275698 0.0 0.0
0.000558446879151131 -0.00016393027170180652 0.0 0.0017170855912783667 0.0 0.0
0.0002468049423693941 -0.00030336168581546197 0.0 0.0020573964955933888 0.0 0.0
0.003111502258594856 -0.004584425461214795 0.0 0.005187372585832406 0.0 0.0
0.0022724371374439056 -0.0035979627176468965 0.0 -0.00415648369690963 0.0 0.0
0.0001744523515672669 -0.0002560123766860434 0.0 -0.0023088447718040417 0.0 0.0
0.00038387022405619864 -0.0001147720902724414 0.0 -0.0020282292976959715 0.0 0.0
0.0007579062949922277 -0.0002717721731941847 0.0 -0.0019510418977429778 0.0 0.0
0.0011902563695368462 -0.0005305441613390194 0.0 -0.002149286137436479 0.0 0.0
0.001963122910635662 -0.0010481403143933754 0.0 -0.002716091532347531 0.0 0.0
0.003665857225836344 -0.0023647940907602916 0.0 -0.004069881606783454 0.0 0.0
0.006685772862366934 -0.00500396636354461 0.0 -0.006422877833859975 0.0 0.0
0.011066142657751465 -0.009083191154757309 0.0 -0.009659486457835986 0.0 0.0
0.016578794384621953 -0.014355359627577613 0.0 -0.013415570361543172 0.0 0.0
0.022942173315204845 -0.02051329251240741 0.0 -0.0172747470949276 0.0 0.0
0.03001951663150962 -0.02739742501101805 0.0 -0.021028488686306912 0.0 0.0
0.03778103894180754 -0.03497728152248536 0.0 -0.02471232279259128 0.0 0.0
0.04624298282151068 -0.04326352714029458 0.0 -0.02832255732986033 0.0 0.0
0.05538638779124974 -0.05223172732757764 0.0 -0.03167459138260498 0.0 0.0
0.06510369897716364 -0.061775107602964674 0.0 -0.03444209563660694 0.0 0.0
0.07522818393115582 -0.07174206284479379 0.0 -0.036266331197603696 0.0 0.0
0.085611067462037 -0.0819572894360796 0.0 -0.03637194333674865 0.0 0.0
0.09583340174490279 -0.09196363170572575 0.0 -0.032652884178481445 0.0 0.0
0.10483485578263363 -0.10071051510409745 0.0 -0.022257475124326076 0.0 0.0
0.10483485578262655 -0.10071051510407614 0.0 0.02225747512438714 0.0 0.0
0.0958334017448792 -0.09196363170569999 0.0 0.03265288417856316 0.0 0.0
0.0856110674620035 -0.08195728943605474 0.0 0.036371943336810264 0.0 0.0
0.07522818393111508 -0.07174206284476181 0.0 0.036266331197633006 0.0 0.0
0.06510369897711729 -0.061775107602930035 0.0 0.03444209563659528 0.0 0.0
0.05538638779120156 -0.05223172732753589 0.0 0.03167459138258932 0.0 0.0
0.04624298282146497 -0.0432635271402515 0.0 0.028322557329845677 0.0 0.0
0.03778103894176685 -0.03497728152244495 0.0 0.024712322792578956 0.0 0.0
0.030019516631468984 -0.02739742501097231 0.0 0.021028488686285263 0.0 0.0
0.022942173315167735 -0.02051329251237277 0.0 0.017274747094903176 0.0 0.0
0.016578794384590423 -0.014355359627543418 0.0 0.013415570361510532 0.0 0.0
0.011066142657726818 -0.009083191154725334 0.0 0.009659486457817335 0.0 0.0
0.0066857728623500035 -0.005003966363522849 0.0 0.006422877833845431 0.0 0.0
0.003665857225826019 -0.002364794090748523 0.0 0.004069881606773407 0.0 0.0
0.0019631229106316095 -0.0010481403143900447 0.0 0.0027160915323443113 0.0 0.0
0.0011902563695360135 -0.0005305441613383532 0.0 0.0021492861374343697 0.0 0.0
0.0007579062949921167 -0.00027177217319396263 0.0 0.0019510418977410904 0.0 0.0
0.00038387022405611537 -0.00011477209027122015 0.0 0.002028229297693973 0.0 0.0
0.00017445235156737793 -0.00025601237668437804 0.0 0.0023088447718016547 0.0 0.0
0.0022724371374374663 -0.003597962717639989 0.0 0.004156483696899416 0.0 0.0
0.0016120531096061597 -0.002776254622210428 0.0 -0.003335847598265329 0.0 0.0
0.00011116781701489553 -0.00021624089230254384 0.0 -0.0024600213622485434 0.0 0.0
0.00022323209647009956 -6.62884866927671e-05 0.0 -0.0022608161190522114 0.0 0.0
0.0004965097945354435 -0.00015645951682019543 0.0 -0.002196225511674421 0.0 0.0
0.0008355911464684174 -0.000355751876856214 0.0 -0.002392079911854972 0.0 0.0
0.0013402909621450243 -0.0006674664358659044 0.0 -0.0028616379819451643 0.0 0.0
0.0024259613127461666 -0.001418131364022912 0.0 -0.003921710769612563 0.0 0.0
0.004488171599631247 -0.0030758867245386234 0.0 -0.005854947296845436 0.0 0.0
0.007598529331804826 -0.00585444972646787 0.0 -0.008602307060896153 0.0 0.0
0.011577272991010495 -0.009587415214315609 0.0 -0.011863382456963056 0.0 0.0
0.016172443187632668 -0.013990344673271427 0.0 -0.015309374726915626 0.0 0.0
0.021251888432382737 -0.018901413069069672 0.0 -0.018713474063405844 0.0 0.0
0.026799751112183245 -0.02429735595307614 0.0 -0.02206169030567695 0.0 0.0
0.03286660882601122 -0.03022387382980085 0.0 -0.025346122608065014 0.0 0.0
0.0395069472034037 -0.036725913838489 0.0 -0.028450093810618915 0.0 0.0
0.0467101483150795 -0.043785685222641924 0.0 -0.03104820440186329 0.0 0.0
0.05440308793313478 -0.05135200545554941 0.0 -0.03277919260569284 0.0 0.0
0.06267460755598206 -0.059535559280400996 0.0 -0.033419181263955156 0.0 0.0
0.07173565386690073 -0.0684490677403371 0.0 -0.03138700478259171 0.0 0.0
0.08102841774461367 -0.07745802294652204 0.0 -0.02309115578149179 0.0 0.0
0.08102841774460881 -0.07745802294653004 0.0 0.023091155781547634 0.0 0.0
0.07173565386688446 -0.06844906774032467 0.0 0.03138700478266887 0.0 0.0
0.06267460755595722 -0.05953555928037613 0.0 0.033419181264015996 0.0 0.0
0.05440308793310364 -0.05135200545552632 0.0 0.03277919260571449 0.0 0.0
0.046710148315044886 -0.043785685222617055 0.0 0.031048204401845525 0.0 0.0
0.039506947203369225 -0.03672591383846324 0.0 0.02845009381060226 0.0 0.0
0.03286660882597922 -0.030223873829769765 0.0 0.025346122608053023 0.0 0.0
0.026799751112156517 -0.02429735595305127 0.0 0.022061690305673065 0.0 0.0
0.0212518884323544 -0.01890141306904436 0.0 0.018713474063386304 0.0 0.0
0.016172443187605884 -0.013990344673245225 0.0 0.01530937472689009 0.0 0.0
0.011577272990988707 -0.009587415214294293 0.0 0.011863382456934413 0.0 0.0
0.007598529331788173 -0.005854449726456767 0.0 0.008602307060878278 0.0 0.0
0.0044881715996195615 -0.0030758867245332944 0.0 0.005854947296834112 0.0 0.0
0.002425961312739644 -0.0014181313640211357 0.0 0.003921710769605347 0.0 0.0
0.0013402909621427206 -0.0006674664358647941 0.0 0.0028616379819385585 0.0 0.0
0.0008355911464680565 -0.00035575187685488174 0.0 0.002392079911852585 0.0 0.0
0.0004965097945353047 -0.00015645951681941828 0.0 0.0021962255116709795 0.0 0.0
0.00022323209646984976 -6.628848669232301e-05 0.0 0.0022608161190490472 0.0 0.0
0.00011116781701464573 -0.0002162408923018222 0.0 0.002460021362246545 0.0 0.0
0.0016120531096017743 -0.002776254622204724 0.0 0.003335847598258501 0.0 0.0
0.0011154560633783173 -0.0021203452093461195 0.0 -0.0027162095783214713 0.0 0.0
4.032621420776983e-05 -0.00018168572373911118 0.0 -0.002533250466996595 0.0 0.0
6.794413010149936e-05 -1.217901668137955e-05 0.0 -0.0024193595242606447 0.0 0.0
0.00024112911938606318 -4.271489930673944e-05 0.0 -0.002383443732609347 0.0 0.0
0.0004771901577662885 -0.00018446135089078552 0.0 -0.002593638462705272 0.0 0.0
0.0007826001325854093 -0.00037012959216298214 0.0 -0.0030256493034687693 0.0 0.0
0.0013608842767731388 -0.0007132077438232187 0.0 -0.00376736460266891 0.0 0.0
0.0025121891814748054 -0.0015022408597160641 0.0 -0.005082508315343626 0.0 0.0
0.00436099454928443 -0.002986094238576431 0.0 -0.00705855103096964 0.0 0.0
0.006771679958788773 -0.0051303500278634395 0.0 -0.009504921437707203 0.0 0.0
0.009565193127875016 -0.0077314095432328145 0.0 -0.012206774352061078 0.0 0.0
0.012626465751185312 -0.010646133152660386 0.0 -0.014979499098059179 0.0 0.0
0.015960013529304012 -0.013854827635739753 0.0 -0.01778044561378045 0.0 0.0
0.019628465008337426 -0.017416518866429698 0.0 -0.020549556944477798 0.0 0.0
0.023731654187616025 -0.021422513627833872 0.0 -0.02322340709701176 0.0 0.0
0.028378099930985834 -0.02596614238466355 0.0 -0.02559405406010662 0.0 0.0
0.03362879252766429 -0.03110044903122322 0.0 -0.02721017366806633 0.0 0.0
0.03961280818744081 -0.037025401356467924 0.0 -0.027941191810836985 0.0 0.0
0.04698293387698729 -0.044399469259225555 0.0 -0.027691163557788223 0.0 0.0
0.05635739809866852 -0.05348176417584227 0.0 -0.023186100184126257 0.0 0.0
0.0563573980986658 -0.05348176417582806 0.0 0.023186100184178215 0.0 0.0
0.04698293387697866 -0.04439946925920513 0.0 0.02769116355786183 0.0 0.0
0.03961280818742388 -0.03702540135645016 0.0 0.0279411918108875 0.0 0.0
0.03362879252764267 -0.03110044903119924 0.0 0.02721017366808043 0.0 0.0
0.0283780999309651 -0.02596614238464756 0.0 0.02559405406008919 0.0 0.0
0.023731654187595652 -0.021422513627812556 0.0 0.023223407096998994 0.0 0.0
0.01962846500832044 -0.017416518866405273 0.0 0.020549556944470804 0.0 0.0
0.015960013529290357 -0.013854827635721545 0.0 0.017780445613780782 0.0 0.0
0.012626465751169325 -0.010646133152648396 0.0 0.014979499098044635 0.0 0.0
0.009565193127859278 -0.007731409543219936 0.0 0.012206774352042538 0.0 0.0
0.006771679958776533 -0.005130350027849229 0.0 0.009504921437687441 0.0 0.0
0.004360994549275549 -0.0029860942385648848 0.0 0.007058551030955984 0.0 0.0
0.0025121891814687547 -0.0015022408597133996 0.0 0.00508250831533319 0.0 0.0
0.0013608842767696139 -0.0007132077438214424 0.0 0.0037673646026634144 0.0 0.0
0.0007826001325842435 -0.00037012959216164987 0.0 0.00302564930346394 0.0 0.0
0.00047719015776617746 -0.00018446135088856508 0.0 0.002593638462704051 0.0 0.0
0.00024112911938595216 -4.271489930585126e-05 0.0 0.0023834437326071267 0.0 0.0
6.794413010152711e-05 -1.2179016681934662e-05 0.0 0.0024193595242606447 0.0 0.0
4.032621420752003e-05 -0.00018168572374027692 0.0 0.0025332504669982603 0.0 0.0
0.001115456063375403 -0.0021203452093424384 0.0 0.002716209578318307 0.0 0.0
0.000758071268248256 -0.0016133315018827532 0.0 -0.002260235465554483 0.0 0.0
-4.1917981536576665e-05 -0.00015335639823021996 0.0 -0.002557104893990192 0.0 0.0
-8.622804527794181e-05 5.017072522184307e-05 0.0 -0.0025163162768895853 0.0 0.0
-7.676594356242905e-06 6.867078234695789e-05 0.0 -0.002510002161981495 0.0 0.0
0.00011403031576290301 -9.473679018823233e-06 0.0 -0.002716599374262718 0.0 0.0
0.0002438930473842582 -0.00010278608350144935 0.0 -0.0031651090659680636 0.0 0.0
0.0004308909372301162 -0.00021134677594636386 0.0 -0.0037653155241077485 0.0 0.0
0.0007903294226298541 -0.0003993866504825583 0.0 -0.004454943080478002 0.0 0.0
0.0014032612527028199 -0.0007538309448844593 0.0 -0.005422602958228162 0.0 0.0
0.0022135047352796478 -0.0013112659481717692 0.0 -0.006838353984902179 0.0 0.0
0.003152534105609145 -0.0020486358146754036 0.0 -0.008693634632449099 0.0 0.0
0.004163707438966657 -0.0029245943398397145 0.0 -0.01080990252655023 0.0 0.0
0.005263289303622215 -0.003925182068260202 0.0 -0.013093579040314052 0.0 0.0
0.0065132975730721465 -0.005100915017027141 0.0 -0.015508809635151888 0.0 0.0
0.008045335869363096 -0.00656980515815242 0.0 -0.01800954086349893 0.0 0.0
0.010077154909726715 -0.008531046602351822 0.0 -0.020414112535047102 0.0 0.0
0.012879073661280466 -0.01122958625347259 0.0 -0.0222419085181903 0.0 0.0
0.016656284055125203 -0.014866554560372336 0.0 -0.02282720108948333 0.0 0.0
0.021845115244951058 -0.020100930212460177 0.0 -0.022756005501246568 0.0 0.0
0.030295947098057746 -0.028531024223895862 0.0 -0.022397494001090812 0.0 0.0
0.030295947098057247 -0.028531024223894086 0.0 0.022397494001132667 0.0 0.0
0.021845115244948587 -0.02010093021245396 0.0 0.022756005501302856 0.0 0.0
0.016656284055116266 -0.014866554560361678 0.0 0.022827201089509308 0.0 0.0
0.012879073661271556 -0.01122958625346282 0.0 0.0222419085181893 0.0 0.0
0.010077154909721331 -0.00853104660234294 0.0 0.020414112535026785 0.0 0.0
0.008045335869357628 -0.006569805158150643 0.0 0.018009540863487272 0.0 0.0
0.006513297573069732 -0.005100915017024921 0.0 0.01550880963514123 0.0 0.0
0.005263289303621049 -0.00392518206825665 0.0 0.013093579040307501 0.0 0.0
0.004163707438964409 -0.0029245943398308327 0.0 0.010809902526533577 0.0 0.0
0.003152534105605037 -0.002048635814671851 0.0 0.008693634632435221 0.0 0.0
0.0022135047352769 -0.0013112659481713251 0.0 0.006838353984887968 0.0 0.0
0.001403261252700877 -0.0007538309448884561 0.0 0.005422602958222278 0.0 0.0
0.0007903294226284663 -0.00039938665048344646 0.0 0.004454943080472895 0.0 0.0
0.0004308909372293668 -0.00021134677594525364 0.0 0.0037653155241045844 0.0 0.0
0.00024389304738417494 -0.00010278608350255958 0.0 0.0031651090659644 0.0 0.0
0.00011403031576290301 -9.473679019933456e-06 0.0 0.0027165993742619965 0.0 0.0
-7.676594356326172e-06 6.867078234618074e-05 0.0 0.0025100021619781643 0.0 0.0
-8.622804527796957e-05 5.017072522284227e-05 0.0 0.0025163162768879754 0.0 0.0
-4.1917981536826465e-05 -0.00015335639823033098 0.0 0.002557104893988915 0.0 0.0
0.0007580712682463409 -0.001613331501880335 0.0 0.0022602354655503754 0.0 0.0
0.0005068877802971161 -0.0012441377580772461 0.0 -0.0019693852149496593 0.0 0.0
-0.00012727560542760696 -0.00012683933901036504 0.0 -0.0025528302984468842 0.0 0.0
-0.00023902691563992828 0.00011675113692111161 0.0 -0.002556083307798551 0.0 0.0
-0.0002500903397784082 0.000177413403958937 0.0 -0.0025671791960349966 0.0 0.0
-0.00024629672263506985 0.00016518830773715187 0.0 -0.002756748807490328 0.0 0.0
-0.00029701325818984325 0.0001634305503352973 0.0 -0.0031858989305385554 0.0 0.0
-0.00045213383094760973 0.00022853630784247514 0.0 -0.0037791239534054055 0.0 0.0
-0.0007982645842554981 0.00040528505475379006 0.0 -0.004466060829899976 0.0 0.0
-0.001403769095483287 0.0007553246058042973 0.0 -0.005427082861628185 0.0 0.0
-0.0022131731171597946 0.0013128953111460895 0.0 -0.006838511041459938 0.0 0.0
-0.003165718179326843 0.0020656344322378395 0.0 -0.008698264730451988 0.0 0.0
-0.004220102648465507 0.002980118556404676 0.0 -0.010823326521821164 0.0 0.0
-0.00536744897718186 0.0040129489043976285 0.0 -0.0131050002291353 0.0 0.0
-0.006550912273768389 0.005095491116778206 0.0 -0.015509267387348702 0.0 0.0
-0.0076052691156542895 0.006065305586417047 0.0 -0.018019340307058207 0.0 0.0
-0.00823197040254356 0.006634364433348416 0.0 -0.020577721703512797 0.0 0.0
-0.007997991862617515 0.006399704746185897 0.0 -0.023155330712730904 0.0 0.0
-0.0065363752258484065 0.005120189395593222 0.0 -0.025848984136452424 0.0 0.0
-0.003491029496808934 0.0025533346853610084 0.0 -0.02831091026754906 0.0 0.0
0.004031344501657708 -0.004586356184208107 0.0 -0.027605773338289397 0.0 0.0
0.004031344501657208 -0.004586356184218765 0.0 0.027605773338307604 0.0 0.0
-0.003491029496807685 0.002553334685345021 0.0 0.028310910267572154 0.0 0.0
-0.006536375225845548 0.005120189395589669 0.0 0.025848984136453645 0.0 0.0
-0.00799799186261027 0.006399704746175239 0.0 0.023155330712721245 0.0 0.0
-0.008231970402532679 0.0066343644333288765 0.0 0.02057772170349048 0.0 0.0
-0.007605269115645491 0.006065305586408165 0.0 0.018019340307044107 0.0 0.0
-0.006550912273756898 0.005095491116775097 0.0 0.015509267387334713 0.0 0.0
-0.005367448977170175 0.0040129489043776445 0.0 0.013105000229124752 0.0 0.0
-0.004220102648453544 0.0029801185563869126 0.0 0.010823326521802734 0.0 0.0
-0.003165718179318211 0.0020656344322271813 0.0 0.008698264730434335 0.0 0.0
-0.0022131731171519675 0.0013128953111407604 0.0 0.006838511041444617 0.0 0.0
-0.0014037690954785687 0.0007553246058060736 0.0 0.005427082861623189 0.0 0.0
-0.0007982645842530001 0.00040528505475423415 0.0 0.0044660608298982 0.0 0.0
-0.0004521338309458611 0.0002285363078458058 0.0 0.003779123953401742 0.0 0.0
-0.00029701325818939917 0.00016343055033307685 0.0 0.0031858989305347807 0.0 0.0
-0.0002462967226346813 0.00016518830773293303 0.0 0.002756748807488829 0.0 0.0
-0.00025009033977826944 0.00017741340395605043 0.0 0.002567179196032554 0.0 0.0
-0.00023902691564017808 0.0001167511369225549 0.0 0.002556083307796553 0.0 0.0
-0.00012727560542769023 -0.0001268393390101985 0.0 0.002552830298445441 0.0 0.0
0.0005068877802960337 -0.0012441377580762504 0.0 0.001969385214947661 0.0 0.0
0.0003350488328415224 -0.0009748825995595789 0.0 -0.001773395668290767 0.0 0.0
-0.00020592375579686628 -9.483582456426554e-05 0.0 -0.0025083044348622185 0.0 0.0
-0.0003874154402068175 0.00018128073494450003 0.0 -0.0025427296667765997 0.0 0.0
-0.00048495602310993924 0.0002825112180879774 0.0 -0.0025503311841600373 0.0 0.0
-0.0005992704172238794 0.00033467765455963416 0.0 -0.0027084443319251306 0.0 0.0
-0.0008351852247980573 0.00043171798234298286 0.0 -0.003092821576986926 0.0 0.0
-0.0013813264730269947 0.0007332339385266451 0.0 -0.0038098052978459696 0.0 0.0
-0.002516812689607656 0.00150869207076898 0.0 -0.005106440377518839 0.0 0.0
-0.004359263479736947 0.0029862193214160726 0.0 -0.007064691582871818 0.0 0.0
-0.0067721690625617 0.005133495036828695 0.0 -0.009506197320086951 0.0 0.0
-0.009581374856565544 0.0077525432964233865 0.0 -0.012207198086158888 0.0 0.0
-0.012679839768837048 0.010703228395515296 0.0 -0.014960826957016948 0.0 0.0
-0.016051401284110395 0.013937031144241274 0.0 -0.017718237207741128 0.0 0.0
-0.01964495765910801 0.017392150638786852 0.0 -0.02047209774680181 0.0 0.0
-0.023276502835552465 0.020881602694527324 0.0 -0.023289324412103074 0.0 0.0
-0.026580838129385526 0.0240501042340302 0.0 -0.02622444560421222 0.0 0.0
-0.029041576223889115 0.02640608496171648 0.0 -0.029377535694111057 0.0 0.0
-0.030082454415712334 0.02738159339939994 0.0 -0.032644487219647855 0.0 0.0
-0.028605867961016995 0.02564625608033655 0.0 -0.034220575142890786 0.0 0.0
-0.021169882814814384 0.01786175428469594 0.0 -0.032202147215334875 0.0 0.0
-0.021169882814815244 0.017861754284692388 0.0 0.03220214721537851 0.0 0.0
-0.028605867961012 0.025646256080318786 0.0 0.03422057514294863 0.0 0.0
-0.03008245441569768 0.02738159339937951 0.0 0.03264448721968005 0.0 0.0
-0.02904157622386691 0.0264060849616925 0.0 0.029377535694109835 0.0 0.0
-0.026580838129359075 0.02405010423400089 0.0 0.02622444560418813 0.0 0.0
-0.023276502835529456 0.020881602694502455 0.0 0.023289324412088086 0.0 0.0
-0.019644957659083084 0.01739215063876287 0.0 0.020472097746783047 0.0 0.0
-0.016051401284084887 0.013937031144212852 0.0 0.017718237207724585 0.0 0.0
-0.012679839768812012 0.010703228395490427 0.0 0.014960826956995854 0.0 0.0
-0.009581374856544117 0.007752543296406067 0.0 0.012207198086132132 0.0 0.0
-0.006772169062542882 0.0051334950368127075 0.0 0.009506197320062526 0.0 0.0
-0.004359263479725095 0.0029862193214054145 0.0 0.007064691582860383 0.0 0.0
-0.0025168126896006615 0.0015086920707658713 0.0 0.005106440377513177 0.0 0.0
-0.0013813264730225538 0.0007332339385226483 0.0 0.0038098052978386976 0.0 0.0
-0.0008351852247968916 0.0004317179823427608 0.0 0.003092821576983429 0.0 0.0
-0.00059927041722313 0.0003346776545603003 0.0 0.002708444331921911 0.0 0.0
-0.0004849560231092731 0.0002825112180863121 0.0 0.002550331184158483 0.0 0.0
-0.00038741544020667873 0.0001812807349438339 0.0 0.0025427296667762667 0.0 0.0
-0.0002059237557967275 -9.483582456526474e-05 0.0 0.0025083044348607197 0.0 0.0
0.00033504883284107834 -0.0009748825995586491 0.0 0.0017733956682892127 0.0 0.0
0.00021540939828124106 -0.000750524482713455 0.0 -0.0015790639000635709 0.0 0.0
-0.00027535112326562694 -5.7420927666362864e-05 0.0 -0.0024099199775773905 0.0 0.0
-0.0005281422771613309 0.00024110301909896492 0.0 -0.00247158792327401 0.0 0.0
-0.0007107512058247278 0.00038176458662886326 0.0 -0.002462450925413917 0.0 0.0
-0.000941453261544517 0.0004962932247862817 0.0 -0.002575166363005088 0.0 0.0
-0.0013907830255638354 0.0007317057126687843 0.0 -0.002972990449143398 0.0 0.0
-0.002441252755757989 0.001439204231703517 0.0 -0.003979744142998287 0.0 0.0
-0.0044864108022031335 0.003077600209925979 0.0 -0.00587531863914148 0.0 0.0
-0.007595292084722066 0.005852494086940663 0.0 -0.008602692819762559 0.0 0.0
-0.0115803875490042 0.009592489733969867 0.0 -0.011865100346230673 0.0 0.0
-0.016188666125927204 0.014010265509620812 0.0 -0.015302206860143053 0.0 0.0
-0.0212908235595978 0.018943935742799844 0.0 -0.018649641124396155 0.0 0.0
-0.026856666644774374 0.02434824359404253 0.0 -0.021881901520086067 0.0 0.0
-0.0328448815619429 0.030168829586180834 0.0 -0.025107431297111793 0.0 0.0
-0.03906598446999601 0.03621075190159395 0.0 -0.028557195185366036 0.0 0.0
-0.045098176731278666 0.04206396399000312 0.0 -0.032527108220374745 0.0 0.0
-0.05029104490255201 0.04708900160143514 0.0 -0.037151715177862754 0.0 0.0
-0.05363765069361162 0.050222612022967184 0.0 -0.04158010390312805 0.0 0.0
-0.053199680857945186 0.04949990327374909 0.0 -0.04376100394838611 0.0 0.0
-0.044916402914541353 0.04048036310252101 0.0 -0.03962832718550546 0.0 0.0
-0.04491640291453963 0.04048036310252012 0.0 0.03962832718555831 0.0 0.0
-0.053199680857934806 0.0494999032737411 0.0 0.04376100394845672 0.0 0.0
-0.053637650693588695 0.050222612022947644 0.0 0.041580103903176346 0.0 0.0
-0.05029104490251765 0.0470890016014085 0.0 0.037151715177871525 0.0 0.0
-0.04509817673123884 0.04206396398997203 0.0 0.03252710822035554 0.0 0.0
-0.03906598446995832 0.036210751901563754 0.0 0.02855719518534594 0.0 0.0
-0.03284488156190496 0.030168829586150192 0.0 0.025107431297091476 0.0 0.0
-0.02685666664473496 0.024348243594009222 0.0 0.02188190152006897 0.0 0.0
-0.021290823559560718 0.018943935742766982 0.0 0.018649641124372174 0.0 0.0
-0.01618866612589384 0.014010265509584396 0.0 0.01530220686011341 0.0 0.0
-0.01158038754897528 0.009592489733941445 0.0 0.011865100346198476 0.0 0.0
-0.00759529208470161 0.005852494086923787 0.0 0.00860269281974313 0.0 0.0
-0.004486410802190921 0.0030776002099091038 0.0 0.005875318639131599 0.0 0.0
-0.0024412527557506336 0.0014392042316955234 0.0 0.003979744142987185 0.0 0.0
-0.0013907830255610043 0.0007317057126670079 0.0 0.0029729904491377357 0.0 0.0
-0.000941453261543379 0.0004962932247847274 0.0 0.0025751663630016464 0.0 0.0
-0.0007107512058240617 0.0003817645866286412 0.0 0.0024624509254123073 0.0 0.0
-0.0005281422771608035 0.00024110301909896492 0.0 0.0024715879232729554 0.0 0.0
-0.00027535112326548816 -5.742092766614082e-05 0.0 0.002409919977576669 0.0 0.0
0.00021540939828110228 -0.0007505244827126362 0.0 0.0015790639000606288 0.0 0.0
0.0001222221526340217 -0.0005521843693160888 0.0 -0.001372266927378074 0.0 0.0
-0.00033755133235330304 -1.4638859080928768e-05 0.0 -0.002256070349241246 0.0 0.0
-0.0006599208924624178 0.0002960669804166205 0.0 -0.002347164292246351 0.0 0.0
-0.0009262549816063115 0.0004729685184481358 0.0 -0.0023125408481312615 0.0 0.0
-0.0012757289004919348 0.0006584720858917592 0.0 -0.002386307962825629 0.0 0.0
-0.002006653602204145 0.0011110715000142157 0.0 -0.0028532647143801326 0.0 0.0
-0.003670252725033185 0.002379066288907161 0.0 -0.004123506294060386 0.0 0.0
-0.006678533076155735 0.0049986883062485 0.0 -0.0064288196754711535 0.0 0.0
-0.011064162004822853 0.009081680346326504 0.0 -0.00965663714190046 0.0 0.0
-0.01658515734388899 0.014362848248992144 0.0 -0.013418077051320032 0.0 0.0
-0.022954557375049423 0.02052751530012875 0.0 -0.017259611304755507 0.0 0.0
-0.03003104804955492 0.02741112616123509 0.0 -0.02092408216575592 0.0 0.0
-0.037776951074287635 0.03497109635390094 0.0 -0.024423864160020514 0.0 0.0
-0.04616236366208645 0.043163922385558884 0.0 -0.02792101887570375 0.0 0.0
-0.05500800013481755 0.051802179268481297 0.0 -0.03177502032501045 0.0 0.0
-0.06384331300650112 0.060412252846471226 0.0 -0.036456701027487215 0.0 0.0
-0.0717572101426559 0.06807490359957313 0.0 -0.04201660850859201 0.0 0.0
-0.07716161102331445 0.07318285108816536 0.0 -0.04732606951856111 0.0 0.0
-0.07732189558925268 0.07289945309477996 0.0 -0.04954386135013733 0.0 0.0
-0.06720325373156735 0.06211270217090714 0.0 -0.04543386832846197 0.0 0.0
-0.067203253731562 0.06211270217090803 0.0 0.04543386832851981 0.0 0.0
-0.07732189558923597 0.07289945309476664 0.0 0.04954386135021338 0.0 0.0
-0.07716161102328353 0.0731828510881325 0.0 0.04732606951861995 0.0 0.0
-0.07175721014261102 0.06807490359952251 0.0 0.042016608508608666 0.0 0.0
-0.06384331300644955 0.06041225284641971 0.0 0.036456701027474225 0.0 0.0
-0.055008000134766144 0.05180217926842712 0.0 0.03177502032499113 0.0 0.0
-0.04616236366203488 0.04316392238550959 0.0 0.027921018875680437 0.0 0.0
-0.03777695107423487 0.03497109635385476 0.0 0.024423864159999753 0.0 0.0
-0.03003104804950546 0.027411126161184463 0.0 0.02092408216573116 0.0 0.0
-0.022954557375004986 0.020527515300079013 0.0 0.017259611304723643 0.0 0.0
-0.016585157343850382 0.014362848248953508 0.0 0.01341807705128728 0.0 0.0
-0.01106416200479382 0.009081680346299414 0.0 0.009656637141877367 0.0 0.0
-0.0066785330761379436 0.004998688306230736 0.0 0.006428819675455 0.0 0.0
-0.0036702527250219857 0.0023790662888985015 0.0 0.004123506294050006 0.0 0.0
-0.002006653602199454 0.0011110715000077764 0.0 0.002853264714374082 0.0 0.0
-0.001275728900490436 0.0006584720858893167 0.0 0.002386307962822354 0.0 0.0
-0.000926254981605687 0.0004729685184475807 0.0 0.002312540848130984 0.0 0.0
-0.0006599208924616545 0.0002960669804150662 0.0 0.0023471642922476277 0.0 0.0
-0.00033755133235323365 -1.463885908148388e-05 0.0 0.0022560703492402467 0.0 0.0
0.00012222215263373026 -0.0005521843693153672 0.0 0.001372266927375354 0.0 0.0
4.334265221178635e-05 -0.00037764367335546556 0.0 -0.0011589092898497966 0.0 0.0
-0.00039601833246288853 3.340186075695417e-05 0.0 -0.0020461603746596557 0.0 0.0
-0.0007827078474498261 0.0003465408722463925 0.0 -0.002164911387175228 0.0 0.0
-0.0011299003629185456 0.0005549912647624389 0.0 -0.0020969315264812716 0.0 0.0
-0.0016179975568928473 0.0008360040943817815 0.0 -0.0021537197080715997 0.0 0.0
-0.0027140628250482135 0.0016006815121769602 0.0 -0.002705451163962591 0.0 0.0
-0.005059769983612794 0.0035424537469719297 0.0 -0.004144654985304197 0.0 0.0
-0.009058465623184242 0.0071855660361701545 0.0 -0.006675440352895912 0.0 0.0
-0.014701886035391909 0.01254314457409178 0.0 -0.010143145397519815 0.0 0.0
-0.02171170535786865 0.019309017747894064 0.0 -0.014061971879646973 0.0 0.0
-0.029818452181371802 0.027187922086468586 0.0 -0.0179948634637509 0.0 0.0
-0.03886056700574669 0.03601172453917245 0.0 -0.02175016180882816 0.0 0.0
-0.04877914329683525 0.045719762502247185 0.0 -0.025331661306617237 0.0 0.0
-0.05955190848818642 0.05627926954271345 0.0 -0.028875278370516178 0.0 0.0
-0.0710308434822235 0.0675220918119308 0.0 -0.03278552036838489 0.0 0.0
-0.08267246203784318 0.07888666212117812 0.0 -0.03759671088196548 0.0 0.0
-0.09324166933111944 0.08912677031670757 0.0 -0.04341049949373399 0.0 0.0
-0.10051796283094117 0.09599707200580543 0.0 -0.04905433514410773 0.0 0.0
-0.1008979812397546 0.09587411029919046 0.0 -0.05197564794046805 0.0 0.0
-0.08898311857581451 0.08337759783640131 0.0 -0.050454419810412654 0.0 0.0
-0.0889831185758074 0.0833775978363942 0.0 0.05045441981047227 0.0 0.0
-0.10089798123973096 0.09587411029917003 0.0 0.05197564794053822 0.0 0.0
-0.10051796283090134 0.09599707200577345 0.0 0.04905433514416113 0.0 0.0
-0.09324166933106512 0.08912677031666139 0.0 0.04341049949374942 0.0 0.0
-0.08267246203778061 0.07888666212112128 0.0 0.03759671088195393 0.0 0.0
-0.07103084348215863 0.06752209181187308 0.0 0.03278552036836779 0.0 0.0
-0.059551908488121585 0.056279269542650834 0.0 0.02887527837049425 0.0 0.0
-0.0487791432967694 0.04571976250218679 0.0 0.025331661306595643 0.0 0.0
-0.03886056700568433 0.03601172453911783 0.0 0.021750161808803015 0.0 0.0
-0.029818452181316124 0.027187922086418848 0.0 0.017994863463718425 0.0 0.0
-0.02171170535782041 0.01930901774784788 0.0 0.01406197187961472 0.0 0.0
-0.01470188603535566 0.012543144574054477 0.0 0.010143145397495668 0.0 0.0
-0.009058465623159997 0.007185566036148394 0.0 0.006675440352879203 0.0 0.0
-0.005059769983597515 0.003542453746958385 0.0 0.0041446549852922066 0.0 0.0
-0.002714062825041122 0.0016006815121722973 0.0 0.002705451163956485 0.0 0.0
-0.001617997556891182 0.0008360040943813374 0.0 0.002153719708070767 0.0 0.0
-0.0011299003629178517 0.0005549912647627719 0.0 0.0020969315264795507 0.0 0.0
-0.0007827078474489796 0.00034654087224805785 0.0 0.002164911387173285 0.0 0.0
-0.00039601833246269424 3.3401860757176216e-05 0.0 0.002046160374658268 0.0 0.0
4.33426522114394e-05 -0.00037764367335493473 0.0 0.0011589092898481868 0.0 0.0
-2.395583084885411e-05 -0.00022791342153483107 0.0 -0.0009395110205082102 0.0 0.0
-0.00045231336859702376 8.521455951882029e-05 0.0 -0.0017854331392307965 0.0 0.0
-0.0008975406560438604 0.00039293243199256533 0.0 -0.0019259077246960299 0.0 0.0
-0.0013242554194149991 0.0006334821295730375 0.0 -0.0018350087403848914 0.0 0.0
-0.0019906976863087733 0.001051751584288274 0.0 -0.0018977764380433415 0.0 0.0
-0.0035242235802578903 0.002217017953184852 0.0 -0.002497673736646555 0.0 0.0
-0.006596179118158518 0.0049055273984559555 0.0 -0.003993073402837055 0.0 0.0
-0.01158523619610774 0.00956692567297912 0.0 -0.006564922896881598 0.0 0.0
-0.01843454850298737 0.016140094893144497 0.0 -0.009967211343350102 0.0 0.0
-0.02690206897695685 0.024348527887339433 0.0 -0.013743795065856435 0.0 0.0
-0.0367343868879238 0.03392852967420179 0.0 -0.01754834112842729 0.0 0.0
-0.04774165819969678 0.0446908336851326 0.0 -0.0211799101880229 0.0 0.0
-0.05983142175854894 0.05654410230443174 0.0 -0.024649727703175195 0.0 0.0
-0.07296993664564994 0.06944771425796592 0.0 -0.028051224755788806 0.0 0.0
-0.0870235150551052 0.08323997773144232 0.0 -0.03163323017046493 0.0 0.0
-0.10139658045765351 0.09728683847304698 0.0 -0.03592186607989156 0.0 0.0
-0.11454224573355443 0.11002260888930415 0.0 -0.04130521456399594 0.0 0.0
-0.12359361835442578 0.11858195701752017 0.0 -0.0471449493413969 0.0 0.0
-0.12424835513115495 0.11870165245429565 0.0 -0.05190290019309263 0.0 0.0
-0.1108727217995896 0.10479396463529866 0.0 -0.05508268188467913 0.0 0.0
-0.11087272179958096 0.10479396463529067 0.0 0.05508268188473886 0.0 0.0
-0.12424835513112423 0.11870165245426545 0.0 0.051902900193166346 0.0 0.0
-0.12359361835437696 0.1185819570174731 0.0 0.04714494934145641 0.0 0.0
-0.114542245733491 0.11002260888923843 0.0 0.04130521456401015 0.0 0.0
-0.10139658045757924 0.09728683847296349 0.0 0.035921866079884346 0.0 0.0
-0.08702351505502758 0.08323997773136149 0.0 0.03163323017045211 0.0 0.0
-0.07296993664557196 0.06944771425788376 0.0 0.0280512247557681 0.0 0.0
-0.059831421758470574 0.056544102304350474 0.0 0.024649727703158764 0.0 0.0
-0.04774165819962231 0.044690833685065545 0.0 0.021179910187999473 0.0 0.0
-0.03673438688785688 0.03392852967413118 0.0 0.017548341128392708 0.0 0.0
-0.026902068976899396 0.02434852788727815 0.0 0.013743795065823405 0.0 0.0
-0.018434548502943515 0.016140094893101864 0.0 0.009967211343328952 0.0 0.0
-0.011585236196077028 0.009566925672949367 0.0 0.006564922896864278 0.0 0.0
-0.006596179118139159 0.004905527398437304 0.0 0.00399307340282451 0.0 0.0
-0.003524223580248148 0.002217017953178857 0.0 0.0024976737366373403 0.0 0.0
-0.0019906976863058173 0.0010517515842864977 0.0 0.0018977764380394002 0.0 0.0
-0.0013242554194139028 0.0006334821295712612 0.0 0.0018350087403858906 0.0 0.0
-0.0008975406560432497 0.00039293243199167716 0.0 0.0019259077246971401 0.0 0.0
-0.00045231336859657967 8.52145595188758e-05 0.0 0.0017854331392294087 0.0 0.0
-2.395583084871533e-05 -0.00022791342153464893 0.0 0.0009395110205090984 0.0 0.0
-7.865356210151608e-05 -0.0001053488493478194 0.0 -0.0007135560558606535 0.0 0.0
-0.0005052100090424672 0.0001381901994192969 0.0 -0.001479479197992628 0.0 0.0
-0.0010060694049408014 0.0004358876239264342 0.0 -0.0016303938326686085 0.0 0.0
-0.0015171330603352962 0.0007141660325944432 0.0 -0.0015249256233282327 0.0 0.0
-0.0024142708020703507 0.001320506631671714 0.0 -0.0015966425001054385 0.0 0.0
-0.004441420538776442 0.0029719329634030345 0.0 -0.0022069782652111014 0.0 0.0
-0.008263750445737628 0.0064401702426102325 0.0 -0.0036619101420196087 0.0 0.0
-0.014192598834390224 0.0120666469458377 0.0 -0.006025438788852755 0.0 0.0
-0.022206079002804857 0.019799977760367238 0.0 -0.009074042415305295 0.0 0.0
-0.03211511375749598 0.029430921451467196 0.0 -0.0124918987154915 0.0 0.0
-0.04366167649661995 0.040701703090694874 0.0 -0.01593409983605132 0.0 0.0
-0.056635362913482645 0.05340303780243971 0.0 -0.019227092678283042 0.0 0.0
-0.07090218412321792 0.06740430718419521 0.0 -0.022399636208726537 0.0 0.0
-0.08637481620654613 0.0826138503118985 0.0 -0.025457832783727374 0.0 0.0
-0.10288532351599483 0.09884103661235866 0.0 -0.02842922430145478 0.0 0.0
-0.11981983981832661 0.11541708443826693 0.0 -0.03163137875099209 0.0 0.0
-0.135449737958496 0.13056807333581677 0.0 -0.03584446721895562 0.0 0.0
-0.1463908793698651 0.14094442322295997 0.0 -0.041751637847689316 0.0 0.0
-0.1477136599397882 0.14168344297523916 0.0 -0.04944732128864626 0.0 0.0
-0.1333467980698532 0.12679695937569413 0.0 -0.05930893916051161 0.0 0.0
-0.1333467980698427 0.12679695937568525 0.0 0.05930893916057345 0.0 0.0
-0.14771365993975158 0.14168344297521251 0.0 0.04944732128870977 0.0 0.0
-0.14639087936980702 0.14094442322290757 0.0 0.04175163784773739 0.0 0.0
-0.1354497379584233 0.13056807333574216 0.0 0.03584446721896495 0.0 0.0
-0.11981983981824006 0.11541708443818521 0.0 0.031631378750988925 0.0 0.0
-0.10288532351590551 0.09884103661227339 0.0 0.028429224301444678 0.0 0.0
-0.08637481620645453 0.08261385031181767 0.0 0.025457832783711054 0.0 0.0
-0.07090218412312738 0.06740430718410817 0.0 0.022399636208708273 0.0 0.0
-0.056635362913396436 0.05340303780235134 0.0 0.019227092678259172 0.0 0.0
-0.04366167649654233 0.0407017030906176 0.0 0.015934099836020288 0.0 0.0
-0.03211511375742948 0.02943092145139925 0.0 0.012491898715464245 0.0 0.0
-0.022206079002753787 0.019799977760313503 0.0 0.009074042415285866 0.0 0.0
-0.014192598834353878 0.012066646945802617 0.0 0.006025438788835713 0.0 0.0
-0.008263750445713439 0.006440170242590915 0.0 0.0036619101420073963 0.0 0.0
-0.0044414205387639655 0.002971932963395041 0.0 0.0022069782652064385 0.0 0.0
-0.0024142708020659653 0.0013205066316659408 0.0 0.0015966425001040507 0.0 0.0
-0.0015171330603339084 0.0007141660325938881 0.0 0.0015249256233283437 0.0 0.0
-0.0010060694049404267 0.0004358876239279885 0.0 0.0016303938326674428 0.0 0.0
-0.0005052100090421063 0.00013819019941968547 0.0 0.0014794791979898525 0.0 0.0
-7.865356210104424e-05 -0.00010534884934777257 0.0 0.0007135560558578224 0.0 0.0
-0.00011712254556156543 -1.3281565354017477e-05 0.0 -0.000482592235217294 0.0 0.0
-0.0005502561859824784 0.00018853025474097063 0.0 -0.0011314447854490206 0.0 0.0
-0.001109893473440704 0.00047532124045845947 0.0 -0.0012754800664678823 0.0 0.0
-0.0017207562280927013 0.0008086743465443025 0.0 -0.0011698242183053043 0.0 0.0
-0.0029056434109100415 0.0016661144895162572 0.0 -0.0012462094515278133 0.0 0.0
-0.005470607740550859 0.0038647186701199487 0.0 -0.0018212451352828118 0.0 0.0
-0.01001534616804639 0.008087796152688842 0.0 -0.0030493893452782084 0.0 0.0
-0.016828842176070946 0.014618156394720305 0.0 -0.0049750106307835384 0.0 0.0
-0.02598052439923554 0.02348004242481405 0.0 -0.007488078839269385 0.0 0.0
-0.03730928680580037 0.03451168036582075 0.0 -0.01031717749779304 0.0 0.0
-0.050559880159466164 0.04746244888484297 0.0 -0.013170956752783791 0.0 0.0
-0.06550066129908688 0.06210406158562787 0.0 -0.01589792967378212 0.0 0.0
-0.08195120324583666 0.0782567331402082 0.0 -0.018541302749933153 0.0 0.0
-0.09973474092137646 0.09574165134998225 0.0 -0.02110206923782232 0.0 0.0
-0.11856271273347135 0.11425839160099116 0.0 -0.023351576530172613 0.0 0.0
-0.1377737815133276 0.13310133741816443 0.0 -0.025120635096375077 0.0 0.0
-0.15571688697229635 0.15054832373790372 0.0 -0.02735926169998204 0.0 0.0
-0.16888229197997057 0.16305669753168317 0.0 -0.03278638659343347 0.0 0.0
-0.1715836659440933 0.16509578297664262 0.0 -0.044113492352019446 0.0 0.0
-0.15692123338797548 0.1498635724728974 0.0 -0.0627771927492159 0.0 0.0
-0.1569212333879637 0.14986357247288407 0.0 0.06277719274926352 0.0 0.0
-0.1715836659440514 0.16509578297660177 0.0 0.044113492352075845 0.0 0.0
-0.16888229197990218 0.16305669753161478 0.0 0.03278638659347188 0.0 0.0
-0.15571688697221275 0.15054832373782467 0.0 0.027359261699989923 0.0 0.0
-0.13777378151322917 0.13310133741807118 0.0 0.0251206350963723 0.0 0.0
-0.1185627127333694 0.11425839160089524 0.0 0.023351576530165286 0.0 0.0
-0.09973474092127262 0.09574165134988011 0.0 0.021102069237808274 0.0 0.0
-0.08195120324573403 0.07825673314010251 0.0 0.0185413027499165 0.0 0.0
-0.06550066129898857 0.06210406158553372 0.0 0.015897929673764133 0.0 0.0
-0.050559880159377624 0.04746244888476259 0.0 0.013170956752758367 0.0 0.0
-0.03730928680572521 0.03451168036574925 0.0 0.010317177497771057 0.0 0.0
-0.025980524399178015 0.023480042424761205 0.0 0.007488078839254175 0.0 0.0
-0.016828842176028376 0.014618156394676785 0.0 0.004975010630770216 0.0 0.0
-0.010015346168017615 0.008087796152659754 0.0 0.003049389345268605 0.0 0.0
-0.005470607740535212 0.003864718670106848 0.0 0.0018212451352762615 0.0 0.0
-0.0029056434109041573 0.0016661144895113722 0.0 0.0012462094515229283 0.0 0.0
-0.001720756228091605 0.0008086743465440804 0.0 0.0011698242183039165 0.0 0.0
-0.0011098934734398158 0.0004753212404585705 0.0 0.0012754800664676047 0.0 0.0
-0.0005502561859819788 0.00018853025474113716 0.0 0.0011314447854490206 0.0 0.0
-0.00011712254556101726 -1.3281565353965435e-05 0.0 0.00048259223521662786 0.0 0.0
-0.00013253735845181192 4.3865309372670414e-05 0.0 -0.0002533190169606292 0.0 0.0
-0.0005783746736772177 0.00022990444309201052 0.0 -0.0007407940399123958 0.0 0.0
-0.001211952298488972 0.0005138765952982238 0.0 -0.0008549451923554052 0.0 0.0
-0.001954285210103157 0.000931581928628189 0.0 -0.0007721714161613713 0.0 0.0
-0.0034792188500660792 0.0021100742277728735 0.0 -0.0008479349137715531 0.0 0.0
-0.006593504890361757 0.004876945778814257 0.0 -0.001277361484776307 0.0 0.0
-0.011803150935568274 0.009799081996534564 0.0 -0.0021312740875748526 0.0 0.0
-0.01946581334471592 0.017184264408303562 0.0 -0.0034542826858749986 0.0 0.0
-0.029718687182301917 0.027139841935224673 0.0 -0.005213859503325757 0.0 0.0
-0.042443771117074314 0.03954808353768735 0.0 -0.007222192871854549 0.0 0.0
-0.057388495338345835 0.05416833782208119 0.0 -0.009250394691983188 0.0 0.0
-0.07429592277221225 0.07074893919658809 0.0 -0.011188629233334746 0.0 0.0
-0.09293243233210252 0.08905434714410498 0.0 -0.013094406945890369 0.0 0.0
-0.11300625995605046 0.10878920267499215 0.0 -0.014917725017488892 0.0 0.0
-0.13404641989215377 0.12947809282852063 0.0 -0.01636203074731024 0.0 0.0
-0.15523903762288077 0.1502946754208816 0.0 -0.01695120817782958 0.0 0.0
-0.1750932528647136 0.1696948964238736 0.0 -0.016938263138668752 0.0 0.0
-0.19065390345101543 0.18462185153077826 0.0 -0.01989253789504386 0.0 0.0
-0.19612454105261845 0.18915685257881254 0.0 -0.034145017250062804 0.0 0.0
-0.18234892691699064 0.17469712045100216 0.0 -0.06464132743522777 0.0 0.0
-0.1823489269169763 0.17469712045098262 0.0 0.06464132743526019 0.0 0.0
-0.1961245410525707 0.18915685257876103 0.0 0.034145017250112764 0.0 0.0
-0.19065390345093758 0.18462185153070543 0.0 0.01989253789506984 0.0 0.0
-0.17509325286461747 0.1696948964237821 0.0 0.01693826313867114 0.0 0.0
-0.15523903762277091 0.15029467542077857 0.0 0.016951208177825083 0.0 0.0
-0.13404641989203753 0.12947809282840073 0.0 0.016362030747309297 0.0 0.0
-0.11300625995593468 0.1087892026748758 0.0 0.014917725017484007 0.0 0.0
-0.0929324323319875 0.0890543471439944 0.0 0.013094406945883708 0.0 0.0
-0.07429592277210202 0.07074893919647884 0.0 0.01118862923332914 0.0 0.0
-0.05738849533824688 0.05416833782198749 0.0 0.00925039469196215 0.0 0.0
-0.04244377111699103 0.03954808353760875 0.0 0.007222192871834232 0.0 0.0
-0.029718687182237642 0.02713984193515806 0.0 0.00521385950331732 0.0 0.0
-0.01946581334466784 0.017184264408258265 0.0 0.003454282685866672 0.0 0.0
-0.011803150935535332 0.009799081996504366 0.0 0.002131274087567414 0.0 0.0
-0.006593504890343271 0.004876945778800046 0.0 0.0012773614847698123 0.0 0.0
-0.0034792188500579503 0.0021100742277690987 0.0 0.0008479349137685555 0.0 0.0
-0.0019542852101011275 0.0009315819286254134 0.0 0.0007721714161614823 0.0 0.0
-0.001211952298487879 0.0005138765952960034 0.0 0.0008549451923559603 0.0 0.0
-0.0005783746736766557 0.0002299044430913444 0.0 0.0007407940399116186 0.0 0.0
-0.00013253735845130538 4.3865309372718986e-05 0.0 0.00025331901696035164 0.0 0.0
-0.00011272059880623742 5.9789881236727016e-05 0.0 -4.2627401719896874e-05 0.0 0.0
-0.0005731057674939755 0.00025191182409678436 0.0 -0.00029961666104350027 0.0 0.0
-0.0013206556459157137 0.0005583932502778444 0.0 -0.00035526670983965225 0.0 0.0
-0.002242396168478933 0.0011128460801472784 0.0 -0.0003354306313035904 0.0 0.0
-0.004137964177171161 0.002651453021362604 0.0 -0.0003724557771719872 0.0 0.0
-0.0077748005085225835 0.005967207443221767 0.0 -0.0005463649252231417 0.0 0.0
-0.013607220939046538 0.011539703923638456 0.0 -0.0009006277398754814 0.0 0.0
-0.02206908610474112 0.019730496202781556 0.0 -0.0014661348107223304 0.0 0.0
-0.03338120176461257 0.03073704919609188 0.0 -0.0022601789225787927 0.0 0.0
-0.04747590336571805 0.04449638376386833 0.0 -0.0032019487775717392 0.0 0.0
-0.06410817575736544 0.06077889120944846 0.0 -0.004169326287668862 0.0 0.0
-0.0829832336863281 0.07929735147006234 0.0 -0.005108139593865468 0.0 0.0
-0.10378867858196628 0.09973889751830622 0.0 -0.006019457980833032 0.0 0.0
-0.12612364657706537 0.12169576082822164 0.0 -0.006837469805116014 0.0 0.0
-0.1493382143999349 0.14451381798520213 0.0 -0.007378819219188482 0.0 0.0
-0.1723681076521778 0.16713336004506107 0.0 -0.0072636916441219945 0.0 0.0
-0.1936399203260295 0.18798684645774433 0.0 -0.006109255999774854 0.0 0.0
-0.21089134592592373 0.20476119194454512 0.0 -0.005301506697805269 0.0 0.0
-0.22015800595708349 0.21327584871572292 0.0 -0.015119921437615869 0.0 0.0
-0.21176400251883443 0.2029750315274681 0.0 -0.059564942592832626 0.0 0.0
-0.21176400251881816 0.202975031527461 0.0 0.059564942592845393 0.0 0.0
-0.2201580059570302 0.21327584871568028 0.0 0.015119921437640182 0.0 0.0
-0.210891345925835 0.20476119194445808 0.0 0.00530150669781565 0.0 0.0
-0.19363992032591942 0.1879868464576333 0.0 0.006109255999775576 0.0 0.0
-0.17236810765205615 0.1671333600449394 0.0 0.007263691644115222 0.0 0.0
-0.14933821439980477 0.1445138179850769 0.0 0.0073788192191877044 0.0 0.0
-0.12612364657693614 0.12169576082809375 0.0 0.00683746980511174 0.0 0.0
-0.10378867858183967 0.09973889751817966 0.0 0.006019457980829812 0.0 0.0
-0.08298323368620641 0.07929735146994155 0.0 0.005108139593862304 0.0 0.0
-0.06410817575725589 0.060778891209336106 0.0 0.004169326287657704 0.0 0.0
-0.04747590336562774 0.04449638376377729 0.0 0.003201948777560193 0.0 0.0
-0.03338120176454119 0.03073704919601905 0.0 0.0022601789225735747 0.0 0.0
-0.02206908610468806 0.01973049620272249 0.0 0.0014661348107183336 0.0 0.0
-0.0136072209390093 0.011539703923599598 0.0 0.0009006277398737605 0.0 0.0
-0.0077748005085013245 0.005967207443202227 0.0 0.0005463649252230307 0.0 0.0
-0.004137964177161248 0.002651453021355943 0.0 0.00037245577717087697 0.0 0.0
-0.002242396168476133 0.0011128460801463902 0.0 0.00033543063130331285 0.0 0.0
-0.0013206556459147579 0.0005583932502774003 0.0 0.00035526670983976327 0.0 0.0
-0.0005731057674931376 0.0002519118240965068 0.0 0.0002996166610457207 0.0 0.0
-0.00011272059880610905 5.9789881236759976e-05 0.0 4.2627401721340163e-05 0.0 0.0
SCALARS Statev float 8
LOOKUP_TABLE default
0.0 0.014711337519446081 0.011434917178176398 -0.011814799994800073 0.000379882816623674 -0.00661039596668338 0.0 0.0
0.0 0.0010443761585136244 0.0007623495203815332 -0.0006627041150987634 -9.964540528276983e-05 0.0006570338758031137 0.0 0.0
0.0 4.123135659906826e-05 2.6774350295919277e-06 -1.8917884635248555e-06 -7.856465660671014e-07 -1.287560970458541e-07 0.0 0.0
0.0 0.00042089417618359516 0.00033034857427436434 -0.0002630306818515103 -6.731789242285415e-05 -4.755527553786259e-05 0.0 0.0
0.0 0.0020881475081644466 0.0017430094319617014 -0.0014727323863888723 -0.0002702770455728286 -0.00018731089029260818 0.0 0.0
0.0 0.005576322565782103 0.005011910494365297 -0.004503829028152488 -0.0005080814662128082 -0.0004107987728212399 0.0 0.0
0.0 0.01189875087512253 0.010531255781934897 -0.009875741955720843 -0.0006555138262140498 -0.0007564281733851621 0.0 0.0
0.0 0.02132264665508743 0.018712831097837238 -0.01795060019395899 -0.0007622309038782456 -0.0012961991450919307 0.0 0.0
0.0 0.03407218465468231 0.02975539803890799 -0.028887130094385656 -0.000868267944522317 -0.0020631796348366356 0.0 0.0
0.0 0.05008586234052087 0.04360261909540013 -0.0426205057626952 -0.0009821133327049382 -0.0029921588618034333 0.0 0.0
0.0 0.06912814622618624 0.060029626003184344 -0.05892897464418882 -0.0011006513589954929 -0.003963964810353578 0.0 0.0
0.0 0.09058844857280285 0.07875571724521375 -0.07753443294249814 -0.0012212843027155872 -0.004912323274580969 0.0 0.0
0.0 0.11443141815753541 0.09948310499581431 -0.09813972043085517 -0.0013433845649590361 -0.005838524921427186 0.0 0.0
0.0 0.14025726641618613 0.12186815174809995 -0.1203996699116485 -0.0014684818364513645 -0.006725190199706973 0.0 0.0
0.0 0.16741951079167394 0.14540667483222722 -0.14380904125618377 -0.0015976335760433296 -0.007515850216219869 0.0 0.0
0.0 0.19504277216409233 0.16931148251733502 -0.16758216259642572 -0.0017293199209094223 -0.008046173894021975 0.0 0.0
0.0 0.22180763923314828 0.1924698018896511 -0.19061072131118978 -0.0018590805784614213 -0.008056287362715978 0.0 0.0
0.0 0.2460817144678506 0.21348382253655693 -0.21150082307197285 -0.0019829994645839343 -0.007353712177080704 0.0 0.0
0.0 0.2659548475962084 0.2306902340118404 -0.22858721607339205 -0.0021030179384483078 -0.00645077356732302 0.0 0.0
0.0 0.27822387377308244 0.2414397928345212 -0.23913677995956586 -0.0023030128749553505 -0.008103609803382263 0.0 0.0
0.0 0.2782238737730654 0.2414397928345058 -0.23913677995955124 -0.0023030128749544423 0.00810360980339444 0.0 0.0
0.0 0.2659548475961571 0.2306902340117949 -0.22858721607334848 -0.0021030179384462703 0.0064507735673491 0.0 0.0
0.0 0.24608171446776111 0.21348382253647794 -0.21150082307189705 -0.001982999464580799 0.007353712177098285 0.0 0.0
0.0 0.22180763923302765 0.1924698018895455 -0.19061072131108664 -0.0018590805784589087 0.008056287362724898 0.0 0.0
0.0 0.19504277216395866 0.1693114825172184 -0.1675821625963113 -0.0017293199209071318 0.008046173894010893 0.0 0.0
0.0 0.16741951079153597 0.1454066748321069 -0.1438090412560651 -0.0015976335760417646 0.007515850216216497 0.0 0.0
0.0 0.14025726641604774 0.12186815174797977 -0.1203996699115293 -0.0014684818364504304 0.0067251901997077415 0.0 0.0
0.0 0.11443141815739895 0.0994831049956959 -0.09813972043073758 -0.0013433845649583147 0.005838524921426017 0.0 0.0
0.0 0.09058844857267097 0.07875571724509953 -0.07753443294238435 -0.0012212843027151104 0.004912323274572362 0.0 0.0
0.0 0.06912814622606983 0.06002962600308307 -0.05892897464408832 -0.0011006513589947456 0.003963964810346576 0.0 0.0
0.0 0.050085862340423185 0.043602619095315626 -0.04262050576261125 -0.000982113332704395 0.0029921588617910465 0.0 0.0
0.0 0.034072184654607526 0.02975539803884261 -0.02888713009432078 -0.0008682679445218494 0.002063179634833153 0.0 0.0
0.0 0.02132264665503399 0.01871283109779005 -0.017950600193912338 -0.0007622309038777062 0.0012961991450877162 0.0 0.0
0.0 0.01189875087508637 0.010531255781902775 -0.009875741955689254 -0.000655513826213516 0.0007564281733829789 0.0 0.0
0.0 0.005576322565761937 0.005011910494346948 -0.004503829028134978 -0.0005080814662119716 0.00041079877281957454 0.0 0.0
0.0 0.002088147508153863 0.001743009431952784 -0.001472732386380889 -0.0002702770455718952 0.00018731089029167902 0.0 0.0
0.0 0.00042089417618067465 0.00033034857427262983 -0.00026303068185008695 -6.731789242254277e-05 4.75552755375478e-05 0.0 0.0
0.0 4.123135659844641e-05 2.67743502956879e-06 -1.8917884635042233e-06 -7.85646566064522e-07 1.2875609700639158e-07 0.0 0.0
0.0 0.0010443761585100617 0.0007623495203793967 -0.0006627041150968397 -9.964540528255799e-05 -0.0006570338758007148 0.0 0.0
0.0 0.014711337519427102 0.011434917178163927 -0.011814799994786563 0.00037988281662263275 0.006610395966651096 0.0 0.0
0.0 0.011079646839338732 0.00806814300324206 -0.008565564006991381 0.0004974210037493221 -0.0077462221205991805 0.0 0.0
0.0 2.8236078688094085e-05 2.2501510707812297e-05 -2.0456227855738812e-05 -2.0452828520734926e-06 1.475184349811293e-05 0.0 0.0
0.0 9.483858695032223e-07 3.5378356083969344e-07 -2.6785302705287347e-07 -8.593053378682228e-08 -1.2337111940055636e-07 0.0 0.0
0.0 0.00018564704355144277 0.00014226096210393361 -0.00011225241576256323 -3.000854634137058e-05 -4.899358254771192e-05 0.0 0.0
0.0 0.0014403390863202401 0.00116571021737114 -0.0009693631686727827 -0.00019634704869835794 -0.0003088586916207386 0.0 0.0
0.0 0.0043623230447192825 0.0039236291467044495 -0.0034743728176739822 -0.00044925632903046757 -0.0008503046812544231 0.0 0.0
0.0 0.009974158856242601 0.008817609076092612 -0.008194141891794597 -0.0006234671842980113 -0.0017210563329854225 0.0 0.0
0.0 0.01849093148071931 0.016192746431868528 -0.015453148883807121 -0.0007395975480614114 -0.0030017263693700317 0.0 0.0
0.0 0.030035309821227686 0.026173896126592513 -0.025329023860582583 -0.0008448722660099166 -0.004717668002356251 0.0 0.0
0.0 0.04448149091553405 0.03865210540979665 -0.03769892112885718 -0.0009531842809394541 -0.006715386965643383 0.0 0.0
0.0 0.06155952583416853 0.05339514532914484 -0.05233179867623286 -0.0010633466529119914 -0.008769280782070926 0.0 0.0
0.0 0.0810313129153997 0.07016066621374431 -0.06898639538179158 -0.0011742708319526852 -0.01074766530060746 0.0 0.0
0.0 0.10234082392243411 0.08872237301382592 -0.0874356627912985 -0.001286710222527432 -0.012694207560575908 0.0 0.0
0.0 0.12545740240115832 0.10879467672601673 -0.1073932643048792 -0.0014014124211375553 -0.014598604930345115 0.0 0.0
0.0 0.1498779997237148 0.1299463917636666 -0.12842771359211763 -0.001518678171548906 -0.016312188053702867 0.0 0.0
0.0 0.17475667204232712 0.15151341281330377 -0.14987560202227165 -0.0016378107910321393 -0.017517043535804196 0.0 0.0
0.0 0.19899212894135718 0.1725341064237149 -0.17077665370010867 -0.0017574527236061982 -0.017733120460256633 0.0 0.0
0.0 0.22109711184529207 0.1917065215000893 -0.18982847818187543 -0.0018780433182138023 -0.016701752178399122 0.0 0.0
0.0 0.2389397421343904 0.20719548332002974 -0.2051794003712389 -0.0020160829487907003 -0.014871497541934686 0.0 0.0
0.0 0.2496417359655103 0.21651235941466423 -0.21439051630780323 -0.0021218431068610456 -0.012075172935192734 0.0 0.0
0.0 0.24964173596549416 0.21651235941464966 -0.21439051630778916 -0.0021218431068606176 0.012075172935221827 0.0 0.0
0.0 0.2389397421343376 0.20719548331998325 -0.20517940037119242 -0.0020160829487908052 0.014871497541981922 0.0 0.0
0.0 0.22109711184520195 0.19170652150001125 -0.18982847818179607 -0.0018780433182150312 0.016701752178432235 0.0 0.0
0.0 0.19899212894124815 0.17253410642362058 -0.17077665370001371 -0.001757452723606673 0.0177331204602725 0.0 0.0
0.0 0.17475667204220507 0.15151341281319897 -0.14987560202216607 -0.00163781079103285 0.017517043535792674 0.0 0.0
0.0 0.1498779997235873 0.12994639176355655 -0.1284277135920074 -0.0015186781715491194 0.016312188053695255 0.0 0.0
0.0 0.125457402401031 0.10879467672590673 -0.10739326430476899 -0.0014014124211377196 0.014598604930340018 0.0 0.0
0.0 0.10234082392231203 0.08872237301372012 -0.0874356627911933 -0.001286710222526816 0.012694207560568601 0.0 0.0
0.0 0.08103131291528196 0.07016066621364242 -0.06898639538168998 -0.0011742708319523992 0.010747665300592906 0.0 0.0
0.0 0.061559525834063905 0.05339514532905437 -0.05233179867614258 -0.0010633466529117847 0.008769280782058162 0.0 0.0
0.0 0.04448149091544826 0.03865210540972237 -0.037698921128783286 -0.0009531842809390606 0.006715386965625216 0.0 0.0
0.0 0.03003530982116086 0.026173896126533903 -0.025329023860524387 -0.0008448722660095113 0.004717668002348333 0.0 0.0
0.0 0.018490931480667876 0.016192746431823613 -0.015453148883762528 -0.0007395975480610842 0.0030017263693612028 0.0 0.0
0.0 0.0099741588562099 0.008817609076063573 -0.00819414189176627 -0.0006234671842972972 0.0017210563329798124 0.0 0.0
0.0 0.004362323044699711 0.003923629146687327 -0.003474372817657719 -0.00044925632902960904 0.000850304681250318 0.0 0.0
0.0 0.001440339086313129 0.0011657102173656664 -0.000969363168667952 -0.00019634704869771463 0.0003088586916191741 0.0 0.0
0.0 0.00018564704355042427 0.0001422609621036419 -0.00011225241576232021 -3.0008546341321587e-05 4.8993582547636245e-05 0.0 0.0
0.0 9.483858693696128e-07 3.5378356092332603e-07 -2.6785302711400463e-07 -8.593053380932382e-08 1.2337111941654847e-07 0.0 0.0
0.0 2.8236078687712225e-05 2.250151070781887e-05 -2.04562278556977e-05 -2.0452828521211716e-06 -1.4751843497979917e-05 0.0 0.0
0.0 0.011079646839315676 0.00806814300322695 -0.008565564006975668 0.000497421003748708 0.007746222120571198 0.0 0.0
0.0 0.00849551694565285 0.005866036324465124 -0.006400594066761916 0.0005345577422967889 -0.006872722047252809 0.0 0.0
0.0 0.0 0.0 0.0 0.0 0.0 0.0 0.0
0.0 0.0 0.0 0.0 0.0 0.0 0.0 0.0
0.0 4.859679961219365e-05 4.0672862318044084e-05 -3.1892329660315e-05 -8.780532657729099e-06 -2.5827937889413033e-05 0.0 0.0
0.0 0.0008618281514738301 0.0007054504567797356 -0.0005775283366227546 -0.00012792212015698073 -0.00032989895632280466 0.0 0.0
0.0 0.003412623682402331 0.002894699174508566 -0.002520669838126963 -0.00037402933638160313 -0.0010808052638785685 0.0 0.0
0.0 0.008116708883907567 0.007136309038610117 -0.006554264844591511 -0.0005820441940186075 -0.0023591970499268066 0.0 0.0
0.0 0.015683679565626135 0.013659299312540028 -0.012948585145684076 -0.000710714166855946 -0.004241898055244412 0.0 0.0
0.0 0.02601494155079808 0.022536119391911427 -0.021719370460230182 -0.0008167489316812462 -0.006701303113130218 0.0 0.0
0.0 0.03890044877338435 0.03361742669503314 -0.03269801765467664 -0.0009194090403564952 -0.009520056528980785 0.0 0.0
0.0 0.054085140222033444 0.04666640582567309 -0.04564501296749825 -0.0010213928581748306 -0.0124147181456138 0.0 0.0
0.0 0.0712307929040791 0.061470954802489076 -0.06034773452680729 -0.0011232202756817648 -0.015217142263856186 0.0 0.0
0.0 0.0902983061866841 0.07784866875123511 -0.07662287286282896 -0.0012257958884061464 -0.01795397823966163 0.0 0.0
0.0 0.11070396721931447 0.09558591284937082 -0.09425628712412612 -0.0013296257252446487 -0.020645492686941158 0.0 0.0
0.0 0.13232756941683937 0.11434197018381788 -0.11290734447648768 -0.0014346257073301674 -0.023110548009874818 0.0 0.0
0.0 0.15453240427074308 0.1335822479491124 -0.1320408554633143 -0.0015413924857981035 -0.024910914581032468 0.0 0.0
0.0 0.17629260261890586 0.15249158216823244 -0.1508399471609389 -0.0016516350072935213 -0.02547551746015863 0.0 0.0
0.0 0.19618373277315862 0.16983803956422983 -0.16806748713272918 -0.0017705524315006342 -0.024392718185567222 0.0 0.0
0.0 0.2121984999884085 0.18385831430783506 -0.18197145193462055 -0.0018868623732143986 -0.02118043818645085 0.0 0.0
0.0 0.22205728513767875 0.19257792757509934 -0.1906060342933956 -0.0019718932817035495 -0.014794517609350473 0.0 0.0
0.0 0.222057285137664 0.19257792757508516 -0.1906060342933827 -0.0019718932817024025 0.01479451760939728 0.0 0.0
0.0 0.21219849998836496 0.18385831430779473 -0.18197145193458175 -0.0018868623732130696 0.02118043818651548 0.0 0.0
0.0 0.19618373277308676 0.1698380395641654 -0.16806748713266573 -0.001770552431499477 0.024392718185615458 0.0 0.0
0.0 0.1762926026188149 0.1524915821681522 -0.1508399471608599 -0.0016516350072924811 0.02547551746017883 0.0 0.0
0.0 0.15453240427064263 0.1335822479490248 -0.13204085546322875 -0.0015413924857960093 0.024910914581021234 0.0 0.0
0.0 0.13232756941672974 0.11434197018372247 -0.11290734447639339 -0.0014346257073290943 0.023110548009867178 0.0 0.0
0.0 0.11070396721920292 0.09558591284927366 -0.09425628712403003 -0.0013296257252436183 0.020645492686935357 0.0 0.0
0.0 0.09029830618657769 0.07784866875114262 -0.07662287286273725 -0.001225795888405309 0.017953978239653706 0.0 0.0
0.0 0.07123079290397437 0.061470954802398975 -0.06034773452671741 -0.001123220275681606 0.015217142263836992 0.0 0.0
0.0 0.054085140221941344 0.04666640582559313 -0.04564501296741909 -0.0010213928581740213 0.012414718145594587 0.0 0.0
0.0 0.03890044877330782 0.03361742669496699 -0.03269801765461115 -0.0009194090403558337 0.009520056528957387 0.0 0.0
0.0 0.026014941550738864 0.022536119391859906 -0.021719370460179195 -0.0008167489316807031 0.006701303113117009 0.0 0.0
0.0 0.015683679565584543 0.013659299312503703 -0.012948585145648416 -0.0007107141668552788 0.004241898055232845 0.0 0.0
0.0 0.008116708883880611 0.007136309038586414 -0.006554264844568535 -0.0005820441940178782 0.002359197049919331 0.0 0.0
0.0 0.0034126236823869864 0.0028946991744958294 -0.0025206698381151364 -0.00037402933638069257 0.0010808052638732397 0.0 0.0
0.0 0.0008618281514690979 0.0007054504567762228 -0.0005775283366197859 -0.00012792212015643692 0.00032989895632112723 0.0 0.0
0.0 4.8596799611385806e-05 4.067286231786678e-05 -3.1892329660157745e-05 -8.780532657709077e-06 2.582793788921897e-05 0.0 0.0
0.0 0.0 0.0 0.0 0.0 0.0 0.0 0.0
0.0 0.0 0.0 0.0 0.0 0.0 0.0 0.0
0.0 0.008495516945632584 0.005866036324451237 -0.006400594066747381 0.0005345577422961355 0.006872722047230145 0.0 0.0
0.0 0.006443510255510187 0.004275591356541857 -0.004788576461704039 0.0005129851051621802 -0.005494035671029248 0.0 0.0
0.0 0.0 0.0 0.0 0.0 0.0 0.0 0.0
0.0 0.0 0.0 0.0 0.0 0.0 0.0 0.0
0.0 9.673945093208192e-06 5.653548097701873e-06 -4.422812930246444e-06 -1.2307351674554142e-06 -5.8270253488325405e-06 0.0 0.0
0.0 0.00045680092211226577 0.0003653582356975497 -0.00029555867742977137 -6.979955826777809e-05 -0.00027218027514802515 0.0 0.0
0.0 0.0024151930053270586 0.0019945917542962526 -0.0017051100979915941 -0.0002894816563046585 -0.001127722031114813 0.0 0.0
0.0 0.00639551804468113 0.005510520466840355 -0.004987412758969283 -0.0005231077078710723 -0.002677723483827874 0.0 0.0
0.0 0.012934046093832377 0.01114662668926178 -0.010472196128197006 -0.0006744305610647781 -0.005009860377024805 0.0 0.0
0.0 0.0220153028892799 0.018884114709796767 -0.01810160943487879 -0.0007825052749179809 -0.008005813379388577 0.0 0.0
0.0 0.033320995556469384 0.02854478311093512 -0.02766449680575782 -0.0008802863051772659 -0.011412716432023965 0.0 0.0
0.0 0.04658327901803216 0.03988722336266906 -0.03891265927601446 -0.0009745640866545926 -0.014903435506478538 0.0 0.0
0.0 0.0615605076548271 0.05272186016643439 -0.05165437144598216 -0.0010674887204522303 -0.018305239680313987 0.0 0.0
0.0 0.07807196782791444 0.06691118175118618 -0.06575108151362313 -0.0011601002375630277 -0.021642799338946583 0.0 0.0
0.0 0.0959774546679798 0.08229887015657367 -0.08104566181213965 -0.0012532083444340267 -0.024887986055693395 0.0 0.0
0.0 0.11494334377963637 0.09863804423712792 -0.09729210180953554 -0.001345942427592351 -0.027870557789716623 0.0 0.0
0.0 0.134274232823677 0.1155303299086077 -0.11409021125010313 -0.0014401186585045321 -0.03019024430169871 0.0 0.0
0.0 0.15356640804964777 0.13230680099382505 -0.13076621821280598 -0.001540582781019014 -0.031202439118694025 0.0 0.0
0.0 0.17136060788283514 0.1478860212639546 -0.14623824335125513 -0.0016477779126993926 -0.030139432979122364 0.0 0.0
0.0 0.18588579073221784 0.1607446913674227 -0.1589939524601252 -0.0017507389072974066 -0.025864274563007644 0.0 0.0
0.0 0.19526786950071057 0.16922050890862775 -0.1673932960400335 -0.0018272128685943633 -0.016970234066388253 0.0 0.0
0.0 0.19526786950069616 0.169220508908614 -0.16739329604001954 -0.0018272128685945961 0.01697023406644716 0.0 0.0
0.0 0.18588579073217765 0.16074469136738476 -0.15899395246008724 -0.0017507389072973542 0.02586427456308281 0.0 0.0
0.0 0.17136060788277085 0.147886021263896 -0.14623824335119648 -0.0016477779126994017 0.030139432979177212 0.0 0.0
0.0 0.15356640804956734 0.1323068009937536 -0.13076621821273515 -0.0015405827810184064 0.031202439118717017 0.0 0.0
0.0 0.1342742328235808 0.11553032990852484 -0.11409021125001982 -0.0014401186585050112 0.03019024430168811 0.0 0.0
0.0 0.11494334377953784 0.09863804423704314 -0.09729210180945044 -0.0013459424275926676 0.027870557789704542 0.0 0.0
0.0 0.09597745466788257 0.08229887015648925 -0.08104566181205573 -0.0012532083444335212 0.024887986055683216 0.0 0.0
0.0 0.07807196782782044 0.06691118175110461 -0.06575108151354209 -0.0011601002375625077 0.021642799338933656 0.0 0.0
0.0 0.06156050765473971 0.05272186016635905 -0.051654371445907364 -0.0010674887204516904 0.018305239680290776 0.0 0.0
0.0 0.04658327901795634 0.03988722336260367 -0.03891265927594989 -0.0009745640866537619 0.014903435506454664 0.0 0.0
0.0 0.033320995556405296 0.028544783110880614 -0.027664496805703966 -0.0008802863051766288 0.011412716431996706 0.0 0.0
0.0 0.022015302889226502 0.018884114709750755 -0.018101609434833296 -0.0007825052749174643 0.008005813379371417 0.0 0.0
0.0 0.012934046093791424 0.011146626689226662 -0.010472196128162317 -0.0006744305610643368 0.005009860377009279 0.0 0.0
0.0 0.006395518044655379 0.005510520466818482 -0.004987412758948224 -0.0005231077078702577 0.0026777234838178173 0.0 0.0
0.0 0.002415193005313422 0.0019945917542855815 -0.0017051100979819922 -0.0002894816563035883 0.001127722031108672 0.0 0.0
0.0 0.0004568009221075526 0.0003653582356943237 -0.00029555867742711925 -6.979955826720446e-05 0.00027218027514590217 0.0 0.0
0.0 9.673945092527947e-06 5.653548097773878e-06 -4.42281293029868e-06 -1.230735167475193e-06 5.827025348885945e-06 0.0 0.0
0.0 0.0 0.0 0.0 0.0 0.0 0.0 0.0
0.0 0.0 0.0 0.0 0.0 0.0 0.0 0.0
0.0 0.006443510255491903 0.00427559135652967 -0.004788576461691233 0.0005129851051615617 0.005494035671010778 0.0 0.0
0.0 0.004746999124749517 0.0030421827267027722 -0.003497833649210769 0.0004556509225079976 -0.004128901414582322 0.0 0.0
0.0 0.0 0.0 0.0 0.0 0.0 0.0 0.0
0.0 0.0 0.0 0.0 0.0 0.0 0.0 0.0
0.0 1.482344240498596e-06 8.385480007577702e-07 -6.437098225682997e-07 -1.948381781894697e-07 -1.2426965328570973e-06 0.0 0.0
0.0 0.00020858363059107735 0.0001536546189614321 -0.00012353110102703482 -3.0123517934397308e-05 -0.00017590089853782815 0.0 0.0
0.0 0.0015630243677508325 0.0012472692728346957 -0.0010466566662204137 -0.0002006126066142815 -0.001035460171162668 0.0 0.0
0.0 0.004879649674117507 0.00399002392518121 -0.0035453373371927754 -0.0004446865879884339 -0.0026890147588889083 0.0 0.0
0.0 0.010315328392647774 0.008685335785570477 -0.008060230922424385 -0.0006251048631460923 -0.00526461809293839 0.0 0.0
0.0 0.018062318415069188 0.015259226780541804 -0.014518328722036547 -0.000740898058505265 -0.008625340922263256 0.0 0.0
0.0 0.02777968539473564 0.023478746708516417 -0.02264380028558502 -0.0008349464229313946 -0.012392129905115004 0.0 0.0
0.0 0.03912378757870295 0.03310256832963654 -0.03218039625866822 -0.0009221720709683466 -0.01624687716049469 0.0 0.0
0.0 0.05186284465086988 0.043959790215263014 -0.04295364377157061 -0.0010061464436923716 -0.02001089536395037 0.0 0.0
0.0 0.06595843410736339 0.05595284982979096 -0.05486395316260589 -0.0010888966671850735 -0.023709219351339957 0.0 0.0
0.0 0.08109422197056812 0.06898696953866525 -0.06781583558688141 -0.001171133951783848 -0.027321728313418434 0.0 0.0
0.0 0.09728950449840851 0.0828923644363831 -0.08163997827796647 -0.001252386158416649 -0.03064100029757953 0.0 0.0
0.0 0.11418048413563284 0.09738533640056268 -0.0960511434511408 -0.0013341929494218282 -0.0333022368541799 0.0 0.0
0.0 0.13081380048272676 0.11197915653872413 -0.11055852847094044 -0.0014206280677836562 -0.03472795002925821 0.0 0.0
0.0 0.14651263395402037 0.12584156982170627 -0.12432737343909424 -0.001514196382611988 -0.03390018992866897 0.0 0.0
0.0 0.15977730589009628 0.13772909843380177 -0.13612208622966046 -0.001607012204141285 -0.029157432029776897 0.0 0.0
0.0 0.16893869304687534 0.1461870622049785 -0.14450551862322453 -0.0016815435817539028 -0.01876765111387472 0.0 0.0
0.0 0.16893869304686693 0.14618706220496908 -0.14450551862321506 -0.001681543581753906 0.018767651113938168 0.0 0.0
0.0 0.159777305890066 0.1377290984337708 -0.13612208622963012 -0.0016070122041406303 0.029157432029858016 0.0 0.0
0.0 0.1465126339539691 0.12584156982165695 -0.1243273734390464 -0.0015141963826105652 0.03390018992872908 0.0 0.0
0.0 0.1308138004826624 0.11197915653866523 -0.11055852847088309 -0.0014206280677821264 0.034727950029285505 0.0 0.0
0.0 0.11418048413555751 0.09738533640049679 -0.09605114345107647 -0.0013341929494203467 0.03330223685417043 0.0 0.0
0.0 0.09728950449832449 0.08289236443631048 -0.08163997827789427 -0.0012523861584162626 0.03064100029756546 0.0 0.0
0.0 0.08109422197049007 0.06898696953859729 -0.06781583558681442 -0.0011711339517828875 0.027321728313407206 0.0 0.0
0.0 0.06595843410728694 0.05595284982972439 -0.054863953162539794 -0.0010888966671845635 0.02370921935132735 0.0 0.0
0.0 0.05186284465079535 0.04395979021519926 -0.04295364377150729 -0.0010061464436919526 0.020010895363925977 0.0 0.0
0.0 0.03912378757863666 0.033102568329579994 -0.03218039625861252 -0.0009221720709674712 0.016246877160468465 0.0 0.0
0.0 0.027779685394676103 0.023478746708466818 -0.022643800285536315 -0.0008349464229305124 0.012392129905083293 0.0 0.0
0.0 0.018062318415023454 0.01525922678050318 -0.014518328721998194 -0.000740898058504977 0.008625340922242968 0.0 0.0
0.0 0.010315328392615746 0.008685335785543792 -0.00806023092239843 -0.0006251048631453603 0.005264618092922516 0.0 0.0
0.0 0.0048796496740990195 0.003990023925166273 -0.0035453373371786704 -0.0004446865879876024 0.0026890147588797984 0.0 0.0
0.0 0.001563024367741196 0.0012472692728274473 -0.001046656666214127 -0.00020061260661332004 0.0010354601711568398 0.0 0.0
0.0 0.00020858363058873136 0.00015365461896025293 -0.00012353110102604852 -3.0123517934204334e-05 0.000175900898536376 0.0 0.0
0.0 1.482344240448538e-06 8.385480009641676e-07 -6.437098227290655e-07 -1.9483817823509947e-07 1.242696533181723e-06 0.0 0.0
0.0 0.0 0.0 0.0 0.0 0.0 0.0 0.0
0.0 0.0 0.0 0.0 0.0 0.0 0.0 0.0
0.0 0.004746999124734601 0.003042182726693071 -0.0034978336492004145 0.0004556509225073428 0.0041289014145680725 0.0 0.0
0.0 0.0033234692992093902 0.002068243443136945 -0.0024434045672706694 0.00037516112413372375 -0.002944482830787323 0.0 0.0
0.0 0.0 0.0 0.0 0.0 0.0 0.0 0.0
0.0 0.0 0.0 0.0 0.0 0.0 0.0 0.0
0.0 1.2459832782016668e-06 -8.711175530045244e-08 6.722946238267231e-08 1.9882292917777628e-08 2.0432140011233723e-07 0.0 0.0
0.0 9.313932449091904e-05 5.552360123679261e-05 -4.45133024754775e-05 -1.1010298761315108e-05 -9.561088735932813e-05 0.0 0.0
0.0 0.0008988517053438554 0.0006806902632949378 -0.0005620913509759303 -0.00011859891231900721 -0.0008338816994765355 0.0 0.0
0.0 0.0033567512082025375 0.0026507664860839376 -0.0023050491993759333 -0.00034571728670800445 -0.0024904244177010614 0.0 0.0
0.0 0.0078241946689745 0.00633694737964239 -0.005783526936722452 -0.0005534204429199367 -0.005077916402079413 0.0 0.0
0.0 0.014233372623863682 0.011701847738562442 -0.011014155609653752 -0.000687692128908691 -0.008532070774749215 0.0 0.0
0.0 0.022299594691696206 0.018465593096015382 -0.017683877380438397 -0.0007817157155769871 -0.012448660684947226 0.0 0.0
0.0 0.031692041922469626 0.026360486809185433 -0.02549803627082024 -0.0008624505383651968 -0.016430602239666622 0.0 0.0
0.0 0.04221629924911112 0.03523450995093344 -0.03429641603386215 -0.0009380939170713041 -0.02032463674143941 0.0 0.0
0.0 0.05378512536108287 0.045027245676290156 -0.044016398480280876 -0.0010108471960092694 -0.02415927223843283 0.0 0.0
0.0 0.06634896448288694 0.055698399403847965 -0.05461619465216566 -0.0010822047516823117 -0.02789989053429808 0.0 0.0
0.0 0.07981091804183306 0.06715381104428292 -0.06600086231148888 -0.0011529487327940754 -0.03136458443491775 0.0 0.0
0.0 0.09367174930155046 0.07920386442908575 -0.07798172489886807 -0.0012221395302176687 -0.0342248219204843 0.0 0.0
0.0 0.10796968006430627 0.09153901035432009 -0.0902466464628339 -0.001292363891486177 -0.03595551828315119 0.0 0.0
0.0 0.12173224306198208 0.10365433713311747 -0.10228486380345081 -0.0013694733296666644 -0.03555500563511623 0.0 0.0
0.0 0.13368656537506549 0.1146558909475423 -0.11320294783656625 -0.001452943110975966 -0.031051720642936764 0.0 0.0
0.0 0.1428034556244402 0.12325602058118819 -0.1217258850136335 -0.0015301355675545823 -0.020228995511781447 0.0 0.0
0.0 0.14280345562443875 0.12325602058118361 -0.1217258850136302 -0.0015301355675533903 0.02022899551184687 0.0 0.0
0.0 0.13368656537504336 0.11465589094751709 -0.11320294783654164 -0.001452943110975437 0.031051720643020878 0.0 0.0
0.0 0.12173224306193818 0.1036543371330743 -0.1022848638034071 -0.001369473329667218 0.035555005635176176 0.0 0.0
0.0 0.10796968006425095 0.09153901035426927 -0.09024664646278294 -0.0012923638914862678 0.035955518283177196 0.0 0.0
0.0 0.09367174930148237 0.07920386442902724 -0.07798172489880957 -0.001222139530217655 0.034224821920471646 0.0 0.0
0.0 0.07981091804176324 0.0671538110442225 -0.06600086231142932 -0.0011529487327931703 0.031364584434902414 0.0 0.0
0.0 0.06634896448281877 0.05569839940378876 -0.054616194652107174 -0.0010822047516815963 0.02789989053428314 0.0 0.0
0.0 0.05378512536102028 0.045027245676235686 -0.04401639848022748 -0.001010847196008216 0.024159272238419672 0.0 0.0
0.0 0.04221629924904964 0.03523450995088123 -0.034296416033810985 -0.0009380939170702359 0.02032463674141548 0.0 0.0
0.0 0.031692041922412616 0.02636048680913801 -0.02549803627077308 -0.0008624505383649328 0.016430602239638912 0.0 0.0
0.0 0.02229959469164606 0.018465593095974592 -0.01768387738039805 -0.0007817157155765377 0.01244866068491501 0.0 0.0
0.0 0.014233372623830476 0.011701847738534773 -0.011014155609626885 -0.0006876921289078811 0.008532070774730411 0.0 0.0
0.0 0.007824194668949696 0.006336947379622287 -0.0057835269367031185 -0.0005534204429191679 0.005077916402064814 0.0 0.0
0.0 0.0033567512081880673 0.0026507664860726827 -0.002305049199365608 -0.0003457172867070739 0.002490424417691813 0.0 0.0
0.0 0.0008988517053367217 0.0006806902632901862 -0.000562091350971841 -0.00011859891231834512 0.0008338816994707711 0.0 0.0
0.0 9.313932448976419e-05 5.552360123666141e-05 -4.451330247534638e-05 -1.101029876131505e-05 9.561088735895281e-05 0.0 0.0
0.0 1.245983277765114e-06 -8.711175526903953e-08 6.722946235833695e-08 1.9882292910690027e-08 -2.0432140003799813e-07 0.0 0.0
0.0 0.0 0.0 0.0 0.0 0.0 0.0 0.0
0.0 0.0 0.0 0.0 0.0 0.0 0.0 0.0
0.0 0.0033234692991974267 0.002068243443129408 -0.002443404567262354 0.0003751611241329458 0.0029444828307765144 0.0 0.0
0.0 0.0021906337472381698 0.001304491675124187 -0.0015847899903426344 0.00028029831521844684 -0.0019622600259610653 0.0 0.0
0.0 6.808126749334917e-07 -1.0371231226033877e-08 1.1382208934150606e-08 -1.010977708115995e-09 1.3495275768488005e-07 0.0 0.0
0.0 3.7869285625906513e-07 -1.0853022555903305e-08 7.76318668522007e-09 3.0898358706842675e-09 7.416418593090768e-08 0.0 0.0
0.0 1.343535810957597e-06 -6.745450613659108e-08 5.1836617700734505e-08 1.5617888435866596e-08 2.5068220686766373e-07 0.0 0.0
0.0 4.9704783260873767e-05 2.4656289795830723e-05 -1.9641634972694623e-05 -5.014654823136118e-06 -6.345459477754421e-05 0.0 0.0
0.0 0.0004954348697874775 0.0003045898696042879 -0.00024844823329763904 -5.614163630664904e-05 -0.0005611307084524927 0.0 0.0
0.0 0.002106777059674979 0.001530072717285608 -0.0012993444848480736 -0.00023072823243753494 -0.002061682688529252 0.0 0.0
0.0 0.005456741550079035 0.004184354165180353 -0.003732596840077188 -0.000451757325103162 -0.004512943844353766 0.0 0.0
0.0 0.010519213456207856 0.008281647304801234 -0.007669330864200142 -0.0006123164406010855 -0.0077737448644560145 0.0 0.0
0.0 0.016913573359157635 0.013556021901341144 -0.012840404036764952 -0.0007156178645761871 -0.011551331837932777 0.0 0.0
0.0 0.02434171750606306 0.01971185756347763 -0.018919603210783616 -0.0007922543526940114 -0.015442840176704265 0.0 0.0
0.0 0.032623593448529276 0.02660192789448896 -0.025741312619145043 -0.0008606152753439125 -0.019234362132258716 0.0 0.0
0.0 0.041726754851693 0.0341920375927556 -0.033268403307746386 -0.0009236342850092041 -0.02295849156100904 0.0 0.0
0.0 0.05158354146977321 0.042493034362915766 -0.041509161222600656 -0.0009838731403151015 -0.026616168937842036 0.0 0.0
0.0 0.06221520938372633 0.05148098937973934 -0.050437533102887275 -0.001043456276852054 -0.03002899208083717 0.0 0.0
0.0 0.07341512274776928 0.06104952190843214 -0.05994689688306673 -0.0011026250253654358 -0.03286874708471036 0.0 0.0
0.0 0.08490078055632501 0.07103766732829098 -0.06988158226054805 -0.0011560850677429146 -0.03477041309090739 0.0 0.0
0.0 0.09649811411060287 0.08128422053456433 -0.08007217990926083 -0.0012120406253034845 -0.034973925079069185 0.0 0.0
0.0 0.10758432365706075 0.0913543911958454 -0.09007090435235851 -0.0012834868434868276 -0.03142908964397388 0.0 0.0
0.0 0.11685073004086563 0.10019692974315583 -0.09882957165326332 -0.0013673580898924682 -0.021324950048268138 0.0 0.0
0.0 0.11685073004085299 0.10019692974314232 -0.09882957165324899 -0.0013673580898932588 0.021324950048327438 0.0 0.0
0.0 0.10758432365704057 0.09135439119582095 -0.09007090435233438 -0.0012834868434866544 0.031429089644053415 0.0 0.0
0.0 0.09649811411057689 0.08128422053453493 -0.08007217990923193 -0.0012120406253029196 0.03497392507913122 0.0 0.0
0.0 0.08490078055628783 0.07103766732825444 -0.06988158226051239 -0.0011560850677420622 0.03477041309093415 0.0 0.0
0.0 0.07341512274772222 0.06104952190839147 -0.0599468968830267 -0.0011026250253647735 0.03286874708470024 0.0 0.0
0.0 0.0622152093836737 0.051480989379694336 -0.05043753310284249 -0.0010434562768518278 0.030028992080822454 0.0 0.0
0.0 0.05158354146972189 0.042493034362871704 -0.04150916122255706 -0.000983873140314635 0.026616168937827887 0.0 0.0
0.0 0.04172675485164601 0.034192037592714886 -0.03326840330770632 -0.0009236342850085478 0.02295849156099728 0.0 0.0
0.0 0.03262359344847862 0.026601927894446976 -0.025741312619103413 -0.0008606152753435801 0.019234362132233666 0.0 0.0
0.0 0.024341717506019926 0.019711857563442545 -0.01891960321074936 -0.0007922543526931679 0.01544284017667773 0.0 0.0
0.0 0.01691357335911597 0.013556021901308815 -0.012840404036733123 -0.000715617864575688 0.011551331837900556 0.0 0.0
0.0 0.010519213456174011 0.008281647304774653 -0.007669330864173927 -0.0006123164406007287 0.007773744864434008 0.0 0.0
0.0 0.005456741550055968 0.004184354165162571 -0.0037325968400603454 -0.0004517573251022242 0.0045129438443372695 0.0 0.0
0.0 0.0021067770596618555 0.0015300727172760742 -0.0012993444848395065 -0.0002307282324365665 0.002061682688518141 0.0 0.0
0.0 0.0004954348697833695 0.0003045898696022502 -0.0002484482332959281 -5.6141636306321886e-05 0.0005611307084485958 0.0 0.0
0.0 4.970478325991021e-05 2.4656289795958866e-05 -1.9641634972793113e-05 -5.014654823165762e-06 6.345459477785561e-05 0.0 0.0
0.0 1.343535810551308e-06 -6.74545061154224e-08 5.1836617684484416e-08 1.561788843093987e-08 -2.5068220678900275e-07 0.0 0.0
0.0 3.786928558295237e-07 -1.0853022544114866e-08 7.763186676628835e-09 3.0898358674860974e-09 -7.416418584570931e-08 0.0 0.0
0.0 6.808126741997652e-07 -1.0371231215047161e-08 1.1382208922371451e-08 -1.0109777073237724e-09 -1.34952757536912e-07 0.0 0.0
0.0 0.0021906337472283794 0.0013044916751184677 -0.0015847899903361638 0.0002802983152176957 0.001962260025952463 0.0 0.0
0.0 0.0013024576133674694 0.0007293976090239146 -0.0009140020818619711 0.00018460447283805587 -0.0011739553818915585 0.0 0.0
0.0 1.7853033620120287e-06 7.248462798920235e-08 -7.246968782603966e-08 -1.494016316400828e-11 -1.6491183979170569e-06 0.0 0.0
0.0 7.081563797799032e-07 3.838984669687952e-09 -2.1794965503215395e-09 -1.659488119365884e-09 -4.353051799007793e-09 0.0 0.0
0.0 2.2159952555524703e-06 3.131599478434126e-07 -2.4286799612521777e-07 -7.029195171819266e-08 -2.0728832421811465e-06 0.0 0.0
0.0 3.969635970874301e-05 1.3912311002267645e-05 -1.1021686771580484e-05 -2.890624230687178e-06 -5.6182950237237764e-05 0.0 0.0
0.0 0.00026569467409383085 0.00012071960657586429 -9.760887507293794e-05 -2.3110731502926345e-05 -0.0003593520627387434 0.0 0.0
0.0 0.0011782158314016925 0.000701707267406108 -0.0005823203079144667 -0.00011938695949164102 -0.0014725662243679756 0.0 0.0
0.0 0.003363408017578544 0.002310603426610243 -0.0019994620098487386 -0.00031114141676150375 -0.003585462110550463 0.0 0.0
0.0 0.006998186444321524 0.0050960130595710095 -0.00459936211759319 -0.0004966509419778171 -0.006433059228626271 0.0 0.0
0.0 0.011618230005424805 0.008832112278965317 -0.008210488479786195 -0.0006216237991791222 -0.009750787164531713 0.0 0.0
0.0 0.0171575327272363 0.013224302616374885 -0.01252127397796532 -0.0007030286384095639 -0.013242260651390819 0.0 0.0
0.0 0.023160442077025625 0.018129485076763062 -0.017362836235050187 -0.0007666488417128717 -0.016692369847931092 0.0 0.0
0.0 0.02974812457436412 0.02352062159630995 -0.022699245192603308 -0.0008213764037066436 -0.02008615525891152 0.0 0.0
0.0 0.03695653676292644 0.029442177490925335 -0.02857150929648129 -0.0008706681944440464 -0.023418872350527458 0.0 0.0
0.0 0.0448344664355482 0.03594134752595398 -0.035023052664856016 -0.0009182948610979287 -0.02658313314519014 0.0 0.0
0.0 0.05319258151040966 0.04300496050231738 -0.042037675849758656 -0.0009672846525587062 -0.02926137941978945 0.0 0.0
0.0 0.06202594886655473 0.05056928967726988 -0.049558147794142325 -0.0010111418831275267 -0.031080795493104798 0.0 0.0
0.0 0.07123220577938161 0.058728636037837886 -0.05768728334621588 -0.0010413526916219695 -0.03181087151341305 0.0 0.0
0.0 0.08090392265034517 0.0676489567360759 -0.06655955364365013 -0.0010894030924257529 -0.029934374912690066 0.0 0.0
0.0 0.09026985831296641 0.0767488035521508 -0.07556683623528414 -0.0011819673168667498 -0.021938864890250043 0.0 0.0
0.0 0.09026985831297252 0.0767488035521521 -0.0755668362352859 -0.0011819673168662254 0.02193886489030473 0.0 0.0
0.0 0.08090392265033763 0.06764895673606132 -0.06655955364363556 -0.001089403092425752 0.029934374912767098 0.0 0.0
0.0 0.07123220577936229 0.058728636037813545 -0.05768728334619214 -0.001041352691621393 0.031810871513468855 0.0 0.0
0.0 0.062025948866528124 0.05056928967724278 -0.049558147794116755 -0.0010111418831260507 0.03108079549312409 0.0 0.0
0.0 0.05319258151037312 0.04300496050228648 -0.04203767584972947 -0.0009672846525569801 0.029261379419775094 0.0 0.0
0.0 0.0448344664355116 0.035941347525923505 -0.035023052664826686 -0.0009182948610968357 0.026583133145173993 0.0 0.0
0.0 0.03695653676288925 0.029442177490894124 -0.02857150929645022 -0.0008706681944439179 0.023418872350514847 0.0 0.0
0.0 0.029748124574335302 0.0235206215962851 -0.022699245192578724 -0.0008213764037063846 0.02008615525890403 0.0 0.0
0.0 0.023160442076992756 0.018129485076736646 -0.01736283623502414 -0.0007666488417125 0.016692369847911854 0.0 0.0
0.0 0.017157532727202503 0.0132243026163485 -0.012521273977939382 -0.0007030286384091079 0.013242260651366959 0.0 0.0
0.0 0.011618230005395188 0.008832112278943937 -0.008210488479765406 -0.0006216237991785268 0.009750787164504749 0.0 0.0
0.0 0.006998186444302365 0.005096013059556841 -0.004599362117579685 -0.0004966509419771583 0.0064330592286107515 0.0 0.0
0.0 0.003363408017566725 0.0023106034266016486 -0.0019994620098409835 -0.0003111414167606652 0.00358546211054008 0.0 0.0
0.0 0.0011782158313954736 0.0007017072674024459 -0.0005823203079113562 -0.00011938695949108944 0.0014725662243617122 0.0 0.0
0.0 0.0002656946740907702 0.00012071960657482446 -9.760887507207764e-05 -2.311073150274677e-05 0.0003593520627357119 0.0 0.0
0.0 3.9696359707320734e-05 1.3912311002255597e-05 -1.1021686771565678e-05 -2.890624230689904e-06 5.618295023718306e-05 0.0 0.0
0.0 2.2159952554042836e-06 3.131599479590889e-07 -2.428679962128512e-07 -7.029195174624064e-08 2.072883242925234e-06 0.0 0.0
0.0 7.081563795150527e-07 3.838984723533433e-09 -2.1794965861667363e-09 -1.659488137365737e-09 4.353052479615323e-09 0.0 0.0
0.0 1.7853033614751426e-06 7.248462802982795e-08 -7.246968787346742e-08 -1.494015636058712e-11 1.6491183989138427e-06 0.0 0.0
0.0 0.0013024576133602683 0.0007293976090202053 -0.0009140020818576034 0.0001846044728373981 0.0011739553818856197 0.0 0.0
0.0 0.0006138014740071853 0.00033721734783026297 -0.00043922718481745056 0.00010200983698718775 -0.0005887407379406606 0.0 0.0
0.0 3.555834184896181e-06 4.860585534882942e-08 -6.690295197545247e-08 1.8297096626623208e-08 -2.12896587548661e-06 0.0 0.0
0.0 2.1900740704993545e-06 3.2864282307009493e-08 -1.4067821575796862e-08 -1.879646073121297e-08 -2.21724006773883e-06 0.0 0.0
0.0 5.445498257536207e-06 4.6587112781185915e-07 -3.2886267403278177e-07 -1.3700845377907418e-07 -6.672394297960004e-06 0.0 0.0
0.0 4.21574797024943e-05 8.38635012137776e-06 -6.554007553646831e-06 -1.8323425677309326e-06 -6.414840872936968e-05 0.0 0.0
0.0 0.0001860352282525397 4.948438916313435e-05 -3.9868876388807755e-05 -9.615512774326608e-06 -0.0002734523504939296 0.0 0.0
0.0 0.000616107817711741 0.00023111806079515352 -0.000188313626057665 -4.2804434737488324e-05 -0.0009135277902594065 0.0 0.0
0.0 0.001699598370859115 0.0008709141028739972 -0.0007267133893132133 -0.00014420071356078363 -0.0023674486707360764 0.0 0.0
0.0 0.003795486770776201 0.0022965786765580098 -0.0019874156289346346 -0.00030916304762337486 -0.004552762460077669 0.0 0.0
0.0 0.006688655621139275 0.004430478130088985 -0.003971818471304279 -0.0004586596587847064 -0.007132201718477294 0.0 0.0
0.0 0.010111351995207879 0.0070272000033419265 -0.006464850525307869 -0.0005623494780340565 -0.009909437294796224 0.0 0.0
0.0 0.013986440209677046 0.00992908990440851 -0.009297670336167336 -0.0006314195682411661 -0.012738691176945548 0.0 0.0
0.0 0.018170007987175333 0.013124421682445028 -0.012440405103911558 -0.0006840165785334761 -0.015592286624763207 0.0 0.0
0.0 0.022758248158268848 0.016666952125987483 -0.015941363757078445 -0.0007255883689090291 -0.01841199775451069 0.0 0.0
0.0 0.027815566607489985 0.020648204789830347 -0.019887048732180855 -0.0007611560576494843 -0.021142895014072714 0.0 0.0
0.0 0.033380937055238064 0.025167700847793566 -0.024370780629158838 -0.0007969202186347311 -0.02358999298458714 0.0 0.0
0.0 0.0394623078039318 0.03028328419689562 -0.02944635190727081 -0.0008369322896248259 -0.025312705626657217 0.0 0.0
0.0 0.04619335611768698 0.03615579619205228 -0.03529634616969517 -0.0008594500223571104 -0.026147029958124127 0.0 0.0
0.0 0.05426201484974992 0.04342207592581583 -0.04256461924839134 -0.0008574566774244746 -0.02599774141933536 0.0 0.0
0.0 0.06360511471344128 0.052562509844092664 -0.05161314738246337 -0.0009493624616293083 -0.02172341306470137 0.0 0.0
0.0 0.0636051147134376 0.05256250984408523 -0.05161314738245564 -0.0009493624616296143 0.02172341306474699 0.0 0.0
0.0 0.05426201484974472 0.04342207592580345 -0.04256461924837837 -0.0008574566774250464 0.02599774141939975 0.0 0.0
0.0 0.04619335611767629 0.03615579619203579 -0.03529634616967839 -0.0008594500223573907 0.02614702995817068 0.0 0.0
0.0 0.03946230780390929 0.03028328419687406 -0.029446351907248324 -0.0008369322896257353 0.025312705626668288 0.0 0.0
0.0 0.03338093705521323 0.02516770084777512 -0.024370780629140002 -0.0007969202186351111 0.02358999298457115 0.0 0.0
0.0 0.027815566607463694 0.020648204789810238 -0.019887048732160593 -0.0007611560576496388 0.021142895014057923 0.0 0.0
0.0 0.022758248158244183 0.016666952125968044 -0.015941363757058943 -0.0007255883689091015 0.01841199775449937 0.0 0.0
0.0 0.018170007987158347 0.013124421682430751 -0.012440405103897599 -0.0006840165785331625 0.015592286624758181 0.0 0.0
0.0 0.013986440209657686 0.009929089904394634 -0.00929767033615402 -0.0006314195682406104 0.012738691176930116 0.0 0.0
0.0 0.01011135199518756 0.007027200003328111 -0.00646485052529444 -0.000562349478033672 0.009909437294777262 0.0 0.0
0.0 0.0066886556211198794 0.0044304781300768484 -0.003971818471292658 -0.0004586596587841876 0.007132201718456457 0.0 0.0
0.0 0.003795486770762659 0.0022965786765490885 -0.001987415628926437 -0.0003091630476226508 0.004552762460063557 0.0 0.0
0.0 0.001699598370851469 0.0008709141028697847 -0.0007267133893095623 -0.0001442007135602227 0.0023674486707269083 0.0 0.0
0.0 0.0006161078177079127 0.00023111806079372497 -0.0001883136260564855 -4.2804434737239486e-05 0.0009135277902547524 0.0 0.0
0.0 0.00018603522825035764 4.9484389162890385e-05 -3.986887638859986e-05 -9.61551277429052e-06 0.0002734523504922666 0.0 0.0
0.0 4.2157479701905365e-05 8.386350121414863e-06 -6.554007553673285e-06 -1.83234256774158e-06 6.41484087296379e-05 0.0 0.0
0.0 5.445498257340497e-06 4.658711278525222e-07 -3.2886267406027185e-07 -1.3700845379224763e-07 6.672394298573994e-06 0.0 0.0
0.0 2.1900740704352006e-06 3.286428231577765e-08 -1.4067821578278533e-08 -1.8796460737498643e-08 2.2172400684980234e-06 0.0 0.0
0.0 3.5558341847610462e-06 4.860585537909836e-08 -6.690295202240656e-08 1.8297096643307834e-08 2.128965876618172e-06 0.0 0.0
0.0 0.0006138014740029628 0.0003372173478284071 -0.000439227184815133 0.00010200983698672558 0.0005887407379376211 0.0 0.0
0.0 0.0002017112699270198 0.00010591491333892636 -0.00014451551182870795 3.8600598489781595e-05 -0.00019799256313562935 0.0 0.0
0.0 4.614949232864577e-06 -8.241348666888557e-09 -2.845926323918913e-08 3.670061190607891e-08 -3.4501662002758166e-06 0.0 0.0
0.0 6.299379802552027e-06 -2.5760718441314185e-07 2.4692908299954664e-07 1.0678101413595806e-08 -7.730404280303405e-06 0.0 0.0
0.0 1.0730864954216141e-05 -1.6836503931217926e-07 2.4322632982151694e-07 -7.486129050933681e-08 -1.6569244054354142e-05 0.0 0.0
0.0 4.9104373086760775e-05 1.9677221302065658e-06 -1.3542619168036388e-06 -6.134602134029336e-07 -7.279783152574134e-05 0.0 0.0
0.0 0.00017236229342495693 1.436573375321848e-05 -1.1417091024223679e-05 -2.9486427289947843e-06 -0.00027044874536062143 0.0 0.0
0.0 0.00041372111640658373 5.0528239196756215e-05 -4.0936268929622694e-05 -9.59197026713354e-06 -0.000676080853925432 0.0 0.0
0.0 0.0008467187347629394 0.00013928510796486348 -0.0001134887427010177 -2.5796365263845657e-05 -0.0013434944171611632 0.0 0.0
0.0 0.0015522685461797036 0.00036836529687725845 -0.00030063504358056927 -6.773025329668891e-05 -0.002497391062487231 0.0 0.0
0.0 0.002730189640891184 0.000830827383678151 -0.0006808678673646841 -0.0001499595163134666 -0.004131594157115824 0.0 0.0
0.0 0.004170514159005958 0.001526809678921228 -0.0012758551133680168 -0.00025095456555321056 -0.006146252218207692 0.0 0.0
0.0 0.0059791284724278046 0.0023888556328131487 -0.002051975591950264 -0.0003368800408628843 -0.0083590492438651 0.0 0.0
0.0 0.008009657300297823 0.003382920497504751 -0.0029786015790821104 -0.0004043189184226391 -0.010711685347524617 0.0 0.0
0.0 0.010301510868318405 0.004538727659803088 -0.004084465926353326 -0.0004542617334497612 -0.013184910907410322 0.0 0.0
0.0 0.0128710883297309 0.005968636012691213 -0.00547820515554987 -0.0004904308571413384 -0.015740984804434748 0.0 0.0
0.0 0.015854281183988874 0.00787061791677718 -0.007351033004527807 -0.0005195849122493726 -0.018207713741828217 0.0 0.0
0.0 0.019278879432124536 0.01050460894722612 -0.00995133223843703 -0.0005532767087890865 -0.020129906056992216 0.0 0.0
0.0 0.023230328805993693 0.014085133321984558 -0.013486131602508155 -0.000599001719476397 -0.020859816915886023 0.0 0.0
0.0 0.028656336379944677 0.019131176763681857 -0.01854339273033248 -0.0005877840333493782 -0.020896386276837882 0.0 0.0
0.0 0.03708751482146061 0.02734638581343253 -0.02676664908405041 -0.0005797367293821196 -0.020529857557118707 0.0 0.0
0.0 0.03708751482146565 0.02734638581343258 -0.026766649084050357 -0.0005797367293822157 0.020529857557154477 0.0 0.0
0.0 0.028656336379948924 0.019131176763677423 -0.018543392730328123 -0.0005877840333493107 0.02089638627689002 0.0 0.0
0.0 0.023230328805987608 0.014085133321975175 -0.013486131602498777 -0.0005990017194763941 0.020859816915912002 0.0 0.0
0.0 0.019278879432111762 0.010504608947216894 -0.009951332238428104 -0.000553276708788786 0.020129906056990617 0.0 0.0
0.0 0.015854281183973088 0.007870617916770265 -0.007351033004521057 -0.0005195849122492062 0.018207713741809586 0.0 0.0
0.0 0.012871088329721293 0.005968636012687947 -0.0054782051555468106 -0.0004904308571411366 0.015740984804421265 0.0 0.0
0.0 0.010301510868309322 0.00453872765979957 -0.004084465926349837 -0.00045426173344973396 0.013184910907400593 0.0 0.0
0.0 0.008009657300290098 0.0033829204975019673 -0.0029786015790793756 -0.00040431891842259023 0.010711685347516823 0.0 0.0
0.0 0.005979128472415102 0.002388855632808889 -0.002051975591946199 -0.00033688004086268906 0.008359049243848359 0.0 0.0
0.0 0.0041705141589958115 0.0015268096789178018 -0.0012758551133651434 -0.0002509545655526589 0.006146252218194005 0.0 0.0
0.0 0.0027301896408825138 0.0008308273836761546 -0.0006808678673631361 -0.00014995951631301843 0.004131594157103229 0.0 0.0
0.0 0.0015522685461761372 0.0003683652968765821 -0.00030063504357999904 -6.7730253296583e-05 0.0024973910624811546 0.0 0.0
0.0 0.0008467187347602047 0.00013928510796428208 -0.00011348874270057167 -2.579636526371029e-05 0.0013434944171566835 0.0 0.0
0.0 0.00041372111640464344 5.0528239196655004e-05 -4.0936268929518956e-05 -9.591970267136013e-06 0.0006760808539237107 0.0 0.0
0.0 0.00017236229342332143 1.4365733753194098e-05 -1.1417091024194339e-05 -2.9486427289997577e-06 0.00027044874535958434 0.0 0.0
0.0 4.9104373085918004e-05 1.967722130229929e-06 -1.354261916819768e-06 -6.134602134101649e-07 7.279783152633045e-05 0.0 0.0
0.0 1.0730864953849207e-05 -1.683650393209426e-07 2.4322632983017303e-07 -7.486129050923045e-08 1.6569244054726573e-05 0.0 0.0
0.0 6.299379801894e-06 -2.5760718444596877e-07 2.469290830288236e-07 1.0678101417144464e-08 7.73040428110886e-06 0.0 0.0
0.0 4.61494923251042e-06 -8.24134867072995e-09 -2.8459263248252835e-08 3.670061191898531e-08 3.4501662009747e-06 0.0 0.0
0.0 0.0002017112699245185 0.00010591491333803358 -0.0001445155118275357 3.86005984895021e-05 0.00019799256313403346 0.0 0.0
0.0 2.9272693599226004e-05 1.3997957581518831e-05 -2.0030204539581693e-05 6.032246958062847e-06 -2.860925581939435e-05 0.0 0.0
0.0 4.2857667387775245e-06 -1.1853305360063014e-07 4.379496007126674e-08 7.473809352936826e-08 -3.7149690361825897e-06 0.0 0.0
0.0 9.214758197532739e-06 -1.0101716418361823e-06 8.642605937434766e-07 1.4591104809270654e-07 -1.2577403254698519e-05 0.0 0.0
0.0 1.732552050410571e-05 -2.1358870683207547e-06 1.8883011561388678e-06 2.475859121818887e-07 -2.6120992603542136e-05 0.0 0.0
0.0 5.779308550794019e-05 -5.892036001592135e-06 5.0814141551042985e-06 8.106218464878447e-07 -8.49032064172567e-05 0.0 0.0
0.0 0.00018255729185242755 -1.870796283367399e-05 1.5424848382099415e-05 3.283114451574563e-06 -0.00027899808693043364 0.0 0.0
0.0 0.0004207999723764697 -5.3980257432393736e-05 4.392060696984611e-05 1.0059650462547616e-05 -0.0006878047247701812 0.0 0.0
0.0 0.0008513500268779448 -0.00014122542846974794 0.00011505187375649162 2.6173554713256355e-05 -0.0013519912487998708 0.0 0.0
0.0 0.0015527277646289921 -0.0003688508644768538 0.0003010747915648216 6.777607291203208e-05 -0.0025002852062942418 0.0 0.0
0.0 0.002730028321523631 -0.0008308032563219767 0.0006809983883352175 0.00014980486798675944 -0.004132085621551128 0.0 0.0
0.0 0.0041896445393949065 -0.0015354689011334872 0.0012854009465202607 0.0002500679546132267 -0.006153369045838524 0.0 0.0
0.0 0.006016842315545594 -0.0024333545039472958 0.0020964186720831804 0.0003369358318641134 -0.008378775464316996 0.0 0.0
0.0 0.008077280964430687 -0.003468943577512082 0.0030611593836770705 0.00040778419383500817 -0.010727197295071456 0.0 0.0
0.0 0.010315681818570609 -0.0045728834362254046 0.004105943400359627 0.0004669400358657734 -0.013173044252386282 0.0 0.0
0.0 0.012545965042444235 -0.005589384690663363 0.0050713656796465235 0.0005180190110168378 -0.01570159717098278 0.0 0.0
0.0 0.014585918620824364 -0.006233563805461073 0.005670691731861942 0.000562872073599124 -0.018262121727470704 0.0 0.0
0.0 0.01608126597763564 -0.0061073211330579654 0.005505540150105361 0.0006017809829526055 -0.02084072159529258 0.0 0.0
0.0 0.01692577266527386 -0.004939268408008547 0.004315992491760259 0.0006232759162482827 -0.023538498876782006 0.0 0.0
0.0 0.01712713412040148 -0.002715035470123211 0.00211444852295894 0.0006005869471642672 -0.025960759026860247 0.0 0.0
0.0 0.017113031751605307 0.003804796640646527 -0.003860556100586182 5.5759459939651516e-05 -0.02531295642247338 0.0 0.0
0.0 0.017113031751611257 0.0038047966406479605 -0.003860556100586834 5.575945993887752e-05 0.025312956422487497 0.0 0.0
0.0 0.01712713412040295 -0.0027150354701220942 0.0021144485229569717 0.00060058694716512 0.02596075902687612 0.0 0.0
0.0 0.016925772665266924 -0.004939268408006148 0.004315992491758297 0.0006232759162478477 0.023538498876779737 0.0 0.0
0.0 0.01608126597761899 -0.00610732113304885 0.005505540150096277 0.0006017809829525714 0.020840721595282427 0.0 0.0
0.0 0.01458591862080259 -0.0062335638054486905 0.005670691731849446 0.000562872073599235 0.01826212172744868 0.0 0.0
0.0 0.012545965042430409 -0.0055893846906560785 0.005071365679639304 0.0005180190110167692 0.015701597170967446 0.0 0.0
0.0 0.01031568181855612 -0.004572883436216677 0.0041059434003512885 0.00046694003586538894 0.013173044252373959 0.0 0.0
0.0 0.008077280964410558 -0.0034689435774981426 0.0030611593836635236 0.0004077841938346155 0.010727197295058508 0.0 0.0
0.0 0.006016842315525944 -0.0024333545039367 0.00209641867207306 0.0003369358318636386 0.00837877546429699 0.0 0.0
0.0 0.004189644539379657 -0.0015354689011257182 0.0012854009465132865 0.0002500679546124319 0.006153369045820845 0.0 0.0
0.0 0.0027300283215118066 -0.0008308032563176934 0.0006809983883316515 0.00014980486798604113 0.004132085621537316 0.0 0.0
0.0 0.0015527277646248225 -0.00036885086447510423 0.00030107479156334354 6.777607291176066e-05 0.0025002852062886343 0.0 0.0
0.0 0.0008513500268759382 -0.0001412254284692356 0.00011505187375605889 2.6173554713176734e-05 0.0013519912487971514 0.0 0.0
0.0 0.000420799972374493 -5.398025743223173e-05 4.392060696976763e-05 1.0059650462464088e-05 0.0006878047247682406 0.0 0.0
0.0 0.0001825572918510394 -1.870796283365032e-05 1.542484838208876e-05 3.2831144515615883e-06 0.00027899808692997225 0.0 0.0
0.0 5.7793085506582006e-05 -5.892036001587283e-06 5.081414155100703e-06 8.106218464865709e-07 8.490320641724123e-05 0.0 0.0
0.0 1.732552050366731e-05 -2.1358870683502674e-06 1.8883011561636181e-06 2.4758591218664853e-07 2.612099260385173e-05 0.0 0.0
0.0 9.214758197004682e-06 -1.0101716419124063e-06 8.642605938074696e-07 1.459110481049377e-07 1.2577403255548315e-05 0.0 0.0
0.0 4.285766738493263e-06 -1.1853305361944586e-07 4.379496005764512e-08 7.473809356180557e-08 3.714969037214498e-06 0.0 0.0
0.0 2.927269359851341e-05 1.3997957581613767e-05 -2.0030204539707708e-05 6.032246958093938e-06 2.8609255819752538e-05 0.0 0.0
0.0 1.2794705618513804e-06 -7.325646252627723e-08 1.1123042410747284e-07 -3.797396158117645e-08 1.788907911065407e-07 0.0 0.0
0.0 2.9741326996860765e-06 -1.8933909958872852e-07 1.0132256184356225e-07 8.801653774516469e-08 -3.6134089247429324e-06 0.0 0.0
0.0 1.0562578832605748e-05 -1.78789513478101e-06 1.4876343682916217e-06 3.002607664893843e-07 -1.4203741331019346e-05 0.0 0.0
0.0 2.294638517475731e-05 -4.376808883768797e-06 3.725223588853838e-06 6.5158529491497e-07 -2.9099811236678247e-05 0.0 0.0
0.0 6.617254161925291e-05 -1.6183864799577334e-05 1.3486892017648065e-05 2.6969727819292684e-06 -9.72584914636237e-05 0.0 0.0
0.0 0.000210149608655459 -6.0413479049468814e-05 4.920826512057153e-05 1.1205213928897304e-05 -0.00031104039849868295 0.0 0.0
0.0 0.0006426544312663146 -0.00024221712781723924 0.0001976983645282655 4.45187632889737e-05 -0.0009433849581086525 0.0 0.0
0.0 0.0017120360515339174 -0.0008771288352211709 0.0007321536418618502 0.00014497519335932035 -0.00238385159870056 0.0 0.0
0.0 0.0037952554095594553 -0.0022963886411266968 0.001987411785953619 0.000308976855173077 -0.004556311642511782 0.0 0.0
0.0 0.006689804660294479 -0.004431714045783857 0.003973582402049979 0.00045813164373387666 -0.007134011072073287 0.0 0.0
0.0 0.01012790095289201 -0.007042834342328981 0.006481698000160223 0.000561136342168756 -0.009914307058833324 0.0 0.0
0.0 0.014031407973246679 -0.009978421250793325 0.009348236685198488 0.0006301845655948378 -0.012731156562565803 0.0 0.0
0.0 0.018235203798236156 -0.01320719457529645 0.012521085305747172 0.000686109269549274 -0.0155419076297451 0.0 0.0
0.0 0.02273757308194988 -0.016673924081380607 0.015936270561614417 0.0007376535197661904 -0.018325140758526964 0.0 0.0
0.0 0.02735775271566285 -0.020195709206050762 0.019406778556029042 0.00078893065002171 -0.021142620907132603 0.0 0.0
0.0 0.03172499199066198 -0.023414258603882954 0.02257623020362056 0.000838028400262384 -0.024050066413247383 0.0 0.0
0.0 0.03538240618958792 -0.025827247259345897 0.02494991431685661 0.0008773329424892817 -0.027141250280161063 0.0 0.0
0.0 0.03766861654179528 -0.026863838141916313 0.0259610815083755 0.0009027566335408308 -0.030311274416914245 0.0 0.0
0.0 0.03685676030759304 -0.02537266004151119 0.024377726192518823 0.0009949338489923434 -0.03176405248671911 0.0 0.0
0.0 0.02997971611581613 -0.018066100817744474 0.016947704009560628 0.001118396808183826 -0.029500800629183064 0.0 0.0
0.0 0.029979716115826137 -0.018066100817743833 0.016947704009559538 0.0011183968081842895 0.02950080062922325 0.0 0.0
0.0 0.03685676030759574 -0.025372660041503143 0.024377726192510066 0.0009949338489930648 0.031764052486768196 0.0 0.0
0.0 0.037668616541784807 -0.026863838141901207 0.025961081508359893 0.0009027566335413 0.030311274416941678 0.0 0.0
0.0 0.03538240618956165 -0.025827247259322623 0.02494991431683284 0.0008773329424897863 0.027141250280160484 0.0 0.0
0.0 0.031724991990626755 -0.023414258603855653 0.02257623020359303 0.000838028400262619 0.02405006641322434 0.0 0.0
0.0 0.02735775271563342 -0.020195709206027687 0.019406778556006383 0.0007889306500213117 0.021142620907114898 0.0 0.0
0.0 0.022737573081919066 -0.016673924081356404 0.015936270561590624 0.0007376535197657765 0.018325140758509238 0.0 0.0
0.0 0.018235203798204126 -0.013207194575270496 0.012521085305721522 0.0006861092695489622 0.01554190762972799 0.0 0.0
0.0 0.014031407973215343 -0.009978421250769566 0.009348236685175315 0.0006301845655942511 0.01273115656254328 0.0 0.0
0.0 0.010127900952864343 -0.007042834342309481 0.006481698000141424 0.0005611363421680537 0.009914307058808941 0.0 0.0
0.0 0.006689804660269517 -0.004431714045766652 0.0039735824020337655 0.0004581316437328876 0.007134011072049706 0.0 0.0
0.0 0.003795255409545681 -0.002296388641117173 0.001987411785944801 0.00030897685517237267 0.004556311642498314 0.0 0.0
0.0 0.0017120360515276035 -0.00087712883521711 0.0007321536418584669 0.0001449751933586432 0.002383851598693708 0.0 0.0
0.0 0.0006426544312610903 -0.00024221712781516901 0.00019769836452665496 4.451876328851408e-05 0.0009433849581023623 0.0 0.0
0.0 0.00021014960865368992 -6.041347904931903e-05 4.9208265120450205e-05 1.1205213928868845e-05 0.0003110403984977761 0.0 0.0
0.0 6.617254161807609e-05 -1.618386479952142e-05 1.3486892017603865e-05 2.6969727819175493e-06 9.725849146330981e-05 0.0 0.0
0.0 2.294638517389935e-05 -4.376808883796146e-06 3.7252235888767794e-06 6.515852949193671e-07 2.9099811236842622e-05 0.0 0.0
0.0 1.0562578831980083e-05 -1.787895134877388e-06 1.487634368370168e-06 3.0026076650721883e-07 1.4203741331754535e-05 0.0 0.0
0.0 2.9741326994022138e-06 -1.893390996212282e-07 1.0132256184718398e-07 8.801653777404452e-08 3.6134089255093862e-06 0.0 0.0
0.0 1.2794705614589102e-06 -7.325646250320453e-08 1.1123042407310628e-07 -3.797396156990146e-08 -1.7889079104850708e-07 0.0 0.0
0.0 0.0 0.0 0.0 0.0 0.0 0.0 0.0
0.0 1.7181858237530985e-06 -1.5810711046836957e-09 7.904166841985494e-09 -6.323095737304452e-09 1.88026274981147e-08 0.0 0.0
0.0 9.481189062321052e-06 -1.704024790449122e-06 1.4017216923201143e-06 3.0230309812900324e-07 -9.858235241573956e-06 0.0 0.0
0.0 2.5914150965177845e-05 -6.458427338761988e-06 5.369269407343903e-06 1.0891579314180953e-06 -2.8372821032317154e-05 0.0 0.0
0.0 7.90661494240932e-05 -2.9166892958701544e-05 2.3933463016110193e-05 5.2334299425913486e-06 -0.0001062012602768684 0.0 0.0
0.0 0.0003183294866332806 -0.0001486627499238267 0.00012111826950287255 2.7544480420954106e-05 -0.0004277787519539071 0.0 0.0
0.0 0.0012143620162707526 -0.0007198601778850007 0.0005984290600998469 0.00012143111778515389 -0.0015106857761361756 0.0 0.0
0.0 0.0033696698353920694 -0.0023120957680656806 0.0020012484950284247 0.00031084727303725584 -0.0035976106611029157 0.0 0.0
0.0 0.006994445393277073 -0.005093752063105396 0.004597398674389809 0.0004963533887155858 -0.0064323088674563995 0.0 0.0
0.0 0.011621917902327649 -0.00883577024926131 0.008214589996311769 0.0006211802529495413 -0.009752804374512779 0.0 0.0
0.0 0.017173265071634466 -0.013240176683926354 0.01253818534229428 0.0007019913416320833 -0.013239774023211708 0.0 0.0
0.0 0.023185686413537337 -0.01816567327102257 0.0174002784830825 0.0007653947879400686 -0.016642515048100003 0.0 0.0
0.0 0.029760841977368398 -0.02357091219348978 0.022748161305292267 0.0008227508881975158 -0.01992556169396813 0.0 0.0
0.0 0.03686523763882668 -0.029410677853222423 0.028530026155490707 0.0008806516977317026 -0.02318099482729855 0.0 0.0
0.0 0.0443643991229202 -0.03549493220729561 0.03455283109309908 0.0009421011141964859 -0.026627910246833315 0.0 0.0
0.0 0.051750895442443094 -0.04140893131932733 0.04040522306701358 0.0010037082523137058 -0.03055780920917614 0.0 0.0
0.0 0.05843904028618496 -0.04650642003711929 0.04544506019570321 0.001061359841416067 -0.03511125352793844 0.0 0.0
0.0 0.06289520777511938 -0.04976665161937725 0.04863271628043179 0.0011339353389454199 -0.03946137212236522 0.0 0.0
0.0 0.06300185966812458 -0.049252619526499335 0.04802316495739735 0.0012294545691019579 -0.0415762769192321 0.0 0.0
0.0 0.05319896396167266 -0.04083141671597487 0.03935844008535716 0.0014729766306177151 -0.03739007676963905 0.0 0.0
0.0 0.05319896396168265 -0.040831416715973894 0.03935844008535584 0.0014729766306180452 0.03739007676968954 0.0 0.0
0.0 0.06300185966812873 -0.04925261952649061 0.048023164957388495 0.0012294545691021064 0.04157627691929977 0.0 0.0
0.0 0.06289520777510559 -0.04976665161935651 0.0486327162804113 0.0011339353389451753 0.0394613721224102 0.0 0.0
0.0 0.05843904028615288 -0.04650642003708863 0.04544506019567367 0.0010613598414149887 0.035111253527945814 0.0 0.0
0.0 0.05175089544240083 -0.0414089313192917 0.04040522306697886 0.001003708252312855 0.030557809209158415 0.0 0.0
0.0 0.044364399122878914 -0.03549493220726123 0.03455283109306532 0.0009421011141959095 0.02662791024681511 0.0 0.0
0.0 0.03686523763878516 -0.02941067785318812 0.028530026155456866 0.0008806516977312462 0.02318099482727885 0.0 0.0
0.0 0.029760841977325564 -0.023570912193453385 0.022748161305256157 0.0008227508881972164 0.019925561693952643 0.0 0.0
0.0 0.02318568641349472 -0.018165673270987642 0.017400278483048138 0.0007653947879395055 0.016642515048077115 0.0 0.0
0.0 0.017173265071591136 -0.013240176683892595 0.01253818534226075 0.0007019913416318448 0.013239774023180882 0.0 0.0
0.0 0.011621917902290156 -0.008835770249233259 0.008214589996283904 0.0006211802529493545 0.009752804374482883 0.0 0.0
0.0 0.0069944453932529555 -0.005093752063086653 0.004597398674371721 0.0004963533887149275 0.0064323088674389075 0.0 0.0
0.0 0.0033696698353756927 -0.0023120957680534612 0.002001248495017401 0.0003108472730360604 0.0035976106610892964 0.0 0.0
0.0 0.0012143620162606552 -0.0007198601778789905 0.0005984290600947796 0.0001214311177842108 0.0015106857761256498 0.0 0.0
0.0 0.00031832948662972426 -0.00014866274992258029 0.00012111826950186137 2.7544480420718824e-05 0.0004277787519506159 0.0 0.0
0.0 7.906614942277777e-05 -2.9166892958665054e-05 2.393346301607633e-05 5.233429942588688e-06 0.00010620126027659086 0.0 0.0
0.0 2.5914150964438524e-05 -6.458427338872827e-06 5.369269407435689e-06 1.089157931437125e-06 2.837282103280278e-05 0.0 0.0
0.0 9.481189061877644e-06 -1.7040247905850057e-06 1.4017216924309007e-06 3.023030981541112e-07 9.858235242359353e-06 0.0 0.0
0.0 1.7181858233956604e-06 -1.5810711376378864e-09 7.904166860830718e-09 -6.323095723196547e-09 -1.880262704642705e-08 0.0 0.0
0.0 0.0 0.0 0.0 0.0 0.0 0.0 0.0
0.0 0.0 0.0 0.0 0.0 0.0 0.0 0.0
0.0 3.8538157917848767e-07 8.524370000021943e-09 -5.889213621647465e-09 -2.6351563783748637e-09 7.625979648851619e-08 0.0 0.0
0.0 5.938377160079366e-06 -1.293225266705463e-06 1.0550337088138466e-06 2.3819155789161174e-07 -5.738046158967332e-06 0.0 0.0
0.0 2.524463694997703e-05 -9.079196155403566e-06 7.473856677315708e-06 1.6053394780878477e-06 -2.9350712277106408e-05 0.0 0.0
0.0 0.0001071007584876529 -5.205118373995366e-05 4.2448488512861386e-05 9.602695227092298e-06 -0.0001290281572017317 0.0 0.0
0.0 0.0005581481761890039 -0.00034989046423339944 0.00028704098146516534 6.284948276823407e-05 -0.0006455712319247527 0.0 0.0
0.0 0.0021392922131995306 -0.0015407280057923268 0.00131033885253139 0.00023038915326093653 -0.002093009621293007 0.0 0.0
0.0 0.0054530380777608155 -0.004178837741925158 0.003727752870169923 0.0004510848717552354 -0.004515083327887204 0.0 0.0
0.0 0.01051600523850887 -0.008280103773986124 0.0076678785217441465 0.0006122252522419773 -0.00777038283050476 0.0 0.0
0.0 0.01691848725150912 -0.01356263034348299 0.01284729451224894 0.0007153358312340496 -0.0115540186589026 0.0 0.0
0.0 0.024352139416983824 -0.019723657325273994 0.018931956068328707 0.0007917012569452823 -0.015432441326956736 0.0 0.0
0.0 0.032614728196445064 -0.02661128980020238 0.02575142203995775 0.0008598677602446142 -0.019145207764753563 0.0 0.0
0.0 0.04166435540279605 -0.034183639308648914 0.0332596172462944 0.0009240220623544987 -0.022693834609366324 0.0 0.0
0.0 0.05141428046142344 -0.042406559838757456 0.04141703224093429 0.0009895275978231881 -0.02622270422072672 0.0 0.0
0.0 0.061803052219695565 -0.051098655917949314 0.05003895530557811 0.0010597006123711364 -0.030072925412325896 0.0 0.0
0.0 0.07233545614710071 -0.05978999312694691 0.058654134482682085 0.0011358586442647895 -0.034711395688619286 0.0 0.0
0.0 0.08191297935300035 -0.06756873947773662 0.06634812627930844 0.001220613198428131 -0.040204789709020916 0.0 0.0
0.0 0.08867449661719466 -0.07284298198939006 0.07152300651100449 0.0013199754783854959 -0.04545866941719369 0.0 0.0
0.0 0.0890726517684774 -0.07285400487753449 0.07138680452131949 0.0014672003562149485 -0.04767666855543638 0.0 0.0
0.0 0.07710398636542347 -0.0625918247662318 0.06090172460302229 0.0016901001632095294 -0.04358911191566621 0.0 0.0
0.0 0.07710398636543164 -0.06259182476622947 0.0609017246030208 0.0016901001632086481 0.04358911191572224 0.0 0.0
0.0 0.08907265176847333 -0.07285400487751931 0.0713868045213053 0.0014672003562139866 0.047676668555509616 0.0 0.0
0.0 0.0886744966171688 -0.07284298198935855 0.07152300651097411 0.0013199754783844 0.045458669417247105 0.0 0.0
0.0 0.08191297935295001 -0.06756873947768995 0.06634812627926259 0.0012206131984273333 0.0402047897090308 0.0 0.0
0.0 0.07233545614704165 -0.059789993126895896 0.05865413448263168 0.0011358586442642257 0.034711395688604145 0.0 0.0
0.0 0.061803052219633975 -0.05109865591789719 0.05003895530552622 0.0010597006123709261 0.030072925412304795 0.0 0.0
0.0 0.051414280461363884 -0.0424065598387074 0.041417032240884485 0.000989527597822938 0.02622270422070338 0.0 0.0
0.0 0.04166435540273813 -0.034183639308599426 0.03325961724624574 0.0009240220623536962 0.022693834609347097 0.0 0.0
0.0 0.03261472819638638 -0.026611289800153058 0.02575142203990886 0.000859867760244175 0.01914520776472753 0.0 0.0
0.0 0.02435213941692733 -0.019723657325228055 0.01893195606828311 0.0007917012569449453 0.015432441326923375 0.0 0.0
0.0 0.016918487251461414 -0.013562630343445181 0.012847294512211662 0.0007153358312335188 0.011554018658869339 0.0 0.0
0.0 0.010516005238474143 -0.008280103773958611 0.007667878521717296 0.0006122252522413232 0.007770382830482805 0.0 0.0
0.0 0.005453038077738769 -0.004178837741907954 0.0037277528701537524 0.0004510848717541994 0.0045150833278717155 0.0 0.0
0.0 0.0021392922131868116 -0.00154072800578324 0.001310338852523351 0.0002303891532598889 0.0020930096212824056 0.0 0.0
0.0 0.0005581481761828204 -0.00034989046422996805 0.00028704098146228006 6.284948276768802e-05 0.0006455712319191419 0.0 0.0
0.0 0.00010710075848602553 -5.2051183739626765e-05 4.244848851258409e-05 9.60269522704263e-06 0.00012902815720090073 0.0 0.0
0.0 2.524463694936973e-05 -9.079196155612267e-06 7.4738566774818466e-06 1.6053394781304155e-06 2.935071227771517e-05 0.0 0.0
0.0 5.938377159712234e-06 -1.2932252668877699e-06 1.0550337089612597e-06 2.3819155792650854e-07 5.738046159784209e-06 0.0 0.0
0.0 3.8538157904294466e-07 8.52436999717895e-09 -5.889213619678072e-09 -2.6351563774992616e-09 -7.62597964614563e-08 0.0 0.0
0.0 0.0 0.0 0.0 0.0 0.0 0.0 0.0
0.0 0.0 0.0 0.0 0.0 0.0 0.0 0.0
0.0 0.0 0.0 0.0 0.0 0.0 0.0 0.0
0.0 2.6473982921544823e-06 -6.481198097634293e-07 5.27703611574793e-07 1.2041619818863986e-07 -2.268368230991536e-06 0.0 0.0
0.0 2.3914439270433374e-05 -8.485608640472202e-06 6.912629963275231e-06 1.5729786771969814e-06 -2.051121344066603e-05 0.0 0.0
0.0 0.00017275533624904697 -9.805043720604982e-05 7.968198315635122e-05 1.836845404969861e-05 -0.0001704411645477542 0.0 0.0
0.0 0.0009733915539887794 -0.00071886782401858 0.0005966102521303758 0.00012225757188820424 -0.000900248592593273 0.0 0.0
0.0 0.003370237408522131 -0.0026493864560093237 0.002305710196723403 0.00034367625928592043 -0.00250973555818868 0.0 0.0
0.0 0.007816061257292476 -0.006328884740290721 0.005775750320192929 0.0005531344200977882 -0.005073637390316391 0.0 0.0
0.0 0.014233532650569427 -0.011703082688687829 0.011015325915566025 0.0006877567731218016 -0.008527571418462937 0.0 0.0
0.0 0.022309110919877598 -0.018474123090830026 0.017692462287038947 0.0007816608037910773 -0.012449836514444633 0.0 0.0
0.0 0.0316917062703249 -0.026364003613533853 0.025501502344257028 0.0008625012692768207 -0.01640988030190717 0.0 0.0
0.0 0.04216510329853926 -0.0352071856727398 0.034269166327339506 0.0009380193454002893 -0.020207054147676255 0.0 0.0
0.0 0.0536371671582422 -0.04494174104849928 0.043931760297866454 0.0010099807506327924 -0.023833885820198762 0.0 0.0
0.0 0.06610047594195857 -0.05554082223223349 0.054458745217299584 0.0010820770149339155 -0.027410022714409475 0.0 0.0
0.0 0.07946719249363618 -0.06685028551174343 0.0656889136760282 0.0011613718357152399 -0.03132057774879461 0.0 0.0
0.0 0.09293287322608972 -0.0783239953751805 0.07706972321401594 0.0012542721611645713 -0.03609421326535119 0.0 0.0
0.0 0.10554330115511612 -0.08872304242737039 0.08735857737135029 0.001364465056020043 -0.04184993212116657 0.0 0.0
0.0 0.11431250930396927 -0.09582452073620765 0.09432465235014484 0.001499868386062828 -0.047458982442676836 0.0 0.0
0.0 0.11487800533982298 -0.09603322660252488 0.09436574167695849 0.001667484925566347 -0.05039519138111109 0.0 0.0
0.0 0.10121391155293775 -0.08399748438626123 0.08213555703842143 0.0018619273478398103 -0.04888362353440058 0.0 0.0
0.0 0.10121391155293923 -0.08399748438625437 0.08213555703841441 0.0018619273478399224 0.04888362353445884 0.0 0.0
0.0 0.11487800533980824 -0.09603322660250263 0.09436574167693641 0.001667484925566159 0.05039519138118338 0.0 0.0
0.0 0.11431250930393583 -0.0958245207361714 0.09432465235010909 0.0014998683860622105 0.04745898244273143 0.0 0.0
0.0 0.10554330115506164 -0.08872304242732017 0.08735857737130046 0.0013644650560196531 0.04184993212118203 0.0 0.0
0.0 0.09293287322602126 -0.07832399537512089 0.07706972321395694 0.0012542721611639145 0.03609421326533992 0.0 0.0
0.0 0.07946719249356503 -0.06685028551168197 0.06568891367596752 0.001161371835714456 0.031320577748778 0.0 0.0
0.0 0.06610047594188459 -0.0555408222321701 0.05445874521723694 0.0010820770149331726 0.02741002271438657 0.0 0.0
0.0 0.053637167158169054 -0.044941741048436526 0.04393176029780389 0.0010099807506326114 0.02383388582017852 0.0 0.0
0.0 0.04216510329847095 -0.03520718567268151 0.03426916632728183 0.000938019345399668 0.02020705414765179 0.0 0.0
0.0 0.03169170627026213 -0.02636400361348131 0.0255015023442055 0.0008625012692757906 0.016409880301875523 0.0 0.0
0.0 0.022309110919821455 -0.018474123090783633 0.017692462286993137 0.0007816608037904964 0.012449836514411342 0.0 0.0
0.0 0.01423353265052582 -0.011703082688651903 0.011015325915530443 0.0006877567731214629 0.00852757141843948 0.0 0.0
0.0 0.007816061257264738 -0.006328884740268164 0.005775750320171153 0.0005531344200970096 0.005073637390300695 0.0 0.0
0.0 0.003370237408504458 -0.0026493864559956164 0.0023057101967109226 0.0003436762592846944 0.0025097355581772045 0.0 0.0
0.0 0.0009733915539813365 -0.0007188678240136503 0.0005966102521262256 0.00012225757188742426 0.0009002485925876585 0.0 0.0
0.0 0.00017275533624762135 -9.805043720586035e-05 7.968198315618043e-05 1.836845404967983e-05 0.00017044116454740464 0.0 0.0
0.0 2.391443926978567e-05 -8.48560864059194e-06 6.9126299633697376e-06 1.5729786772222139e-06 2.0511213440970153e-05 0.0 0.0
0.0 2.6473982920681726e-06 -6.481198098880359e-07 5.277036116755949e-07 1.204161982124386e-07 2.2683682314307974e-06 0.0 0.0
0.0 0.0 0.0 0.0 0.0 0.0 0.0 0.0
0.0 0.0 0.0 0.0 0.0 0.0 0.0 0.0
0.0 0.0 0.0 0.0 0.0 0.0 0.0 0.0
0.0 0.0 0.0 0.0 0.0 0.0 0.0 0.0
0.0 9.159772724021529e-07 5.630253744311479e-08 -4.536700834069255e-08 -1.0935529102421052e-08 1.5681455061216043e-07 0.0 0.0
0.0 2.1600732271584495e-05 -1.1739953243920338e-05 9.469741498996542e-06 2.2702117449238344e-06 -2.145205145810154e-05 0.0 0.0
0.0 0.00028464425904839593 -0.000201128959693561 0.0001635414615459723 3.7587498147588654e-05 -0.00024928086340248996 0.0 0.0
0.0 0.0015988017152921668 -0.0012687645437007686 0.0010683422346541536 0.0002004223090466153 -0.0010970545956771806 0.0 0.0
0.0 0.004879535636673893 -0.003982042994244751 0.003539308155590712 0.00044273483865404125 -0.0027008717505161285 0.0 0.0
0.0 0.010308118793094064 -0.008679442184447779 0.00805424464132111 0.0006251975431266692 -0.005254223797339885 0.0 0.0
0.0 0.018066850125675434 -0.015263771726845933 0.014522703440796841 0.0007410682860490951 -0.008621475603928867 0.0 0.0
0.0 0.027788664893107114 -0.023487106150034822 0.022651981841530645 0.000835124308504181 -0.012390989403289823 0.0 0.0
0.0 0.039108480413810785 -0.033093692727128886 0.032170954083568 0.0009227386435608563 -0.016215601569398823 0.0 0.0
0.0 0.051767947251564146 -0.04389220417309236 0.04288562265958653 0.0010065815135057807 -0.019881144664886757 0.0 0.0
0.0 0.06573071317729266 -0.05578736168634488 0.05470036676389931 0.001086994922445555 -0.02338922639778492 0.0 0.0
0.0 0.08076018709313215 -0.06874249827773286 0.0675763020970228 0.001166196180710084 -0.026824403327794455 0.0 0.0
0.0 0.09694990346320463 -0.08261363792429396 0.08136005489415697 0.001253583030136988 -0.030416254908017235 0.0 0.0
0.0 0.1136464832524164 -0.09679498489833545 0.09543255672728547 0.0013624281710499946 -0.03467892451499184 0.0 0.0
0.0 0.1287750463920398 -0.10973879568003876 0.10823959786148128 0.00149919781855742 -0.04001580448475586 0.0 0.0
0.0 0.13934047468234295 -0.11858447508005916 0.11692111517251098 0.0016633599075481737 -0.04582172207812939 0.0 0.0
0.0 0.1403962084707346 -0.1190583770664969 0.11721641483026404 0.0018419622362328175 -0.050570669433843515 0.0 0.0
0.0 0.12584907138735021 -0.1055750660686775 0.10355506281424649 0.002020003254431013 -0.05371446535314649 0.0 0.0
0.0 0.12584907138734913 -0.10557506606866973 0.10355506281423826 0.002020003254431402 0.05371446535320336 0.0 0.0
0.0 0.14039620847070855 -0.11905837706646664 0.11721641483023353 0.0018419622362330717 0.05057066943391676 0.0 0.0
0.0 0.13934047468229505 -0.11858447508001195 0.11692111517246392 0.001663359907548009 0.04582172207818322 0.0 0.0
0.0 0.1287750463919681 -0.10973879567997422 0.1082395978614174 0.001499197818556772 0.040015804484769824 0.0 0.0
0.0 0.11364648325232617 -0.09679498489825744 0.09543255672720716 0.0013624281710502457 0.03467892451498144 0.0 0.0
0.0 0.09694990346311375 -0.08261363792421525 0.08136005489407862 0.001253583030136597 0.030416254908003655 0.0 0.0
0.0 0.08076018709303961 -0.06874249827765304 0.0675763020969437 0.0011661961807093056 0.02682440332777309 0.0 0.0
0.0 0.06573071317720144 -0.05578736168626592 0.054700366763820875 0.0010869949224449813 0.02338922639776459 0.0 0.0
0.0 0.05176794725148257 -0.043892204173021726 0.042885622659516884 0.0010065815135048364 0.019881144664864486 0.0 0.0
0.0 0.039108480413730114 -0.03309369272706078 0.032170954083500104 0.0009227386435606746 0.016215601569365357 0.0 0.0
0.0 0.027788664893037295 -0.023487106149976414 0.022651981841472404 0.0008351243085040055 0.012390989403256124 0.0 0.0
0.0 0.01806685012562542 -0.015263771726803302 0.014522703440755081 0.0007410682860482208 0.008621475603907351 0.0 0.0
0.0 0.01030811879305894 -0.00867944218441814 0.008054244641292247 0.0006251975431258826 0.005254223797323469 0.0 0.0
0.0 0.004879535636651265 -0.0039820429942263634 0.003539308155573441 0.00044273483865292474 0.0027008717505045358 0.0 0.0
0.0 0.0015988017152818365 -0.0012687645436931265 0.001068342234647412 0.00020042230904571368 0.0010970545956706652 0.0 0.0
0.0 0.0002846442590453777 -0.00020112895969204322 0.00016354146154471614 3.758749814732687e-05 0.00024928086340083233 0.0 0.0
0.0 2.1600732271282826e-05 -1.1739953244125376e-05 9.4697414991572e-06 2.2702117449681584e-06 2.1452051458479317e-05 0.0 0.0
0.0 9.159772720464821e-07 5.630253742091469e-08 -4.5367008322703315e-08 -1.0935529098212496e-08 -1.5681455054918204e-07 0.0 0.0
0.0 0.0 0.0 0.0 0.0 0.0 0.0 0.0
0.0 0.0 0.0 0.0 0.0 0.0 0.0 0.0
0.0 0.0 0.0 0.0 0.0 0.0 0.0 0.0
0.0 0.0 0.0 0.0 0.0 0.0 0.0 0.0
0.0 2.633745482838499e-07 1.9034837468267232e-08 -1.5232417022672714e-08 -3.80242044559584e-09 3.959451352121644e-08 0.0 0.0
0.0 2.4246209708134736e-05 -1.6092303038473873e-05 1.290247569693431e-05 3.1898273415395785e-06 -2.1665428155502548e-05 0.0 0.0
0.0 0.0004914258137768561 -0.00038376540738484504 0.0003133566119883243 7.040879539652078e-05 -0.00032914953413668816 0.0 0.0
0.0 0.0024320826015837927 -0.0019923362316264658 0.001706443561098899 0.0002858926705275684 -0.0011778804895576363 0.0 0.0
0.0 0.00638881182796354 -0.0055026169673344375 0.004980261304853328 0.0005223556624811109 -0.002678663311688198 0.0 0.0
0.0 0.012933433413254604 -0.011146083645484316 0.010471406169733181 0.000674677475751139 -0.0049971841298231245 0.0 0.0
0.0 0.02202398746680216 -0.018891633265037937 0.01810887952513823 0.0007827537398997092 -0.00800276799253523 0.0 0.0
0.0 0.033326210572836176 -0.028550085842868392 0.02766939529627225 0.0008806905465961523 -0.011408312804228904 0.0 0.0
0.0 0.04654970392260535 -0.03986241516018984 0.03888701455580039 0.0009754006043894044 -0.014863709075201058 0.0 0.0
0.0 0.06142711763894318 -0.05261685160318793 0.05154882937257624 0.0010680222306116626 -0.01818184872805273 0.0 0.0
0.0 0.07778159365376577 -0.06667824245903087 0.06552034232915688 0.0011579001298739388 -0.021384105791486113 0.0 0.0
0.0 0.0955490743914079 -0.08195536198594858 0.08070888749331756 0.0012464744926309744 -0.024473494386039633 0.0 0.0
0.0 0.11448881085473664 -0.0982725197919201 0.0969314087605858 0.001341111031334277 -0.027467112003495525 0.0 0.0
0.0 0.13369345450601064 -0.11500116925256375 0.11354084311596115 0.0014603261366025642 -0.030663843308182406 0.0 0.0
0.0 0.15162464867091596 -0.13040151324311847 0.1287816399442691 0.0016198732988492819 -0.03483880354555981 0.0 0.0
0.0 0.16430180317352944 -0.14111088331470228 0.13930249159446453 0.0018083917202377296 -0.04069582331965878 0.0 0.0
0.0 0.16624776030736987 -0.14223721776235615 0.1402338512407293 0.0020033665216267903 -0.04833800463693804 0.0 0.0
0.0 0.15114435417159633 -0.1277645900086661 0.12558729548012942 0.0021772945285365615 -0.05810275609953516 0.0 0.0
0.0 0.15114435417159322 -0.12776459000865664 0.12558729548012051 0.0021772945285361725 0.05810275609959167 0.0 0.0
0.0 0.16624776030734 -0.14223721776232384 0.140233851240698 0.0020033665216258718 0.048338004637005515 0.0 0.0
0.0 0.1643018031734701 -0.14111088331464677 0.1393024915944101 0.0018083917202364763 0.0406958233197047 0.0 0.0
0.0 0.1516246486708326 -0.1304015132430447 0.12878163994419636 0.0016198732988483254 0.03483880354556929 0.0 0.0
0.0 0.13369345450591427 -0.11500116925247945 0.11354084311587828 0.0014603261366011083 0.030663843308176786 0.0 0.0
0.0 0.11448881085463625 -0.0982725197918327 0.09693140876049967 0.001341111031332972 0.027467112003485013 0.0 0.0
0.0 0.09554907439130828 -0.08195536198586238 0.08070888749323231 0.001246474492630005 0.024473494386023142 0.0 0.0
0.0 0.07778159365366352 -0.06667824245894234 0.06552034232906895 0.0011579001298733743 0.021384105791468898 0.0 0.0
0.0 0.0614271176388427 -0.052616851603101054 0.05154882937249 0.0010680222306110718 0.018181848728029713 0.0 0.0
0.0 0.04654970392251566 -0.03986241516011286 0.03888701455572399 0.0009754006043888768 0.014863709075170978 0.0 0.0
0.0 0.03332621057275868 -0.028550085842802057 0.0276693952962064 0.0008806905465956499 0.011408312804200174 0.0 0.0
0.0 0.02202398746674239 -0.018891633264986524 0.018108879525086802 0.0007827537398997225 0.008002767992516143 0.0 0.0
0.0 0.012933433413213841 -0.011146083645449237 0.010471406169698544 0.0006746774757506925 0.00499718412980773 0.0 0.0
0.0 0.006388811827938311 -0.005502616967312945 0.004980261304832724 0.0005223556624802194 0.0026786633116781863 0.0 0.0
0.0 0.002432082601571322 -0.001992336231616814 0.0017064435610902374 0.00028589267052657626 0.0011778804895523861 0.0 0.0
0.0 0.0004914258137718587 -0.0003837654073815733 0.0003133566119856043 7.040879539596882e-05 0.00032914953413428383 0.0 0.0
0.0 2.4246209707681082e-05 -1.6092303038722277e-05 1.2902475697118175e-05 3.189827341604109e-06 2.166542815579164e-05 0.0 0.0
0.0 2.633745479801639e-07 1.90348374459991e-08 -1.5232417004860948e-08 -3.802420441135515e-09 -3.959451347502403e-08 0.0 0.0
0.0 0.0 0.0 0.0 0.0 0.0 0.0 0.0
0.0 0.0 0.0 0.0 0.0 0.0 0.0 0.0
0.0 0.0 0.0 0.0 0.0 0.0 0.0 0.0
0.0 0.0 0.0 0.0 0.0 0.0 0.0 0.0
0.0 0.0 0.0 0.0 0.0 0.0 0.0 0.0
0.0 3.784922035945731e-05 -2.8778832079755003e-05 2.3083416953699153e-05 5.6954151260558455e-06 -2.7140886926000583e-05 0.0 0.0
0.0 0.0008334677914413807 -0.0006772527852946607 0.000557284421017276 0.00011996836427738457 -0.0003746300892850321 0.0 0.0
0.0 0.003399139106975959 -0.0028786926359262817 0.002507983583274116 0.0003707090526521657 -0.0011199914777782127 0.0 0.0
0.0 0.008113874623503064 -0.007134481511541155 0.006552148314858102 0.0005823331966830498 -0.0023530305471156205 0.0 0.0
0.0 0.01569171360328915 -0.013665567639131017 0.012954551428949487 0.0007110162101815302 -0.004229638088909159 0.0 0.0
0.0 0.026026132695438162 -0.022545644201173554 0.021728585984793373 0.000817058216380166 -0.006699139882651592 0.0 0.0
0.0 0.03889875961586428 -0.033616718153750336 0.0326967478614641 0.0009199702922862267 -0.009512547975842254 0.0 0.0
0.0 0.054032069152037565 -0.04662374659575313 0.04560152997252452 0.0010222166232285947 -0.012373079800889399 0.0 0.0
0.0 0.0710669113013006 -0.06133510836831553 0.060211592796337254 0.0011235155719782762 -0.01511665689428968 0.0 0.0
0.0 0.0899639396810898 -0.07756721471382791 0.07634326306343739 0.0012239516503905032 -0.017779795148970084 0.0 0.0
0.0 0.110177546257367 -0.09514253547892035 0.09381824378149675 0.0013242916974235668 -0.02036621302179729 0.0 0.0
0.0 0.13163241027006742 -0.11376630188638186 0.11233796148356921 0.0014283404028126213 -0.022646245998692534 0.0 0.0
0.0 0.15354191565815242 -0.13276463399883565 0.1312139076725524 0.0015507263262831824 -0.024433532987550566 0.0 0.0
0.0 0.17397879504201158 -0.1504691466777895 0.14875352003027237 0.0017156266475170938 -0.026648051351535043 0.0 0.0
0.0 0.18905667557457895 -0.16336921224867484 0.16143438739281277 0.0019348248558620443 -0.03200200691375524 0.0 0.0
0.0 0.1926333118196146 -0.16584587606086165 0.16368976479292033 0.002156111267941383 -0.043217652393280744 0.0 0.0
0.0 0.17784467614423088 -0.15105668831371344 0.14870992292887786 0.0023467653848355465 -0.061711066337001144 0.0 0.0
0.0 0.177844676144222 -0.15105668831370117 0.14870992292886576 0.0023467653848353656 0.06171106633704443 0.0 0.0
0.0 0.19263331181957138 -0.16584587606082069 0.16368976479287878 0.002156111267941939 0.04321765239333712 0.0 0.0
0.0 0.18905667557450276 -0.16336921224860737 0.16143438739274396 0.0019348248558633881 0.032002006913794054 0.0 0.0
0.0 0.17397879504191835 -0.15046914667770808 0.14875352003019165 0.001715626647516518 0.02664805135154317 0.0 0.0
0.0 0.1535419156580422 -0.13276463399874 0.13121390767245733 0.0015507263262826288 0.024433532987547198 0.0 0.0
0.0 0.13163241026995354 -0.11376630188628298 0.1123379614834709 0.001428340402812128 0.022646245998686712 0.0 0.0
0.0 0.11017754625724835 -0.09514253547881768 0.09381824378139456 0.0013242916974231331 0.02036621302178406 0.0 0.0
0.0 0.08996393968096994 -0.07756721471372408 0.07634326306333408 0.0012239516503900554 0.01777979514895521 0.0 0.0
0.0 0.07106691130118975 -0.061335108368219746 0.06021159279624187 0.0011235155719778464 0.015116656894273217 0.0 0.0
0.0 0.054032069151940476 -0.04662374659566888 0.0456015299724411 0.0010222166232277546 0.012373079800865848 0.0 0.0
0.0 0.0388987596157804 -0.03361671815367759 0.032696747861392206 0.0009199702922853795 0.009512547975818781 0.0 0.0
0.0 0.026026132695375556 -0.02254564420111872 0.021728585984739694 0.0008170582163790301 0.006699139882636656 0.0 0.0
0.0 0.015691713603240683 -0.01366556763908869 0.012954551428907796 0.0007110162101808967 0.004229638088896004 0.0 0.0
0.0 0.008113874623470843 -0.007134481511512943 0.00655214831483074 0.000582333196682206 0.0023530305471065145 0.0 0.0
0.0 0.003399139106959423 -0.002878692635912411 0.0025079835832614813 0.0003707090526509296 0.001119991477772817 0.0 0.0
0.0 0.0008334677914349001 -0.0006772527852899088 0.0005572844210132284 0.00011996836427668025 0.00037463008928254645 0.0 0.0
0.0 3.784922035896276e-05 -2.877883208005273e-05 2.3083416953921404e-05 5.695415126131352e-06 2.7140886926237986e-05 0.0 0.0
0.0 0.0 0.0 0.0 0.0 0.0 0.0 0.0
0.0 0.0 0.0 0.0 0.0 0.0 0.0 0.0
0.0 0.0 0.0 0.0 0.0 0.0 0.0 0.0
0.0 0.0 0.0 0.0 0.0 0.0 0.0 0.0
0.0 0.0 0.0 0.0 0.0 0.0 0.0 0.0
0.0 0.0 0.0 0.0 0.0 0.0 0.0 0.0
0.0 8.295881373913302e-05 -6.699085189171511e-05 5.3645953913606416e-05 1.3344897978108724e-05 -3.836628362613026e-05 0.0 0.0
0.0 0.0013379784897557879 -0.0010976232512643882 0.0009144828417705475 0.00018314040949384022 -0.00034734967123556805 0.0 0.0
0.0 0.004342148879280522 -0.0039026867412122303 0.0034548928278364216 0.0004477939133758085 -0.0008719412599255812 0.0 0.0
0.0 0.00998123260288906 -0.008825083126041263 0.008200640305140108 0.0006244428209011583 -0.0017119201986368494 0.0 0.0
0.0 0.018498573426276893 -0.01620613023347764 0.015466279098615438 0.0007398511348622129 -0.0029929862835231602 0.0 0.0
0.0 0.03004749843613123 -0.026183916496249682 0.025338695853819235 0.0008452206424304261 -0.00471528286744932 0.0 0.0
0.0 0.044470824234889045 -0.03864339589579878 0.03768957713327615 0.0009538187625225955 -0.0067068240496153935 0.0 0.0
0.0 0.06148761856664034 -0.053334729577201714 0.05227078166399466 0.0010639479132070254 -0.008735372042857138 0.0 0.0
0.0 0.08084371500888637 -0.07000069132177968 0.06882644671907263 0.0011742446027070523 -0.010681642261839801 0.0 0.0
0.0 0.10197354418482803 -0.08840684625504555 0.08712128302099209 0.0012855632340534994 -0.012598955653943773 0.0 0.0
0.0 0.12483058799775242 -0.10825706386990402 0.10685784600208012 0.001399217867823865 -0.014439183398554736 0.0 0.0
0.0 0.14885346355843124 -0.12907864684710438 0.12756194439706084 0.0015167024500435027 -0.015910699000619793 0.0 0.0
0.0 0.17301084715686055 -0.1500552622875956 0.14841322249845307 0.0016420397891425548 -0.016533840488881867 0.0 0.0
0.0 0.19559281419133118 -0.16968267883940308 0.16788985697037365 0.001792821869029576 -0.016526519472743275 0.0 0.0
0.0 0.21330439177354774 -0.18498082484247796 0.1829773130683128 0.002003511774165158 -0.01940171225131962 0.0 0.0
0.0 0.219891007232675 -0.1901287858036 0.18781275525167918 0.0023160305519205645 -0.033474527154763234 0.0 0.0
0.0 0.20658997806244586 -0.1761813317399274 0.17363636520752207 0.0025449665324051305 -0.06370657687697157 0.0 0.0
0.0 0.20658997806242946 -0.17618133173991066 0.17363636520750503 0.0025449665324055073 0.0637065768770034 0.0 0.0
0.0 0.2198910072326206 -0.19012878580355072 0.18781275525162994 0.002316030551920743 0.03347452715480915 0.0 0.0
0.0 0.21330439177346164 -0.18498082484240205 0.18297731306823833 0.0020035117741638007 0.019401712251348575 0.0 0.0
0.0 0.19559281419122326 -0.16968267883930863 0.1678898569702812 0.0017928218690274316 0.016526519472745166 0.0 0.0
0.0 0.173010847156738 -0.15005526228748878 0.14841322249834782 0.0016420397891409636 0.01653384048887875 0.0 0.0
0.0 0.14885346355829557 -0.12907864684698672 0.12756194439694346 0.0015167024500432854 0.015910699000617354 0.0 0.0
0.0 0.1248305879976189 -0.10825706386978808 0.10685784600196523 0.0013992178678228272 0.01443918339854928 0.0 0.0
0.0 0.10197354418469852 -0.08840684625493292 0.08712128302088064 0.0012855632340523033 0.01259895565393573 0.0 0.0
0.0 0.08084371500876095 -0.07000069132167042 0.06882644671896423 0.001174244602706185 0.010681642261831641 0.0 0.0
0.0 0.06148761856652954 -0.05333472957710565 0.052270781663899486 0.001063947913206143 0.00873537204283872 0.0 0.0
0.0 0.04447082423479639 -0.03864339589571826 0.037689577133196345 0.0009538187625219088 0.006706824049598291 0.0 0.0
0.0 0.030047498436057397 -0.026183916496184928 0.025338695853755127 0.0008452206424297992 0.004715282867439087 0.0 0.0
0.0 0.018498573426224563 -0.016206130233431586 0.015466279098570113 0.0007398511348614609 0.002992986283514527 0.0 0.0
0.0 0.009981232602854249 -0.008825083126010281 0.008200640305110012 0.0006244428209002694 0.00171192019863058 0.0 0.0
0.0 0.004342148879262593 -0.0039026867411962986 0.003454892827821414 0.00044779391337488466 0.0008719412599215806 0.0 0.0
0.0 0.00133797848974847 -0.0010976232512587814 0.0009144828417657215 0.0001831404094930601 0.00034734967123406426 0.0 0.0
0.0 8.295881373765845e-05 -6.6990851891273e-05 5.364595391322493e-05 1.3344897978048036e-05 3.836628362587415e-05 0.0 0.0
0.0 0.0 0.0 0.0 0.0 0.0 0.0 0.0
0.0 0.0 0.0 0.0 0.0 0.0 0.0 0.0
0.0 0.0 0.0 0.0 0.0 0.0 0.0 0.0
0.0 0.0 0.0 0.0 0.0 0.0 0.0 0.0
0.0 0.0 0.0 0.0 0.0 0.0 0.0 0.0
0.0 0.0 0.0 0.0 0.0 0.0 0.0 0.0
0.0 0.00020470441882999057 -0.0001767656360529397 0.00014134819558149316 3.541744047144666e-05 -4.26464713360787e-05 0.0 0.0
0.0 0.0020087354350291856 -0.0016374341027463875 0.001382563211268887 0.0002548708914774997 -0.00020342999543880818 0.0 0.0
0.0 0.005557837701342519 -0.004995537624400153 0.0044860311623982395 0.0005095064620019127 -0.00041029560778586745 0.0 0.0
0.0 0.011910910252386369 -0.010549584053323327 0.009893053707722315 0.0006565303456010111 -0.0007528311282317697 0.0 0.0
0.0 0.0213457937177826 -0.018731293687150125 0.017968814266780597 0.0007624794203695275 -0.001290863281701284 0.0 0.0
0.0 0.03408361303330169 -0.02976455583577201 0.028895905854786564 0.0008686499809854276 -0.002059707429429579 0.0 0.0
0.0 0.05006586784544177 -0.043585457246274814 0.04260272582454119 0.0009827314217336354 -0.0029862856358713087 0.0 0.0
0.0 0.06903918761299752 -0.059953209177018414 0.0588522215974842 0.0011009875795342182 -0.003947809360225436 0.0 0.0
0.0 0.09037985175902671 -0.07857575019087722 0.07735470295043294 0.0012210472404442514 -0.004886866365046117 0.0 0.0
0.0 0.11403066585830213 -0.09913699788877255 0.09779385052574764 0.0013431473630248875 -0.005801380076176333 0.0 0.0
0.0 0.1395191803598304 -0.12123312310743949 0.1197634101359405 0.0014697129714989713 -0.006627094684015627 0.0 0.0
0.0 0.1660218253858037 -0.14421336058362463 0.1426111098162606 0.0016022507673640815 -0.007184098261358922 0.0 0.0
0.0 0.1923335927471736 -0.1670162646081107 0.1652769976165734 0.0017392669915372119 -0.0070956934717080495 0.0 0.0
0.0 0.2166133597496848 -0.1880732698095919 0.1861946156554245 0.0018786541541674074 -0.00597037298666494 0.0 0.0
0.0 0.23623235589883382 -0.2051104664707487 0.20307345514972755 0.0020370113210209317 -0.005132811582195277 0.0 0.0
0.0 0.2468635807873764 -0.21410326182998962 0.21181656375215552 0.0022866980778339574 -0.014743047531353802 0.0 0.0
0.0 0.23916266746825038 -0.20511269336241758 0.2021886455552789 0.002924047807138619 -0.05878711112046692 0.0 0.0
0.0 0.23916266746823805 -0.2051126933624051 0.20218864555526808 0.0029240478071367623 0.05878711112047999 0.0 0.0
0.0 0.24686358078732173 -0.21410326182994063 0.211816563752109 0.0022866980778314143 0.014743047531376906 0.0 0.0
0.0 0.2362323558987326 -0.20511046647066059 0.20307345514964045 0.0020370113210199923 0.00513281158220819 0.0 0.0
0.0 0.21661335974955737 -0.18807326980948158 0.18619461565531453 0.0018786541541670927 0.005970372986663799 0.0 0.0
0.0 0.1923335927470335 -0.16701626460798918 0.16527699761645245 0.0017392669915365447 0.007095693471703546 0.0 0.0
0.0 0.16602182538565677 -0.14421336058349718 0.14261110981613373 0.00160225076736333 0.007184098261358697 0.0 0.0
0.0 0.13951918035968236 -0.1212331231073115 0.11976341013581246 0.0014697129714989756 0.006627094684011793 0.0 0.0
0.0 0.11403066585815658 -0.09913699788864659 0.09779385052562187 0.0013431473630246742 0.005801380076171408 0.0 0.0
0.0 0.09037985175888741 -0.07857575019075648 0.07735470295031285 0.001221047240443606 0.004886866365042677 0.0 0.0
0.0 0.06903918761287033 -0.059953209176908176 0.05885222159737431 0.0011009875795338435 0.003947809360215408 0.0 0.0
0.0 0.05006586784533778 -0.04358545724618476 0.04260272582445164 0.0009827314217331423 0.002986285635862566 0.0 0.0
0.0 0.03408361303322001 -0.029764555835700653 0.028895905854715704 0.0008686499809849392 0.00205970742942497 0.0 0.0
0.0 0.021345793717719858 -0.01873129368709492 0.017968814266725787 0.0007624794203691168 0.0012908632816970651 0.0 0.0
0.0 0.011910910252344272 -0.010549584053286062 0.009893053707685681 0.0006565303456003824 0.0007528311282291652 0.0 0.0
0.0 0.0055578377013206955 -0.004995537624380335 0.004486031162379307 0.0005095064620010267 0.0004102956077843023 0.0 0.0
0.0 0.0020087354350193194 -0.0016374341027385613 0.0013825632112619084 0.0002548708914766537 0.00020342999543800148 0.0 0.0
0.0 0.0002047044188282271 -0.00017676563605201027 0.00014134819558073663 3.5417440471273614e-05 4.264647133588097e-05 0.0 0.0
0.0 0.0 0.0 0.0 0.0 0.0 0.0 0.0
0.0 0.0 0.0 0.0 0.0 0.0 0.0 0.0
0.0 0.0 0.0 0.0 0.0 0.0 0.0 0.0