# vtk DataFile Version 3.0
Some data
ASCII
DATASET UNSTRUCTURED_GRID
POINTS 861 float
0.0 0.0 0.0
0.4 0.0 0.0
0.8 0.0 0.0
1.2000000000000002 0.0 0.0
1.6 0.0 0.0
2.0 0.0 0.0
2.4000000000000004 0.0 0.0
2.8000000000000003 0.0 0.0
3.2 0.0 0.0
3.6 0.0 0.0
4.0 0.0 0.0
4.4 0.0 0.0
4.800000000000001 0.0 0.0
5.2 0.0 0.0
5.6000000000000005 0.0 0.0
6.0 0.0 0.0
6.4 0.0 0.0
6.800000000000001 0.0 0.0
7.2 0.0 0.0
7.6000000000000005 0.0 0.0
8.0 0.0 0.0
8.4 0.0 0.0
8.8 0.0 0.0
9.200000000000001 0.0 0.0
9.600000000000001 0.0 0.0
10.0 0.0 0.0
10.4 0.0 0.0
10.8 0.0 0.0
11.200000000000001 0.0 0.0
11.600000000000001 0.0 0.0
12.0 0.0 0.0
12.4 0.0 0.0
12.8 0.0 0.0
13.200000000000001 0.0 0.0
13.600000000000001 0.0 0.0
14.0 0.0 0.0
14.4 0.0 0.0
14.8 0.0 0.0
15.200000000000001 0.0 0.0
15.600000000000001 0.0 0.0
16.0 0.0 0.0
0.0 0.1 0.0
0.4 0.1 0.0
0.8 0.1 0.0
1.2000000000000002 0.1 0.0
1.6 0.1 0.0
2.0 0.1 0.0
2.4000000000000004 0.1 0.0
2.8000000000000003 0.1 0.0
3.2 0.1 0.0
3.6 0.1 0.0
4.0 0.1 0.0
4.4 0.1 0.0
4.800000000000001 0.1 0.0
5.2 0.1 0.0
5.6000000000000005 0.1 0.0
6.0 0.1 0.0
6.4 0.1 0.0
6.800000000000001 0.1 0.0
7.2 0.1 0.0
7.6000000000000005 0.1 0.0
8.0 0.1 0.0
8.4 0.1 0.0
8.8 0.1 0.0
9.200000000000001 0.1 0.0
9.600000000000001 0.1 0.0
10.0 0.1 0.0
10.4 0.1 0.0
10.8 0.1 0.0
11.200000000000001 0.1 0.0
11.600000000000001 0.1 0.0
12.0 0.1 0.0
12.4 0.1 0.0
12.8 0.1 0.0
13.200000000000001 0.1 0.0
13.600000000000001 0.1 0.0
14.0 0.1 0.0
14.4 0.1 0.0
14.8 0.1 0.0
15.200000000000001 0.1 0.0
15.600000000000001 0.1 0.0
16.0 0.1 0.0
0.0 0.2 0.0
0.4 0.2 0.0
0.8 0.2 0.0
1.2000000000000002 0.2 0.0
1.6 0.2 0.0
2.0 0.2 0.0
2.4000000000000004 0.2 0.0
2.8000000000000003 0.2 0.0
3.2 0.2 0.0
3.6 0.2 0.0
4.0 0.2 0.0
4.4 0.2 0.0
4.800000000000001 0.2 0.0
5.2 0.2 0.0
5.6000000000000005 0.2 0.0
6.0 0.2 0.0
6.4 0.2 0.0
6.800000000000001 0.2 0.0
7.2 0.2 0.0
7.6000000000000005 0.2 0.0
8.0 0.2 0.0
8.4 0.2 0.0
8.8 0.2 0.0
9.200000000000001 0.2 0.0
9.600000000000001 0.2 0.0
10.0 0.2 0.0
10.4 0.2 0.0
10.8 0.2 0.0
11.200000000000001 0.2 0.0
11.600000000000001 0.2 0.0
12.0 0.2 0.0
12.4 0.2 0.0
12.8 0.2 0.0
13.200000000000001 0.2 0.0
13.600000000000001 0.2 0.0
14.0 0.2 0.0
14.4 0.2 0.0
14.8 0.2 0.0
15.200000000000001 0.2 0.0
15.600000000000001 0.2 0.0
16.0 0.2 0.0
0.0 0.30000000000000004 0.0
0.4 0.30000000000000004 0.0
0.8 0.30000000000000004 0.0
1.2000000000000002 0.30000000000000004 0.0
1.6 0.30000000000000004 0.0
2.0 0.30000000000000004 0.0
2.4000000000000004 0.30000000000000004 0.0
2.8000000000000003 0.30000000000000004 0.0
3.2 0.30000000000000004 0.0
3.6 0.30000000000000004 0.0
4.0 0.30000000000000004 0.0
4.4 0.30000000000000004 0.0
4.800000000000001 0.30000000000000004 0.0
5.2 0.30000000000000004 0.0
5.6000000000000005 0.30000000000000004 0.0
6.0 0.30000000000000004 0.0
6.4 0.30000000000000004 0.0
6.800000000000001 0.30000000000000004 0.0
7.2 0.30000000000000004 0.0
7.6000000000000005 0.30000000000000004 0.0
8.0 0.30000000000000004 0.0
8.4 0.30000000000000004 0.0
8.8 0.30000000000000004 0.0
9.200000000000001 0.30000000000000004 0.0
9.600000000000001 0.30000000000000004 0.0
10.0 0.30000000000000004 0.0
10.4 0.30000000000000004 0.0
10.8 0.30000000000000004 0.0
11.200000000000001 0.30000000000000004 0.0
11.600000000000001 0.30000000000000004 0.0
12.0 0.30000000000000004 0.0
12.4 0.30000000000000004 0.0
12.8 0.30000000000000004 0.0
13.200000000000001 0.30000000000000004 0.0
13.600000000000001 0.30000000000000004 0.0
14.0 0.30000000000000004 0.0
14.4 0.30000000000000004 0.0
14.8 0.30000000000000004 0.0
15.200000000000001 0.30000000000000004 0.0
15.600000000000001 0.30000000000000004 0.0
16.0 0.30000000000000004 0.0
0.0 0.4 0.0
0.4 0.4 0.0
0.8 0.4 0.0
1.2000000000000002 0.4 0.0
1.6 0.4 0.0
2.0 0.4 0.0
2.4000000000000004 0.4 0.0
2.8000000000000003 0.4 0.0
3.2 0.4 0.0
3.6 0.4 0.0
4.0 0.4 0.0
4.4 0.4 0.0
4.800000000000001 0.4 0.0
5.2 0.4 0.0
5.6000000000000005 0.4 0.0
6.0 0.4 0.0
6.4 0.4 0.0
6.800000000000001 0.4 0.0
7.2 0.4 0.0
7.6000000000000005 0.4 0.0
8.0 0.4 0.0
8.4 0.4 0.0
8.8 0.4 0.0
9.200000000000001 0.4 0.0
9.600000000000001 0.4 0.0
10.0 0.4 0.0
10.4 0.4 0.0
10.8 0.4 0.0
11.200000000000001 0.4 0.0
11.600000000000001 0.4 0.0
12.0 0.4 0.0
12.4 0.4 0.0
12.8 0.4 0.0
13.200000000000001 0.4 0.0
13.600000000000001 0.4 0.0
14.0 0.4 0.0
14.4 0.4 0.0
14.8 0.4 0.0
15.200000000000001 0.4 0.0
15.600000000000001 0.4 0.0
16.0 0.4 0.0
0.0 0.5 0.0
0.4 0.5 0.0
0.8 0.5 0.0
1.2000000000000002 0.5 0.0
1.6 0.5 0.0
2.0 0.5 0.0
2.4000000000000004 0.5 0.0
2.8000000000000003 0.5 0.0
3.2 0.5 0.0
3.6 0.5 0.0
4.0 0.5 0.0
4.4 0.5 0.0
4.800000000000001 0.5 0.0
5.2 0.5 0.0
5.6000000000000005 0.5 0.0
6.0 0.5 0.0
6.4 0.5 0.0
6.800000000000001 0.5 0.0
7.2 0.5 0.0
7.6000000000000005 0.5 0.0
8.0 0.5 0.0
8.4 0.5 0.0
8.8 0.5 0.0
9.200000000000001 0.5 0.0
9.600000000000001 0.5 0.0
10.0 0.5 0.0
10.4 0.5 0.0
10.8 0.5 0.0
11.200000000000001 0.5 0.0
11.600000000000001 0.5 0.0
12.0 0.5 0.0
12.4 0.5 0.0
12.8 0.5 0.0
13.200000000000001 0.5 0.0
13.600000000000001 0.5 0.0
14.0 0.5 0.0
14.4 0.5 0.0
14.8 0.5 0.0
15.200000000000001 0.5 0.0
15.600000000000001 0.5 0.0
16.0 0.5 0.0
0.0 0.6000000000000001 0.0
0.4 0.6000000000000001 0.0
0.8 0.6000000000000001 0.0
1.2000000000000002 0.6000000000000001 0.0
1.6 0.6000000000000001 0.0
2.0 0.6000000000000001 0.0
2.4000000000000004 0.6000000000000001 0.0
2.8000000000000003 0.6000000000000001 0.0
3.2 0.6000000000000001 0.0
3.6 0.6000000000000001 0.0
4.0 0.6000000000000001 0.0
4.4 0.6000000000000001 0.0
4.800000000000001 0.6000000000000001 0.0
5.2 0.6000000000000001 0.0
5.6000000000000005 0.6000000000000001 0.0
6.0 0.6000000000000001 0.0
6.4 0.6000000000000001 0.0
6.800000000000001 0.6000000000000001 0.0
7.2 0.6000000000000001 0.0
7.6000000000000005 0.6000000000000001 0.0
8.0 0.6000000000000001 0.0
8.4 0.6000000000000001 0.0
8.8 0.6000000000000001 0.0
9.200000000000001 0.6000000000000001 0.0
9.600000000000001 0.6000000000000001 0.0
10.0 0.6000000000000001 0.0
10.4 0.6000000000000001 0.0
10.8 0.6000000000000001 0.0
11.200000000000001 0.6000000000000001 0.0
11.600000000000001 0.6000000000000001 0.0
12.0 0.6000000000000001 0.0
12.4 0.6000000000000001 0.0
12.8 0.6000000000000001 0.0
13.200000000000001 0.6000000000000001 0.0
13.600000000000001 0.6000000000000001 0.0
14.0 0.6000000000000001 0.0
14.4 0.6000000000000001 0.0
14.8 0.6000000000000001 0.0
15.200000000000001 0.6000000000000001 0.0
15.600000000000001 0.6000000000000001 0.0
16.0 0.6000000000000001 0.0
0.0 0.7000000000000001 0.0
0.4 0.7000000000000001 0.0
0.8 0.7000000000000001 0.0
1.2000000000000002 0.7000000000000001 0.0
1.6 0.7000000000000001 0.0
2.0 0.7000000000000001 0.0
2.4000000000000004 0.7000000000000001 0.0
2.8000000000000003 0.7000000000000001 0.0
3.2 0.7000000000000001 0.0
3.6 0.7000000000000001 0.0
4.0 0.7000000000000001 0.0
4.4 0.7000000000000001 0.0
4.800000000000001 0.7000000000000001 0.0
5.2 0.7000000000000001 0.0
5.6000000000000005 0.7000000000000001 0.0
6.0 0.7000000000000001 0.0
6.4 0.7000000000000001 0.0
6.800000000000001 0.7000000000000001 0.0
7.2 0.7000000000000001 0.0
7.6000000000000005 0.7000000000000001 0.0
8.0 0.7000000000000001 0.0
8.4 0.7000000000000001 0.0
8.8 0.7000000000000001 0.0
9.200000000000001 0.7000000000000001 0.0
9.600000000000001 0.7000000000000001 0.0
10.0 0.7000000000000001 0.0
10.4 0.7000000000000001 0.0
10.8 0.7000000000000001 0.0
11.200000000000001 0.7000000000000001 0.0
11.600000000000001 0.7000000000000001 0.0
12.0 0.7000000000000001 0.0
12.4 0.7000000000000001 0.0
12.8 0.7000000000000001 0.0
13.200000000000001 0.7000000000000001 0.0
13.600000000000001 0.7000000000000001 0.0
14.0 0.7000000000000001 0.0
14.4 0.7000000000000001 0.0
14.8 0.7000000000000001 0.0
15.200000000000001 0.7000000000000001 0.0
15.600000000000001 0.7000000000000001 0.0
16.0 0.7000000000000001 0.0
0.0 0.8 0.0
0.4 0.8 0.0
0.8 0.8 0.0
1.2000000000000002 0.8 0.0
1.6 0.8 0.0
2.0 0.8 0.0
2.4000000000000004 0.8 0.0
2.8000000000000003 0.8 0.0
3.2 0.8 0.0
3.6 0.8 0.0
4.0 0.8 0.0
4.4 0.8 0.0
4.800000000000001 0.8 0.0
5.2 0.8 0.0
5.6000000000000005 0.8 0.0
6.0 0.8 0.0
6.4 0.8 0.0
6.800000000000001 0.8 0.0
7.2 0.8 0.0
7.6000000000000005 0.8 0.0
8.0 0.8 0.0
8.4 0.8 0.0
8.8 0.8 0.0
9.200000000000001 0.8 0.0
9.600000000000001 0.8 0.0
10.0 0.8 0.0
10.4 0.8 0.0
10.8 0.8 0.0
11.200000000000001 0.8 0.0
11.600000000000001 0.8 0.0
12.0 0.8 0.0
12.4 0.8 0.0
12.8 0.8 0.0
13.200000000000001 0.8 0.0
13.600000000000001 0.8 0.0
14.0 0.8 0.0
14.4 0.8 0.0
14.8 0.8 0.0
15.200000000000001 0.8 0.0
15.600000000000001 0.8 0.0
16.0 0.8 0.0
0.0 0.9 0.0
0.4 0.9 0.0
0.8 0.9 0.0
1.2000000000000002 0.9 0.0
1.6 0.9 0.0
2.0 0.9 0.0
2.4000000000000004 0.9 0.0
2.8000000000000003 0.9 0.0
3.2 0.9 0.0
3.6 0.9 0.0
4.0 0.9 0.0
4.4 0.9 0.0
4.800000000000001 0.9 0.0
5.2 0.9 0.0
5.6000000000000005 0.9 0.0
6.0 0.9 0.0
6.4 0.9 0.0
6.800000000000001 0.9 0.0
7.2 0.9 0.0
7.6000000000000005 0.9 0.0
8.0 0.9 0.0
8.4 0.9 0.0
8.8 0.9 0.0
9.200000000000001 0.9 0.0
9.600000000000001 0.9 0.0
10.0 0.9 0.0
10.4 0.9 0.0
10.8 0.9 0.0
11.200000000000001 0.9 0.0
11.600000000000001 0.9 0.0
12.0 0.9 0.0
12.4 0.9 0.0
12.8 0.9 0.0
13.200000000000001 0.9 0.0
13.600000000000001 0.9 0.0
14.0 0.9 0.0
14.4 0.9 0.0
14.8 0.9 0.0
15.200000000000001 0.9 0.0
15.600000000000001 0.9 0.0
16.0 0.9 0.0
0.0 1.0 0.0
0.4 1.0 0.0
0.8 1.0 0.0
1.2000000000000002 1.0 0.0
1.6 1.0 0.0
2.0 1.0 0.0
2.4000000000000004 1.0 0.0
2.8000000000000003 1.0 0.0
3.2 1.0 0.0
3.6 1.0 0.0
4.0 1.0 0.0
4.4 1.0 0.0
4.800000000000001 1.0 0.0
5.2 1.0 0.0
5.6000000000000005 1.0 0.0
6.0 1.0 0.0
6.4 1.0 0.0
6.800000000000001 1.0 0.0
7.2 1.0 0.0
7.6000000000000005 1.0 0.0
8.0 1.0 0.0
8.4 1.0 0.0
8.8 1.0 0.0
9.200000000000001 1.0 0.0
9.600000000000001 1.0 0.0
10.0 1.0 0.0
10.4 1.0 0.0
10.8 1.0 0.0
11.200000000000001 1.0 0.0
11.600000000000001 1.0 0.0
12.0 1.0 0.0
12.4 1.0 0.0
12.8 1.0 0.0
13.200000000000001 1.0 0.0
13.600000000000001 1.0 0.0
14.0 1.0 0.0
14.4 1.0 0.0
14.8 1.0 0.0
15.200000000000001 1.0 0.0
15.600000000000001 1.0 0.0
16.0 1.0 0.0
0.0 1.1 0.0
0.4 1.1 0.0
0.8 1.1 0.0
1.2000000000000002 1.1 0.0
1.6 1.1 0.0
2.0 1.1 0.0
2.4000000000000004 1.1 0.0
2.8000000000000003 1.1 0.0
3.2 1.1 0.0
3.6 1.1 0.0
4.0 1.1 0.0
4.4 1.1 0.0
4.800000000000001 1.1 0.0
5.2 1.1 0.0
5.6000000000000005 1.1 0.0
6.0 1.1 0.0
6.4 1.1 0.0
6.800000000000001 1.1 0.0
7.2 1.1 0.0
7.6000000000000005 1.1 0.0
8.0 1.1 0.0
8.4 1.1 0.0
8.8 1.1 0.0
9.200000000000001 1.1 0.0
9.600000000000001 1.1 0.0
10.0 1.1 0.0
10.4 1.1 0.0
10.8 1.1 0.0
11.200000000000001 1.1 0.0
11.600000000000001 1.1 0.0
12.0 1.1 0.0
12.4 1.1 0.0
12.8 1.1 0.0
13.200000000000001 1.1 0.0
13.600000000000001 1.1 0.0
14.0 1.1 0.0
14.4 1.1 0.0
14.8 1.1 0.0
15.200000000000001 1.1 0.0
15.600000000000001 1.1 0.0
16.0 1.1 0.0
0.0 1.2000000000000002 0.0
0.4 1.2000000000000002 0.0
0.8 1.2000000000000002 0.0
1.2000000000000002 1.2000000000000002 0.0
1.6 1.2000000000000002 0.0
2.0 1.2000000000000002 0.0
2.4000000000000004 1.2000000000000002 0.0
2.8000000000000003 1.2000000000000002 0.0
3.2 1.2000000000000002 0.0
3.6 1.2000000000000002 0.0
4.0 1.2000000000000002 0.0
4.4 1.2000000000000002 0.0
4.800000000000001 1.2000000000000002 0.0
5.2 1.2000000000000002 0.0
5.6000000000000005 1.2000000000000002 0.0
6.0 1.2000000000000002 0.0
6.4 1.2000000000000002 0.0
6.800000000000001 1.2000000000000002 0.0
7.2 1.2000000000000002 0.0
7.6000000000000005 1.2000000000000002 0.0
8.0 1.2000000000000002 0.0
8.4 1.2000000000000002 0.0
8.8 1.2000000000000002 0.0
9.200000000000001 1.2000000000000002 0.0
9.600000000000001 1.2000000000000002 0.0
10.0 1.2000000000000002 0.0
10.4 1.2000000000000002 0.0
10.8 1.2000000000000002 0.0
11.200000000000001 1.2000000000000002 0.0
11.600000000000001 1.2000000000000002 0.0
12.0 1.2000000000000002 0.0
12.4 1.2000000000000002 0.0
12.8 1.2000000000000002 0.0
13.200000000000001 1.2000000000000002 0.0
13.600000000000001 1.2000000000000002 0.0
14.0 1.2000000000000002 0.0
14.4 1.2000000000000002 0.0
14.8 1.2000000000000002 0.0
15.200000000000001 1.2000000000000002 0.0
15.600000000000001 1.2000000000000002 0.0
16.0 1.2000000000000002 0.0
0.0 1.3 0.0
0.4 1.3 0.0
0.8 1.3 0.0
1.2000000000000002 1.3 0.0
1.6 1.3 0.0
2.0 1.3 0.0
2.4000000000000004 1.3 0.0
2.8000000000000003 1.3 0.0
3.2 1.3 0.0
3.6 1.3 0.0
4.0 1.3 0.0
4.4 1.3 0.0
4.800000000000001 1.3 0.0
5.2 1.3 0.0
5.6000000000000005 1.3 0.0
6.0 1.3 0.0
6.4 1.3 0.0
6.800000000000001 1.3 0.0
7.2 1.3 0.0
7.6000000000000005 1.3 0.0
8.0 1.3 0.0
8.4 1.3 0.0
8.8 1.3 0.0
9.200000000000001 1.3 0.0
9.600000000000001 1.3 0.0
10.0 1.3 0.0
10.4 1.3 0.0
10.8 1.3 0.0
11.200000000000001 1.3 0.0
11.600000000000001 1.3 0.0
12.0 1.3 0.0
12.4 1.3 0.0
12.8 1.3 0.0
13.200000000000001 1.3 0.0
13.600000000000001 1.3 0.0
14.0 1.3 0.0
14.4 1.3 0.0
14.8 1.3 0.0
15.200000000000001 1.3 0.0
15.600000000000001 1.3 0.0
16.0 1.3 0.0
0.0 1.4000000000000001 0.0
0.4 1.4000000000000001 0.0
0.8 1.4000000000000001 0.0
1.2000000000000002 1.4000000000000001 0.0
1.6 1.4000000000000001 0.0
2.0 1.4000000000000001 0.0
2.4000000000000004 1.4000000000000001 0.0
2.8000000000000003 1.4000000000000001 0.0
3.2 1.4000000000000001 0.0
3.6 1.4000000000000001 0.0
4.0 1.4000000000000001 0.0
4.4 1.4000000000000001 0.0
4.800000000000001 1.4000000000000001 0.0
5.2 1.4000000000000001 0.0
5.6000000000000005 1.4000000000000001 0.0
6.0 1.4000000000000001 0.0
6.4 1.4000000000000001 0.0
6.800000000000001 1.4000000000000001 0.0
7.2 1.4000000000000001 0.0
7.6000000000000005 1.4000000000000001 0.0
8.0 1.4000000000000001 0.0
8.4 1.4000000000000001 0.0
8.8 1.4000000000000001 0.0
9.200000000000001 1.4000000000000001 0.0
9.600000000000001 1.4000000000000001 0.0
10.0 1.4000000000000001 0.0
10.4 1.4000000000000001 0.0
10.8 1.4000000000000001 0.0
11.200000000000001 1.4000000000000001 0.0
11.600000000000001 1.4000000000000001 0.0
12.0 1.4000000000000001 0.0
12.4 1.4000000000000001 0.0
12.8 1.4000000000000001 0.0
13.200000000000001 1.4000000000000001 0.0
13.600000000000001 1.4000000000000001 0.0
14.0 1.4000000000000001 0.0
14.4 1.4000000000000001 0.0
14.8 1.4000000000000001 0.0
15.200000000000001 1.4000000000000001 0.0
15.600000000000001 1.4000000000000001 0.0
16.0 1.4000000000000001 0.0
0.0 1.5 0.0
0.4 1.5 0.0
0.8 1.5 0.0
1.2000000000000002 1.5 0.0
1.6 1.5 0.0
2.0 1.5 0.0
2.4000000000000004 1.5 0.0
2.8000000000000003 1.5 0.0
3.2 1.5 0.0
3.6 1.5 0.0
4.0 1.5 0.0
4.4 1.5 0.0
4.800000000000001 1.5 0.0
5.2 1.5 0.0
5.6000000000000005 1.5 0.0
6.0 1.5 0.0
6.4 1.5 0.0
6.800000000000001 1.5 0.0
7.2 1.5 0.0
7.6000000000000005 1.5 0.0
8.0 1.5 0.0
8.4 1.5 0.0
8.8 1.5 0.0
9.200000000000001 1.5 0.0
9.600000000000001 1.5 0.0
10.0 1.5 0.0
10.4 1.5 0.0
10.8 1.5 0.0
11.200000000000001 1.5 0.0
11.600000000000001 1.5 0.0
12.0 1.5 0.0
12.4 1.5 0.0
12.8 1.5 0.0
13.200000000000001 1.5 0.0
13.600000000000001 1.5 0.0
14.0 1.5 0.0
14.4 1.5 0.0
14.8 1.5 0.0
15.200000000000001 1.5 0.0
15.600000000000001 1.5 0.0
16.0 1.5 0.0
0.0 1.6 0.0
0.4 1.6 0.0
0.8 1.6 0.0
1.2000000000000002 1.6 0.0
1.6 1.6 0.0
2.0 1.6 0.0
2.4000000000000004 1.6 0.0
2.8000000000000003 1.6 0.0
3.2 1.6 0.0
3.6 1.6 0.0
4.0 1.6 0.0
4.4 1.6 0.0
4.800000000000001 1.6 0.0
5.2 1.6 0.0
5.6000000000000005 1.6 0.0
6.0 1.6 0.0
6.4 1.6 0.0
6.800000000000001 1.6 0.0
7.2 1.6 0.0
7.6000000000000005 1.6 0.0
8.0 1.6 0.0
8.4 1.6 0.0
8.8 1.6 0.0
9.200000000000001 1.6 0.0
9.600000000000001 1.6 0.0
10.0 1.6 0.0
10.4 1.6 0.0
10.8 1.6 0.0
11.200000000000001 1.6 0.0
11.600000000000001 1.6 0.0
12.0 1.6 0.0
12.4 1.6 0.0
12.8 1.6 0.0
13.200000000000001 1.6 0.0
13.600000000000001 1.6 0.0
14.0 1.6 0.0
14.4 1.6 0.0
14.8 1.6 0.0
15.200000000000001 1.6 0.0
15.600000000000001 1.6 0.0
16.0 1.6 0.0
0.0 1.7000000000000002 0.0
0.4 1.7000000000000002 0.0
0.8 1.7000000000000002 0.0
1.2000000000000002 1.7000000000000002 0.0
1.6 1.7000000000000002 0.0
2.0 1.7000000000000002 0.0
2.4000000000000004 1.7000000000000002 0.0
2.8000000000000003 1.7000000000000002 0.0
3.2 1.7000000000000002 0.0
3.6 1.7000000000000002 0.0
4.0 1.7000000000000002 0.0
4.4 1.7000000000000002 0.0
4.800000000000001 1.7000000000000002 0.0
5.2 1.7000000000000002 0.0
5.6000000000000005 1.7000000000000002 0.0
6.0 1.7000000000000002 0.0
6.4 1.7000000000000002 0.0
6.800000000000001 1.7000000000000002 0.0
7.2 1.7000000000000002 0.0
7.6000000000000005 1.7000000000000002 0.0
8.0 1.7000000000000002 0.0
8.4 1.7000000000000002 0.0
8.8 1.7000000000000002 0.0
9.200000000000001 1.7000000000000002 0.0
9.600000000000001 1.7000000000000002 0.0
10.0 1.7000000000000002 0.0
10.4 1.7000000000000002 0.0
10.8 1.7000000000000002 0.0
11.200000000000001 1.7000000000000002 0.0
11.600000000000001 1.7000000000000002 0.0
12.0 1.7000000000000002 0.0
12.4 1.7000000000000002 0.0
12.8 1.7000000000000002 0.0
13.200000000000001 1.7000000000000002 0.0
13.600000000000001 1.7000000000000002 0.0
14.0 1.7000000000000002 0.0
14.4 1.7000000000000002 0.0
14.8 1.7000000000000002 0.0
15.200000000000001 1.7000000000000002 0.0
15.600000000000001 1.7000000000000002 0.0
16.0 1.7000000000000002 0.0
0.0 1.8 0.0
0.4 1.8 0.0
0.8 1.8 0.0
1.2000000000000002 1.8 0.0
1.6 1.8 0.0
2.0 1.8 0.0
2.4000000000000004 1.8 0.0
2.8000000000000003 1.8 0.0
3.2 1.8 0.0
3.6 1.8 0.0
4.0 1.8 0.0
4.4 1.8 0.0
4.800000000000001 1.8 0.0
5.2 1.8 0.0
5.6000000000000005 1.8 0.0
6.0 1.8 0.0
6.4 1.8 0.0
6.800000000000001 1.8 0.0
7.2 1.8 0.0
7.6000000000000005 1.8 0.0
8.0 1.8 0.0
8.4 1.8 0.0
8.8 1.8 0.0
9.200000000000001 1.8 0.0
9.600000000000001 1.8 0.0
10.0 1.8 0.0
10.4 1.8 0.0
10.8 1.8 0.0
11.200000000000001 1.8 0.0
11.600000000000001 1.8 0.0
12.0 1.8 0.0
12.4 1.8 0.0
12.8 1.8 0.0
13.200000000000001 1.8 0.0
13.600000000000001 1.8 0.0
14.0 1.8 0.0
14.4 1.8 0.0
14.8 1.8 0.0
15.200000000000001 1.8 0.0
15.600000000000001 1.8 0.0
16.0 1.8 0.0
0.0 1.9000000000000001 0.0
0.4 1.9000000000000001 0.0
0.8 1.9000000000000001 0.0
1.2000000000000002 1.9000000000000001 0.0
1.6 1.9000000000000001 0.0
2.0 1.9000000000000001 0.0
2.4000000000000004 1.9000000000000001 0.0
2.8000000000000003 1.9000000000000001 0.0
3.2 1.9000000000000001 0.0
3.6 1.9000000000000001 0.0
4.0 1.9000000000000001 0.0
4.4 1.9000000000000001 0.0
4.800000000000001 1.9000000000000001 0.0
5.2 1.9000000000000001 0.0
5.6000000000000005 1.9000000000000001 0.0
6.0 1.9000000000000001 0.0
6.4 1.9000000000000001 0.0
6.800000000000001 1.9000000000000001 0.0
7.2 1.9000000000000001 0.0
7.6000000000000005 1.9000000000000001 0.0
8.0 1.9000000000000001 0.0
8.4 1.9000000000000001 0.0
8.8 1.9000000000000001 0.0
9.200000000000001 1.9000000000000001 0.0
9.600000000000001 1.9000000000000001 0.0
10.0 1.9000000000000001 0.0
10.4 1.9000000000000001 0.0
10.8 1.9000000000000001 0.0
11.200000000000001 1.9000000000000001 0.0
11.600000000000001 1.9000000000000001 0.0
12.0 1.9000000000000001 0.0
12.4 1.9000000000000001 0.0
12.8 1.9000000000000001 0.0
13.200000000000001 1.9000000000000001 0.0
13.600000000000001 1.9000000000000001 0.0
14.0 1.9000000000000001 0.0
14.4 1.9000000000000001 0.0
14.8 1.9000000000000001 0.0
15.200000000000001 1.9000000000000001 0.0
15.600000000000001 1.9000000000000001 0.0
16.0 1.9000000000000001 0.0
0.0 2.0 0.0
0.4 2.0 0.0
0.8 2.0 0.0
1.2000000000000002 2.0 0.0
1.6 2.0 0.0
2.0 2.0 0.0
2.4000000000000004 2.0 0.0
2.8000000000000003 2.0 0.0
3.2 2.0 0.0
3.6 2.0 0.0
4.0 2.0 0.0
4.4 2.0 0.0
4.800000000000001 2.0 0.0
5.2 2.0 0.0
5.6000000000000005 2.0 0.0
6.0 2.0 0.0
6.4 2.0 0.0
6.800000000000001 2.0 0.0
7.2 2.0 0.0
7.6000000000000005 2.0 0.0
8.0 2.0 0.0
8.4 2.0 0.0
8.8 2.0 0.0
9.200000000000001 2.0 0.0
9.600000000000001 2.0 0.0
10.0 2.0 0.0
10.4 2.0 0.0
10.8 2.0 0.0
11.200000000000001 2.0 0.0
11.600000000000001 2.0 0.0
12.0 2.0 0.0
12.4 2.0 0.0
12.8 2.0 0.0
13.200000000000001 2.0 0.0
13.600000000000001 2.0 0.0
14.0 2.0 0.0
14.4 2.0 0.0
14.8 2.0 0.0
15.200000000000001 2.0 0.0
15.600000000000001 2.0 0.0
16.0 2.0 0.0
CELLS 800 4000
4 0 1 42 41
4 1 2 43 42
4 2 3 44 43
4 3 4 45 44
4 4 5 46 45
4 5 6 47 46
4 6 7 48 47
4 7 8 49 48
4 8 9 50 49
4 9 10 51 50
4 10 11 52 51
4 11 12 53 52
4 12 13 54 53
4 13 14 55 54
4 14 15 56 55
4 15 16 57 56
4 16 17 58 57
4 17 18 59 58
4 18 19 60 59
4 19 20 61 60
4 20 21 62 61
4 21 22 63 62
4 22 23 64 63
4 23 24 65 64
4 24 25 66 65
4 25 26 67 66
4 26 27 68 67
4 27 28 69 68
4 28 29 70 69
4 29 30 71 70
4 30 31 72 71
4 31 32 73 72
4 32 33 74 73
4 33 34 75 74
4 34 35 76 75
4 35 36 77 76
4 36 37 78 77
4 37 38 79 78
4 38 39 80 79
4 39 40 81 80
4 41 42 83 82
4 42 43 84 83
4 43 44 85 84
4 44 45 86 85
4 45 46 87 86
4 46 47 88 87
4 47 48 89 88
4 48 49 90 89
4 49 50 91 90
4 50 51 92 91
4 51 52 93 92
4 52 53 94 93
4 53 54 95 94
4 54 55 96 95
4 55 56 97 96
4 56 57 98 97
4 57 58 99 98
4 58 59 100 99
4 59 60 101 100
4 60 61 102 101
4 61 62 103 102
4 62 63 104 103
4 63 64 105 104
4 64 65 106 105
4 65 66 107 106
4 66 67 108 107
4 67 68 109 108
4 68 69 110 109
4 69 70 111 110
4 70 71 112 111
4 71 72 113 112
4 72 73 114 113
4 73 74 115 114
4 74 75 116 115
4 75 76 117 116
4 76 77 118 117
4 77 78 119 118
4 78 79 120 119
4 79 80 121 120
4 80 81 122 121
4 82 83 124 123
4 83 84 125 124
4 84 85 126 125
4 85 86 127 126
4 86 87 128 127
4 87 88 129 128
4 88 89 130 129
4 89 90 131 130
4 90 91 132 131
4 91 92 133 132
4 92 93 134 133
4 93 94 135 134
4 94 95 136 135
4 95 96 137 136
4 96 97 138 137
4 97 98 139 138
4 98 99 140 139
4 99 100 141 140
4 100 101 142 141
4 101 102 143 142
4 102 103 144 143
4 103 104 145 144
4 104 105 146 145
4 105 106 147 146
4 106 107 148 147
4 107 108 149 148
4 108 109 150 149
4 109 110 151 150
4 110 111 152 151
4 111 112 153 152
4 112 113 154 153
4 113 114 155 154
4 114 115 156 155
4 115 116 157 156
4 116 117 158 157
4 117 118 159 158
4 118 119 160 159
4 119 120 161 160
4 120 121 162 161
4 121 122 163 162
4 123 124 165 164
4 124 125 166 165
4 125 126 167 166
4 126 127 168 167
4 127 128 169 168
4 128 129 170 169
4 129 130 171 170
4 130 131 172 171
4 131 132 173 172
4 132 133 174 173
4 133 134 175 174
4 134 135 176 175
4 135 136 177 176
4 136 137 178 177
4 137 138 179 178
4 138 139 180 179
4 139 140 181 180
4 140 141 182 181
4 141 142 183 182
4 142 143 184 183
4 143 144 185 184
4 144 145 186 185
4 145 146 187 186
4 146 147 188 187
4 147 148 189 188
4 148 149 190 189
4 149 150 191 190
4 150 151 192 191
4 151 152 193 192
4 152 153 194 193
4 153 154 195 194
4 154 155 196 195
4 155 156 197 196
4 156 157 198 197
4 157 158 199 198
4 158 159 200 199
4 159 160 201 200
4 160 161 202 201
4 161 162 203 202
4 162 163 204 203
4 164 165 206 205
4 165 166 207 206
4 166 167 208 207
4 167 168 209 208
4 168 169 210 209
4 169 170 211 210
4 170 171 212 211
4 171 172 213 212
4 172 173 214 213
4 173 174 215 214
4 174 175 216 215
4 175 176 217 216
4 176 177 218 217
4 177 178 219 218
4 178 179 220 219
4 179 180 221 220
4 180 181 222 221
4 181 182 223 222
4 182 183 224 223
4 183 184 225 224
4 184 185 226 225
4 185 186 227 226
4 186 187 228 227
4 187 188 229 228
4 188 189 230 229
4 189 190 231 230
4 190 191 232 231
4 191 192 233 232
4 192 193 234 233
4 193 194 235 234
4 194 195 236 235
4 195 196 237 236
4 196 197 238 237
4 197 198 239 238
4 198 199 240 239
4 199 200 241 240
4 200 201 242 241
4 201 202 243 242
4 202 203 244 243
4 203 204 245 244
4 205 206 247 246
4 206 207 248 247
4 207 208 249 248
4 208 209 250 249
4 209 210 251 250
4 210 211 252 251
4 211 212 253 252
4 212 213 254 253
4 213 214 255 254
4 214 215 256 255
4 215 216 257 256
4 216 217 258 257
4 217 218 259 258
4 218 219 260 259
4 219 220 261 260
4 220 221 262 261
4 221 222 263 262
4 222 223 264 263
4 223 224 265 264
4 224 225 266 265
4 225 226 267 266
4 226 227 268 267
4 227 228 269 268
4 228 229 270 269
4 229 230 271 270
4 230 231 272 271
4 231 232 273 272
4 232 233 274 273
4 233 234 275 274
4 234 235 276 275
4 235 236 277 276
4 236 237 278 277
4 237 238 279 278
4 238 239 280 279
4 239 240 281 280
4 240 241 282 281
4 241 242 283 282
4 242 243 284 283
4 243 244 285 284
4 244 245 286 285
4 246 247 288 287
4 247 248 289 288
4 248 249 290 289
4 249 250 291 290
4 250 251 292 291
4 251 252 293 292
4 252 253 294 293
4 253 254 295 294
4 254 255 296 295
4 255 256 297 296
4 256 257 298 297
4 257 258 299 298
4 258 259 300 299
4 259 260 301 300
4 260 261 302 301
4 261 262 303 302
4 262 263 304 303
4 263 264 305 304
4 264 265 306 305
4 265 266 307 306
4 266 267 308 307
4 267 268 309 308
4 268 269 310 309
4 269 270 311 310
4 270 271 312 311
4 271 272 313 312
4 272 273 314 313
4 273 274 315 314
4 274 275 316 315
4 275 276 317 316
4 276 277 318 317
4 277 278 319 318
4 278 279 320 319
4 279 280 321 320
4 280 281 322 321
4 281 282 323 322
4 282 283 324 323
4 283 284 325 324
4 284 285 326 325
4 285 286 327 326
4 287 288 329 328
4 288 289 330 329
4 289 290 331 330
4 290 291 332 331
4 291 292 333 332
4 292 293 334 333
4 293 294 335 334
4 294 295 336 335
4 295 296 337 336
4 296 297 338 337
4 297 298 339 338
4 298 299 340 339
4 299 300 341 340
4 300 301 342 341
4 301 302 343 342
4 302 303 344 343
4 303 304 345 344
4 304 305 346 345
4 305 306 347 346
4 306 307 348 347
4 307 308 349 348
4 308 309 350 349
4 309 310 351 350
4 310 311 352 351
4 311 312 353 352
4 312 313 354 353
4 313 314 355 354
4 314 315 356 355
4 315 316 357 356
4 316 317 358 357
4 317 318 359 358
4 318 319 360 359
4 319 320 361 360
4 320 321 362 361
4 321 322 363 362
4 322 323 364 363
4 323 324 365 364
4 324 325 366 365
4 325 326 367 366
4 326 327 368 367
4 328 329 370 369
4 329 330 371 370
4 330 331 372 371
4 331 332 373 372
4 332 333 374 373
4 333 334 375 374
4 334 335 376 375
4 335 336 377 376
4 336 337 378 377
4 337 338 379 378
4 338 339 380 379
4 339 340 381 380
4 340 341 382 381
4 341 342 383 382
4 342 343 384 383
4 343 344 385 384
4 344 345 386 385
4 345 346 387 386
4 346 347 388 387
4 347 348 389 388
4 348 349 390 389
4 349 350 391 390
4 350 351 392 391
4 351 352 393 392
4 352 353 394 393
4 353 354 395 394
4 354 355 396 395
4 355 356 397 396
4 356 357 398 397
4 357 358 399 398
4 358 359 400 399
4 359 360 401 400
4 360 361 402 401
4 361 362 403 402
4 362 363 404 403
4 363 364 405 404
4 364 365 406 405
4 365 366 407 406
4 366 367 408 407
4 367 368 409 408
4 369 370 411 410
4 370 371 412 411
4 371 372 413 412
4 372 373 414 413
4 373 374 415 414
4 374 375 416 415
4 375 376 417 416
4 376 377 418 417
4 377 378 419 418
4 378 379 420 419
4 379 380 421 420
4 380 381 422 421
4 381 382 423 422
4 382 383 424 423
4 383 384 425 424
4 384 385 426 425
4 385 386 427 426
4 386 387 428 427
4 387 388 429 428
4 388 389 430 429
4 389 390 431 430
4 390 391 432 431
4 391 392 433 432
4 392 393 434 433
4 393 394 435 434
4 394 395 436 435
4 395 396 437 436
4 396 397 438 437
4 397 398 439 438
4 398 399 440 439
4 399 400 441 440
4 400 401 442 441
4 401 402 443 442
4 402 403 444 443
4 403 404 445 444
4 404 405 446 445
4 405 406 447 446
4 406 407 448 447
4 407 408 449 448
4 408 409 450 449
4 410 411 452 451
4 411 412 453 452
4 412 413 454 453
4 413 414 455 454
4 414 415 456 455
4 415 416 457 456
4 416 417 458 457
4 417 418 459 458
4 418 419 460 459
4 419 420 461 460
4 420 421 462 461
4 421 422 463 462
4 422 423 464 463
4 423 424 465 464
4 424 425 466 465
4 425 426 467 466
4 426 427 468 467
4 427 428 469 468
4 428 429 470 469
4 429 430 471 470
4 430 431 472 471
4 431 432 473 472
4 432 433 474 473
4 433 434 475 474
4 434 435 476 475
4 435 436 477 476
4 436 437 478 477
4 437 438 479 478
4 438 439 480 479
4 439 440 481 480
4 440 441 482 481
4 441 442 483 482
4 442 443 484 483
4 443 444 485 484
4 444 445 486 485
4 445 446 487 486
4 446 447 488 487
4 447 448 489 488
4 448 449 490 489
4 449 450 491 490
4 451 452 493 492
4 452 453 494 493
4 453 454 495 494
4 454 455 496 495
4 455 456 497 496
4 456 457 498 497
4 457 458 499 498
4 458 459 500 499
4 459 460 501 500
4 460 461 502 501
4 461 462 503 502
4 462 463 504 503
4 463 464 505 504
4 464 465 506 505
4 465 466 507 506
4 466 467 508 507
4 467 468 509 508
4 468 469 510 509
4 469 470 511 510
4 470 471 512 511
4 471 472 513 512
4 472 473 514 513
4 473 474 515 514
4 474 475 516 515
4 475 476 517 516
4 476 477 518 517
4 477 478 519 518
4 478 479 520 519
4 479 480 521 520
4 480 481 522 521
4 481 482 523 522
4 482 483 524 523
4 483 484 525 524
4 484 485 526 525
4 485 486 527 526
4 486 487 528 527
4 487 488 529 528
4 488 489 530 529
4 489 490 531 530
4 490 491 532 531
4 492 493 534 533
4 493 494 535 534
4 494 495 536 535
4 495 496 537 536
4 496 497 538 537
4 497 498 539 538
4 498 499 540 539
4 499 500 541 540
4 500 501 542 541
4 501 502 543 542
4 502 503 544 543
4 503 504 545 544
4 504 505 546 545
4 505 506 547 546
4 506 507 548 547
4 507 508 549 548
4 508 509 550 549
4 509 510 551 550
4 510 511 552 551
4 511 512 553 552
4 512 513 554 553
4 513 514 555 554
4 514 515 556 555
4 515 516 557 556
4 516 517 558 557
4 517 518 559 558
4 518 519 560 559
4 519 520 561 560
4 520 521 562 561
4 521 522 563 562
4 522 523 564 563
4 523 524 565 564
4 524 525 566 565
4 525 526 567 566
4 526 527 568 567
4 527 528 569 568
4 528 529 570 569
4 529 530 571 570
4 530 531 572 571
4 531 532 573 572
4 533 534 575 574
4 534 535 576 575
4 535 536 577 576
4 536 537 578 577
4 537 538 579 578
4 538 539 580 579
4 539 540 581 580
4 540 541 582 581
4 541 542 583 582
4 542 543 584 583
4 543 544 585 584
4 544 545 586 585
4 545 546 587 586
4 546 547 588 587
4 547 548 589 588
4 548 549 590 589
4 549 550 591 590
4 550 551 592 591
4 551 552 593 592
4 552 553 594 593
4 553 554 595 594
4 554 555 596 595
4 555 556 597 596
4 556 557 598 597
4 557 558 599 598
4 558 559 600 599
4 559 560 601 600
4 560 561 602 601
4 561 562 603 602
4 562 563 604 603
4 563 564 605 604
4 564 565 606 605
4 565 566 607 606
4 566 567 608 607
4 567 568 609 608
4 568 569 610 609
4 569 570 611 610
4 570 571 612 611
4 571 572 613 612
4 572 573 614 613
4 574 575 616 615
4 575 576 617 616
4 576 577 618 617
4 577 578 619 618
4 578 579 620 619
4 579 580 621 620
4 580 581 622 621
4 581 582 623 622
4 582 583 624 623
4 583 584 625 624
4 584 585 626 625
4 585 586 627 626
4 586 587 628 627
4 587 588 629 628
4 588 589 630 629
4 589 590 631 630
4 590 591 632 631
4 591 592 633 632
4 592 593 634 633
4 593 594 635 634
4 594 595 636 635
4 595 596 637 636
4 596 597 638 637
4 597 598 639 638
4 598 599 640 639
4 599 600 641 640
4 600 601 642 641
4 601 602 643 642
4 602 603 644 643
4 603 604 645 644
4 604 605 646 645
4 605 606 647 646
4 606 607 648 647
4 607 608 649 648
4 608 609 650 649
4 609 610 651 650
4 610 611 652 651
4 611 612 653 652
4 612 613 654 653
4 613 614 655 654
4 615 616 657 656
4 616 617 658 657
4 617 618 659 658
4 618 619 660 659
4 619 620 661 660
4 620 621 662 661
4 621 622 663 662
4 622 623 664 663
4 623 624 665 664
4 624 625 666 665
4 625 626 667 666
4 626 627 668 667
4 627 628 669 668
4 628 629 670 669
4 629 630 671 670
4 630 631 672 671
4 631 632 673 672
4 632 633 674 673
4 633 634 675 674
4 634 635 676 675
4 635 636 677 676
4 636 637 678 677
4 637 638 679 678
4 638 639 680 679
4 639 640 681 680
4 640 641 682 681
4 641 642 683 682
4 642 643 684 683
4 643 644 685 684
4 644 645 686 685
4 645 646 687 686
4 646 647 688 687
4 647 648 689 688
4 648 649 690 689
4 649 650 691 690
4 650 651 692 691
4 651 652 693 692
4 652 653 694 693
4 653 654 695 694
4 654 655 696 695
4 656 657 698 697
4 657 658 699 698
4 658 659 700 699
4 659 660 701 700
4 660 661 702 701
4 661 662 703 702
4 662 663 704 703
4 663 664 705 704
4 664 665 706 705
4 665 666 707 706
4 666 667 708 707
4 667 668 709 708
4 668 669 710 709
4 669 670 711 710
4 670 671 712 711
4 671 672 713 712
4 672 673 714 713
4 673 674 715 714
4 674 675 716 715
4 675 676 717 716
4 676 677 718 717
4 677 678 719 718
4 678 679 720 719
4 679 680 721 720
4 680 681 722 721
4 681 682 723 722
4 682 683 724 723
4 683 684 725 724
4 684 685 726 725
4 685 686 727 726
4 686 687 728 727
4 687 688 729 728
4 688 689 730 729
4 689 690 731 730
4 690 691 732 731
4 691 692 733 732
4 692 693 734 733
4 693 694 735 734
4 694 695 736 735
4 695 696 737 736
4 697 698 739 738
4 698 699 740 739
4 699 700 741 740
4 700 701 742 741
4 701 702 743 742
4 702 703 744 743
4 703 704 745 744
4 704 705 746 745
4 705 706 747 746
4 706 707 748 747
4 707 708 749 748
4 708 709 750 749
4 709 710 751 750
4 710 711 752 751
4 711 712 753 752
4 712 713 754 753
4 713 714 755 754
4 714 715 756 755
4 715 716 757 756
4 716 717 758 757
4 717 718 759 758
4 718 719 760 759
4 719 720 761 760
4 720 721 762 761
4 721 722 763 762
4 722 723 764 763
4 723 724 765 764
4 724 725 766 765
4 725 726 767 766
4 726 727 768 767
4 727 728 769 768
4 728 729 770 769
4 729 730 771 770
4 730 731 772 771
4 731 732 773 772
4 732 733 774 773
4 733 734 775 774
4 734 735 776 775
4 735 736 777 776
4 736 737 778 777
4 738 739 780 779
4 739 740 781 780
4 740 741 782 781
4 741 742 783 782
4 742 743 784 783
4 743 744 785 784
4 744 745 786 785
4 745 746 787 786
4 746 747 788 787
4 747 748 789 788
4 748 749 790 789
4 749 750 791 790
4 750 751 792 791
4 751 752 793 792
4 752 753 794 793
4 753 754 795 794
4 754 755 796 795
4 755 756 797 796
4 756 757 798 797
4 757 758 799 798
4 758 759 800 799
4 759 760 801 800
4 760 761 802 801
4 761 762 803 802
4 762 763 804 803
4 763 764 805 804
4 764 765 806 805
4 765 766 807 806
4 766 767 808 807
4 767 768 809 808
4 768 769 810 809
4 769 770 811 810
4 770 771 812 811
4 771 772 813 812
4 772 773 814 813
4 773 774 815 814
4 774 775 816 815
4 775 776 817 816
4 776 777 818 817
4 777 778 819 818
4 779 780 821 820
4 780 781 822 821
4 781 782 823 822
4 782 783 824 823
4 783 784 825 824
4 784 785 826 825
4 785 786 827 826
4 786 787 828 827
4 787 788 829 828
4 788 789 830 829
4 789 790 831 830
4 790 791 832 831
4 791 792 833 832
4 792 793 834 833
4 793 794 835 834
4 794 795 836 835
4 795 796 837 836
4 796 797 838 837
4 797 798 839 838
4 798 799 840 839
4 799 800 841 840
4 800 801 842 841
4 801 802 843 842
4 802 803 844 843
4 803 804 845 844
4 804 805 846 845
4 805 806 847 846
4 806 807 848 847
4 807 808 849 848
4 808 809 850 849
4 809 810 851 850
4 810 811 852 851
4 811 812 853 852
4 812 813 854 853
4 813 814 855 854
4 814 815 856 855
4 815 816 857 856
4 816 817 858 857
4 817 818 859 858
4 818 819 860 859
CELL_TYPES 800
9
9
9
9
9
9
9
9
9
9
9
9
9
9
9
9
9
9
9
9
9
9
9
9
9
9
9
9
9
9
9
9
9
9
9
9
9
9
9
9
9
9
9
9
9
9
9
9
9
9
9
9
9
9
9
9
9
9
9
9
9
9
9
9
9
9
9
9
9
9
9
9
9
9
9
9
9
9
9
9
9
9
9
9
9
9
9
9
9
9
9
9
9
9
9
9
9
9
9
9
9
9
9
9
9
9
9
9
9
9
9
9
9
9
9
9
9
9
9
9
9
9
9
9
9
9
9
9
9
9
9
9
9
9
9
9
9
9
9
9
9
9
9
9
9
9
9
9
9
9
9
9
9
9
9
9
9
9
9
9
9
9
9
9
9
9
9
9
9
9
9
9
9
9
9
9
9
9
9
9
9
9
9
9
9
9
9
9
9
9
9
9
9
9
9
9
9
9
9
9
9
9
9
9
9
9
9
9
9
9
9
9
9
9
9
9
9
9
9
9
9
9
9
9
9
9
9
9
9
9
9
9
9
9
9
9
9
9
9
9
9
9
9
9
9
9
9
9
9
9
9
9
9
9
9
9
9
9
9
9
9
9
9
9
9
9
9
9
9
9
9
9
9
9
9
9
9
9
9
9
9
9
9
9
9
9
9
9
9
9
9
9
9
9
9
9
9
9
9
9
9
9
9
9
9
9
9
9
9
9
9
9
9
9
9
9
9
9
9
9
9
9
9
9
9
9
9
9
9
9
9
9
9
9
9
9
9
9
9
9
9
9
9
9
9
9
9
9
9
9
9
9
9
9
9
9
9
9
9
9
9
9
9
9
9
9
9
9
9
9
9
9
9
9
9
9
9
9
9
9
9
9
9
9
9
9
9
9
9
9
9
9
9
9
9
9
9
9
9
9
9
9
9
9
9
9
9
9
9
9
9
9
9
9
9
9
9
9
9
9
9
9
9
9
9
9
9
9
9
9
9
9
9
9
9
9
9
9
9
9
9
9
9
9
9
9
9
9
9
9
9
9
9
9
9
9
9
9
9
9
9
9
9
9
9
9
9
9
9
9
9
9
9
9
9
9
9
9
9
9
9
9
9
9
9
9
9
9
9
9
9
9
9
9
9
9
9
9
9
9
9
9
9
9
9
9
9
9
9
9
9
9
9
9
9
9
9
9
9
9
9
9
9
9
9
9
9
9
9
9
9
9
9
9
9
9
9
9
9
9
9
9
9
9
9
9
9
9
9
9
9
9
9
9
9
9
9
9
9
9
9
9
9
9
9
9
9
9
9
9
9
9
9
9
9
9
9
9
9
9
9
9
9
9
9
9
9
9
9
9
9
9
9
9
9
9
9
9
9
9
9
9
9
9
9
9
9
9
9
9
9
9
9
9
9
9
9
9
9
9
9
9
9
9
9
9
9
9
9
9
9
9
9
9
9
9
9
9
9
9
9
9
9
9
9
9
9
9
9
9
9
9
9
9
9
9
9
9
9
9
9
9
9
9
9
9
9
9
9
9
9
9
9
9
9
9
9
9
9
9
9
9
9
9
9
9
9
9
9
9
9
9
9
9
9
9
9
9
9
9
9
9
9
9
9
9
9
9
9
9
9
9
9
9
9
9
9
9
9
9
9
9
9
9
9
9
9
9
9
9
9
9
9
9
9
9
9
9
9
9
9
9
9
9
9
9
9
9
9
9
9
9
9
9
9
9
9
9
9
9
9
9
9
9
9
9
9
9
9
9
9
9
9
9
9
9
9
9
9
9
9
9
9
9
9
9
9
9
9
9
9
9
9
9
9
9
9
9
9
9
POINT_DATA 861
SCALARS Disp float 2
LOOKUP_TABLE default
0.0 0.0
0.00432066571698777 -0.1344952392047485
0.005337501443005109 -0.26183278614763317
0.006055979031923029 -0.3884804680716403
0.0069185334744392285 -0.514836587505217
0.00812344657348093 -0.6406718197818232
0.009989475394211819 -0.7656976612309839
0.012839564365330049 -0.889581747550374
0.017035133129920037 -1.0119142885404584
0.022962195096692468 -1.132167645924759
0.0310224597962843 -1.2496343692176364
0.04165888608029029 -1.3633753131165
0.05538069283560688 -1.4722038882388966
0.07275526731264868 -1.5747190258118768
0.09440280698729091 -1.6693386013678058
0.1209203409412079 -1.7543255229846153
0.15274486540443907 -1.8278192273025025
0.18998202228987557 -1.8878918127286373
0.23225142933392362 -1.9326780960925714
0.2786121586624715 -1.96059918976183
0.32751029140643306 -1.9705797707428407
0.3764084241503929 -1.9605991897617783
0.4227691534789333 -1.932678096092465
0.46503856052296805 -1.8878918127284834
0.5022757174083884 -1.8278192273023097
0.5341002418716021 -1.7543255229843961
0.5606177758255019 -1.6693386013675646
0.5822653155001263 -1.5747190258116208
0.5996398899771498 -1.4722038882386335
0.6133616967324489 -1.3633753131162383
0.623998123016439 -1.2496343692173824
0.6320583877160176 -1.1321676459245185
0.6379854496827794 -1.0119142885402348
0.6421810184473612 -0.889581747550171
0.6450311074184734 -0.7656976612308035
0.6468971362392004 -0.6406718197816691
0.6481020493382402 -0.5148365875050894
0.6489646037807559 -0.3884804680715416
0.6496830813696737 -0.2618327861475623
0.6506999170956902 -0.13449523920470716
0.6550205828126751 0.0
0.03356287924841695 -0.0018905943157471472
0.03647192219159186 -0.13462844046558547
0.03702959204785907 -0.26189599830984334
0.03767685492403287 -0.38855945058975855
0.03844803441583346 -0.5149399007152242
0.03949377107913681 -0.6408633180659037
0.04111946136203433 -0.7660550167815742
0.04363420905520245 -0.8901875732160756
0.047376098907178046 -1.0128597077986476
0.05269295084959919 -1.1335442154796387
0.05993943516157123 -1.2515378566394053
0.06949823600266523 -1.36591476610143
0.08181337710190723 -1.4755068024381552
0.09740762964567129 -1.5789293746709037
0.11685289797324153 -1.6746085882222264
0.1407090379699242 -1.7607890867092841
0.16939203349199217 -1.8355527579464705
0.2030176234803528 -1.8968734363566333
0.24126519841074998 -1.9427574794403897
0.28327617984744685 -1.9714842994121202
0.3275102914064268 -1.9817843959981767
0.37174440296540473 -1.9714842994120678
0.4137553844020947 -1.9427574794402809
0.45200295933248047 -1.896873436356476
0.4856285493208271 -1.835552757946274
0.5143115448428796 -1.7607890867090608
0.5381676848395467 -1.6746085882219812
0.5576129531671008 -1.5789293746706434
0.5732072057108486 -1.4755068024378881
0.585522346810075 -1.3659147661011641
0.5950811476511546 -1.251537856639148
0.6023276319631147 -1.1335442154793958
0.6076444839055261 -1.0128597077984223
0.6113863737574943 -0.890187573215871
0.6139011214506568 -0.7660550167813928
0.6155268117335511 -0.6408633180657491
0.616572548396853 -0.5149399007150967
0.6173437278886532 -0.38855945058965985
0.6179909907648269 -0.2618959983097724
0.6185486606210941 -0.13462844046554387
0.6214577035642648 -0.0018905943157449523
0.06633688882353393 -0.003365677123436041
0.06842033283961745 -0.13468895312966433
0.06874494970414044 -0.26193472150941516
0.06927452127640278 -0.38863119474649044
0.06996063750568987 -0.515027153138016
0.07086433221736461 -0.6410161832235808
0.07224970442563194 -0.7663505396824408
0.07442819849475667 -0.8907040126848795
0.07770879430887356 -1.013681334500723
0.08240480001944757 -1.1347531963485238
0.08882567358327448 -1.2532179407820165
0.097300087818207 -1.3681595900221675
0.10820958742845137 -1.4784287720900213
0.12201529895031894 -1.58266112283829
0.13924552009088859 -1.6792907543440556
0.1604158223360574 -1.7665473103354126
0.1859241111489693 -1.8424623954806443
0.21591198646282725 -1.9049225843532769
0.25012736872972413 -1.95181654802955
0.28778728510723445 -1.9812735985596268
0.3275102914064208 -1.9918701914448476
0.36723329770560503 -1.981273598559573
0.40489321408310913 -1.9518165480294394
0.4391085963499961 -1.9049225843531168
0.46909647166384183 -1.8424623954804447
0.4946047604767401 -1.7665473103351859
0.5157750627218949 -1.679290754343807
0.5330052838624503 -1.5826611228380263
0.5468109953843036 -1.4784287720897504
0.5577204949945339 -1.3681595900218984
0.5661949092294537 -1.2532179407817563
0.57261578279327 -1.1347531963482784
0.5773117885038351 -1.0136813345004956
0.5805923843179454 -0.8907040126846738
0.5827708783870652 -0.7663505396822584
0.5841562505953298 -0.6410161832234258
0.5850599453070037 -0.5150271531378883
0.5857460615362904 -0.3886311947463916
0.5862756331085527 -0.26193472150934427
0.5866002499730759 -0.13468895312962248
0.5886836939891552 -0.003365677123431586
0.09870003988255444 -0.004541152608034757
0.10024256182115204 -0.1347296751844894
0.10044151564329126 -0.2619565323266946
0.1008556421031638 -0.3886906692072824
0.10145062342245637 -0.5151032556088713
0.10223101635076699 -0.6411360771147352
0.10338810387704811 -0.7665852578491527
0.10522933527280277 -0.8911322197819685
0.10804496820751323 -1.0143785289704481
0.11211313559736075 -1.135793430555593
0.11770155959718306 -1.2546735359616028
0.12508697347827208 -1.370110643176266
0.13459234493592181 -1.4809717770318036
0.14661551975239603 -1.5859138567503386
0.16162271740034462 -1.6833824977563165
0.18009148185110802 -1.7715951439791204
0.20240288167550893 -1.8485419707460768
0.22872586925762117 -1.9120347833893059
0.2588826967191605 -1.9598520455063348
0.2922106113209281 -1.9899841352535743
0.32751029140641513 -2.000876376319095
0.36280997149189975 -1.9899841352535197
0.396137886093662 -1.959852045506223
0.42629471355519255 -1.9120347833891431
0.45261770113729405 -1.8485419707458743
0.4749291009616831 -1.7715951439788904
0.4933978654124341 -1.6833824977560647
0.5084050630603701 -1.5859138567500717
0.5204282378768319 -1.4809717770315296
0.5299336093344695 -1.3701106431759937
0.5373190232155475 -1.2546735359613397
0.5429074472153603 -1.1357934305553454
0.5469756146052001 -1.0143785289702192
0.5497912475399046 -0.8911322197817615
0.5516324789356551 -0.7665852578489696
0.5527895664619342 -0.64113607711458
0.5535699593902441 -0.5151032556087436
0.5541649407095364 -0.3886906692071835
0.554579067169409 -0.2619565323266237
0.5547780209915483 -0.1347296751844473
0.5563205429301422 -0.004541152608028267
0.13082467789570246 -0.005482705617955059
0.13197427092193972 -0.13476528423902326
0.13210374761989724 -0.2619687170175143
0.13241835369954613 -0.38873669064654237
0.13291720250002217 -0.5151693967853174
0.1335841713933994 -0.641232108945906
0.13453998948236748 -0.7667642258187856
0.13604586187363837 -0.8914735048702108
0.13839665819837862 -1.0149523207754338
0.14183408547183834 -1.1366649614577402
0.14658670150838782 -1.2559052386921086
0.15288361528891528 -1.371769093487464
0.16098852007494555 -1.4831383368386546
0.17123497509429633 -1.5886904384272251
0.1840292110097136 -1.686883794016692
0.19979255373336474 -1.7759300558658737
0.21889004307274007 -1.8537869081615512
0.24152124158586455 -1.9182035339898
0.26759150262756126 -1.9668614619747724
0.29658857681756917 -1.9976273166248222
0.3275102914064094 -2.0088252427554587
0.3584320059952477 -1.9976273166247667
0.38742908018525074 -1.9668614619746587
0.41349934122693965 -1.9182035339896353
0.4361305397400548 -1.853786908161346
0.4552280290794199 -1.775930055865641
0.4709913718030602 -1.6868837940164376
0.48378560771846685 -1.5886904384269553
0.494032062737807 -1.483138336838378
0.502136967523827 -1.3717690934871891
0.508433881304345 -1.2559052386918435
0.5131864973408863 -1.136664961457491
0.5166239246143393 -1.0149523207752031
0.5189747209390744 -0.8914735048700028
0.520480593330342 -0.7667642258186019
0.5214364114193085 -0.6412321089457506
0.5221033803126853 -0.5151693967851896
0.522602229113161 -0.3887366906464435
0.5229168351928098 -0.2619687170174434
0.5230463118907674 -0.13476528423898093
0.5241959049170017 -0.0054827056179468266
0.1627907248014949 -0.006232366983018172
0.16364149110425133 -0.1347999345244866
0.16372935913500633 -0.2619762560180577
0.1639603396525486 -0.3887701729975466
0.16436099551887468 -0.5152249826370762
0.16491849264462283 -0.6413100434989831
0.16569597623435336 -0.7668977032905727
0.1668932655613306 -0.8917302006714152
0.16877668912938268 -1.0154047915173983
0.17158446429945565 -1.1373694980450504
0.1755020610190807 -1.2569144997743285
0.1807133180779055 -1.3731376264285833
0.18742645673528777 -1.484932112563109
0.19591007492908907 -1.5909947487445375
0.2065003690399386 -1.689798621576272
0.21957058829248635 -1.7795532468242112
0.2354539305867237 -1.8581940437370106
0.25436707396399616 -1.923422155678273
0.2763146787086365 -1.9728399603120457
0.30095843152258145 -2.0042067832952637
0.32751029140640375 -2.015728922135094
0.35406215129022434 -2.0042067832952073
0.37870590410416494 -1.9728399603119304
0.4006535088487985 -1.9234221556781061
0.419566652226063 -1.8581940437368036
0.4354499945202917 -1.7795532468239763
0.4485202137728303 -1.6897986215760152
0.4591105078836709 -1.5909947487442657
0.4675941260774636 -1.48493211256283
0.4743072647348372 -1.3731376264283064
0.4795185217936541 -1.2569144997740613
0.48343611851327245 -1.1373694980447995
0.48624389368333976 -1.0154047915171664
0.4881273172513878 -0.8917302006712062
0.4893246065783624 -0.7668977032903889
0.4901020901680919 -0.6413100434988277
0.4906595872938397 -0.5152249826369484
0.49106024316016555 -0.38877017299744765
0.4912912236777077 -0.26197625601798674
0.4913790917084627 -0.1347999345244441
0.4922298580112169 -0.006232366983008495
0.1946416644223134 -0.0068227970703021775
0.1952627176058681 -0.13483443376618587
0.19532185052374035 -0.2619817345540042
0.19548084299444476 -0.3887926219956403
0.19578458032715004 -0.5152690006366459
0.1962305927098047 -0.6413734503147419
0.19684518580051785 -0.766996655154758
0.19776532910998862 -0.8919135396917254
0.19920438000938184 -1.0157389160088521
0.2013824647321691 -1.137910151426617
0.20447018655661786 -1.2577046244547538
0.20860232958776326 -1.3742200376083629
0.21393494263048707 -1.4863582684535426
0.22067275624173627 -1.5928331769215458
0.2290836955726826 -1.6921323648347222
0.23947572203314005 -1.7824694177356546
0.25215269694680137 -1.861764279661509
0.2673393920687002 -1.9276848002093434
0.2851222657570562 -1.9777787502899717
0.30535938257910317 -2.009717784658529
0.327510291406398 -2.021590711230302
0.34966120023369124 -2.0097177846584713
0.36989831705573456 -1.977778750289855
0.38768119074408486 -1.9276848002091753
0.402867885865977 -1.8617642796613003
0.4155448607796314 -1.7824694177354172
0.42593688724008133 -1.6921323648344637
0.4343478265710206 -1.5928331769212722
0.44108564018226304 -1.486358268453262
0.44641825322498013 -1.374220037608084
0.45055039625611915 -1.2577046244544852
0.45363811808056254 -1.1379101514263648
0.4558162028033453 -1.0157389160086194
0.45725525370273545 -0.8919135396915159
0.4581753970122044 -0.7669966551545739
0.4587899901029169 -0.6413734503145864
0.45923600248557117 -0.515269000636518
0.45953973981827634 -0.3887926219955412
0.4596987322889806 -0.26198173455393325
0.4597578652068528 -0.1348344337661433
0.4603789183904058 -0.006822797070291304
0.22640732908156794 -0.007279707527291884
0.22685122459308207 -0.13486976983965357
0.2268866536531657 -0.26198576706355264
0.2269809143555751 -0.3888054993575866
0.2271906533829337 -0.5153007349471218
0.22752078441869436 -0.6414233511211034
0.22798406180382919 -0.7670679433578217
0.22865277579086085 -0.8920375777580074
0.22968351709032178 -1.015965546487503
0.23125303702820382 -1.138292042952067
0.23351603931401083 -1.2582806887196998
0.2365779932887089 -1.3750219343718553
0.24054500028323605 -1.487423774672136
0.24555958446795167 -1.5942142185132393
0.2518183628637452 -1.693894580984804
0.2595629642223843 -1.784685862340912
0.26905197521601515 -1.8645014870902383
0.2805073990735877 -1.930989040767839
0.2940868995457821 -1.9816660908831187
0.3098368624890541 -2.014146184118617
0.327510291406392 -2.02640451734973
0.3451837203237287 -2.014146184118559
0.3609336832669977 -1.9816660908830008
0.3745131837391877 -1.9309890407676693
0.38596860759675483 -1.8645014870900283
0.3954576185903803 -1.7846858623406732
0.4032022199490137 -1.693894580984544
0.40946099834480204 -1.5942142185129642
0.41447558252951283 -1.487423774671854
0.418442589524035 -1.375021934371575
0.4215045434987284 -1.25828068871943
0.4237675457845313 -1.138292042951814
0.4253370657224102 -1.0159655464872699
0.4263678070218691 -0.8920375777577975
0.42703652100889955 -0.7670679433576374
0.42749979839403396 -0.6414233511209478
0.4278299294297944 -0.5153007349469939
0.42803966845715286 -0.3888054993574876
0.4281339291595622 -0.26198576706348164
0.4281693582196457 -0.13486976983961094
0.42861325373115866 -0.007279707527280103
0.2581042161038885 -0.007628568481892661
0.258419204405109 -0.13490653109588543
0.2584284900458013 -0.2619878435666237
0.25846314038231394 -0.38880991656487707
0.2585821864681886 -0.5153202083139925
0.2587937422640441 -0.6414583761113684
0.2591032186849963 -0.7671185106023839
0.25954662491422625 -0.8921155970813572
0.2602075433922648 -1.0161019970146072
0.2612080815587494 -1.1385283272373088
0.26266874151529723 -1.2586513472835734
0.26467471526832287 -1.3755521504102461
0.26729148655836005 -1.488138577224423
0.27060768309939714 -1.5951497240556942
0.27474896033342205 -1.6950982102993601
0.2798836256135458 -1.7862146603533295
0.2862128258726215 -1.8664143572768506
0.29395145456351013 -1.9333360021237276
0.3032928856565189 -1.9844893199866642
0.31444527515515364 -2.017468584315181
0.3275102914063856 -2.03015450985036
0.34057530765761695 -2.0174685843151225
0.35172769715624963 -1.9844893199865457
0.3610691282492552 -1.933336002123557
0.36880775694014 -1.8664143572766396
0.375136957199212 -1.7862146603530893
0.38027162247933194 -1.695098210299099
0.3844128997133535 -1.595149724055418
0.3877290962543878 -1.4881385772241402
0.39034586754442185 -1.375552150409965
0.3923518412974443 -1.258651347283303
0.3938125012539897 -1.138528327237055
0.39481303942047236 -1.0161019970143734
0.3954739578985098 -0.8921155970811471
0.39591736412773904 -0.7671185106021995
0.39622684054869095 -0.6414583761112128
0.39643839634454636 -0.5153202083138646
0.3965574424304209 -0.38880991656477804
0.3965920927669335 -0.2619878435665526
0.39660137840762566 -0.1349065310958428
0.39691636670884545 -0.007628568481880226
0.2897432150499927 -0.007896389761025755
0.289969421272992 -0.134945332839747
0.28995247186140405 -0.26198699409390164
0.2899309658545655 -0.3888067386000672
0.28996257565272393 -0.5153276601047597
0.29005485688999444 -0.6414775070552303
0.29020594510612485 -0.767148885674029
0.2904283397531656 -0.8921607320921824
0.2907554280649623 -1.0161716023239598
0.2912418116008885 -1.1386433956563142
0.29194552868274337 -1.2588368288741518
0.2929261454118817 -1.3758278158025252
0.29421397052956105 -1.4885195056292035
0.29585513015310083 -1.5956582605866987
0.29791353249229025 -1.695763556049594
0.300478361981938 -1.787075689356978
0.30368247376396906 -1.867518269475902
0.3077148058026998 -1.9347368071470012
0.3128217330073674 -1.9862427628451151
0.31926893459467914 -2.0196522570961974
0.327510291406379 -2.032810498591133
0.3357516482180789 -2.0196522570961384
0.3421988498053896 -1.986242762844996
0.34730577701005505 -1.93473680714683
0.3513381090487836 -1.8675182694756902
0.35454222083081277 -1.787075689356737
0.357107050320459 -1.6957635560493323
0.35916545265964706 -1.5956582605864222
0.3608066122831858 -1.4885195056289202
0.3620944374008639 -1.375827815802244
0.36307505413000096 -1.2588368288738812
0.36377877121185476 -1.13864339565606
0.3642651547477803 -1.0161716023237257
0.3645922430595765 -0.8921607320919721
0.36481463770661704 -0.7671488856738445
0.3649657259227474 -0.6414775070550747
0.3650580071600178 -0.5153276601046318
0.36508961695817627 -0.38880673859996817
0.3650681109513377 -0.2619869940938305
0.3650511615397497 -0.13494533283970436
0.3652773677627486 -0.007896389761012881
0.32133976419676413 -0.008104028331327714
0.32150354767100126 -0.134985358960324
0.3214628936599105 -0.26198290320720036
0.32138850049959383 -0.38879649494810276
0.3213357229976805 -0.5153234109661569
0.32130946295964985 -0.6414805128263792
0.3212999548618016 -0.7671581512280243
0.32129780613493664 -0.8921757379775725
0.32129767951475946 -1.0161939426528561
0.3212980189325246 -1.1386775068809498
0.3212982153423413 -1.258886808788997
0.3212985775035996 -1.3758996484324482
0.32129708183665007 -1.4886183186457125
0.32129212765111365 -1.5957906738565477
0.3212839608516679 -1.6959393372749452
0.3212874850566268 -1.7873146785687448
0.3213700063153647 -1.8678541526655288
0.3217009960676063 -1.935225566818217
0.3225784281569175 -1.9869589309802498
0.32435799713679664 -2.020680205713033
0.3275102914063722 -2.0343334849447654
0.33066258567594825 -2.0206802057129742
0.33244215465582705 -1.98695893098013
0.3333195867451375 -1.9352255668180454
0.333650576497379 -1.8678541526653167
0.3337330977561173 -1.787314678568504
0.3337366219610766 -1.6959393372746832
0.3337284551616314 -1.5957906738562713
0.3337235009760958 -1.488618318645429
0.3337220053091471 -1.3758996484321668
0.33372236747040596 -1.258886808788726
0.33372256388022314 -1.1386775068806958
0.33372290329798854 -1.016193942652622
0.3337227766778116 -0.8921757379773623
0.3337206279509468 -0.76715815122784
0.3337111198530987 -0.6414805128262234
0.3336848598150681 -0.5153234109660288
0.3336320823131549 -0.3887964949480036
0.33355768915283823 -0.2619829032071292
0.33351703514174746 -0.13498535896028133
0.3336808186159844 -0.008104028331314584
0.35290562168639283 -0.008267438828954227
0.35302623339477696 -0.13502403963268558
0.35296383012371957 -0.2619758764681034
0.3528400528089265 -0.3887795337560942
0.3527059505249874 -0.5153079170276083
0.3525633159299201 -0.6414675033505063
0.3523943199183863 -0.7671460279657076
0.35216709840184296 -0.8921602364634963
0.35183993688726145 -1.0161717286603191
0.3513542186931414 -1.138643463589879
0.35065133858485625 -1.258837107086974
0.34967112026856867 -1.3758275513282785
0.3483802915763023 -1.4885182225550753
0.3467293278046918 -1.5956555721445984
0.34465413336679723 -1.6957610590033052
0.3420968816996057 -1.7870887560632323
0.3390507168846036 -1.8675952317618094
0.3356294675194623 -1.9349771686420987
0.3321263703486943 -1.9867943984365115
0.32903371836195267 -2.0206607349221963
0.3275102914063657 -2.0348380074975037
0.32598686445077846 -2.0206607349221373
0.3228942124640366 -1.986794398436392
0.31939111529327 -1.9349771686419268
0.315969865928131 -1.867595231761598
0.31292370111313167 -1.787088756062992
0.3103664494459424 -1.6957610590030432
0.3082912550080503 -1.5956555721443224
0.3066402912364425 -1.488518222554792
0.305349462544179 -1.3758275513279974
0.3043692442278939 -1.258837107086703
0.3036663641196109 -1.1386434635896248
0.30318064592549204 -1.0161717286600853
0.30285348441091137 -0.892160236463286
0.30262626289436856 -0.7671460279655233
0.30245726688283514 -0.6414675033503506
0.30231463228776806 -0.5153079170274802
0.3021805300038291 -0.38877953375599494
0.3020567526890361 -0.26197587646803216
0.30199434941797876 -0.13502403963264295
0.30211496112636277 -0.0082674388289409
0.3844565899505189 -0.008393641865829282
0.3845423880266883 -0.13505964566976927
0.38445999000750497 -0.26196598445038544
0.38428999430535055 -0.38875625724223506
0.38407785079975587 -0.5152817649507244
0.38382198448719873 -0.6414388238608124
0.3834959920244505 -0.7671128594084585
0.3830487247948558 -0.8921146394757512
0.3823877094051272 -1.0161022396281552
0.3813882359501359 -1.1385286103029666
0.37992831628712115 -1.2586516892566477
0.3779222720241561 -1.37555156608713
0.37530324091228034 -1.488135849942238
0.3719787591682789 -1.5951435393434108
0.36782126557545763 -1.6950925554358642
0.36268899582217295 -1.786240761340881
0.35649434051837947 -1.8665671625265703
0.34929710968811223 -1.9338120560967453
0.3414021569496947 -1.9855937068350034
0.33361272693261257 -2.0196784665400385
0.32751029140635907 -2.034470721009678
0.3214078558801054 -2.019678466539979
0.31361842586302396 -1.9855937068348846
0.30572347312460907 -1.933812056096574
0.2985262422943461 -1.8665671625263598
0.29233158699055767 -1.7862407613406415
0.2871993172372772 -1.695092555435603
0.28304182364445996 -1.5951435393431355
0.27971734190046327 -1.4881358499419557
0.2770983107885921 -1.3755515660868496
0.2750922665256315 -1.2586516892563775
0.27363234686262056 -1.1385286103027128
0.27263287340763176 -1.0161022396279218
0.2719718580179047 -0.892114639475541
0.2715245907883109 -0.7671128594082743
0.2711985983255632 -0.6414388238606569
0.27094273201300645 -0.5152817649505965
0.27073058850741194 -0.3887562572421358
0.2705605928052577 -0.2619659844503142
0.2704781947860745 -0.13505964566972667
0.27056399286224375 -0.00839364186581578
0.4160029034030506 -0.0084878997861775
0.41605807652789645 -0.1350906146359347
0.41595627293574056 -0.2619532085968856
0.4157428430012447 -0.3887270948266806
0.4154561573920364 -0.5152455188395924
0.4150908365615501 -0.6413953903901976
0.4146144435645417 -0.7670594863811588
0.4139420450055321 -0.8920362052499325
0.41291207980383055 -1.0159660583862977
0.4113437434370611 -1.1382925954477467
0.4090810555614602 -1.2582809958626764
0.40601862994159044 -1.3750210521221888
0.4020505491837486 -1.4874200429348676
0.39703192097963474 -1.5942053279206667
0.39076266933800363 -1.693885830434971
0.38301525653403085 -1.7847206727354012
0.37361154255540935 -1.8647143443179852
0.3625550011793652 -1.9316631469711394
0.3502486269319968 -1.9833004776879108
0.33780593723477176 -2.0175808958601453
0.32751029140635257 -2.033237821529238
0.3172146455779339 -2.0175808958600863
0.3047719558807102 -1.9833004776877923
0.29246558163334563 -1.931663146970969
0.28140904025730745 -1.8647143443177758
0.2720053262786927 -1.7847206727351632
0.264257913474726 -1.693885830434711
0.25798866183310093 -1.5942053279203927
0.2529700336289935 -1.4874200429345867
0.2490019528711582 -1.3750210521219095
0.24593952725129464 -1.2582809958624073
0.2436768393756991 -1.138292595447494
0.2421085030089334 -1.0159660583860646
0.24107853780723448 -0.8920362052497227
0.2404061392482263 -0.7670594863809748
0.23992974625121855 -0.641395390390042
0.23956442542073275 -0.5152455188394643
0.23927773981152478 -0.3887270948265814
0.23906430987702906 -0.2619532085968144
0.23896250628487326 -0.13509061463589206
0.23901767940971916 -0.008487899786163895
0.44755143560525684 -0.008554964097661912
0.4475790907345302 -0.13511576263962213
0.44745772994335725 -0.26193738763680513
0.4472031974196186 -0.3886924339552028
0.44684526333669344 -0.5151999868640472
0.4463767875864984 -0.6413383797860213
0.4457514490410615 -0.7669854372720902
0.4448297451412198 -0.8919120213722981
0.44339192352265827 -1.0157398286015233
0.4412147489560714 -1.137910899412863
0.4381267199244657 -1.2577047561670138
0.4339938605154196 -1.3742189028377223
0.4286615501964772 -1.4863542802073701
0.421926327194026 -1.5928235846974925
0.4135171434132092 -1.692122111828176
0.4031206145016196 -1.7825069223568224
0.39046080187525506 -1.8620097726963576
0.375502522192977 -1.9285088510290271
0.358772279028126 -1.9799006654584828
0.34176878887193723 -2.0144044135144803
0.32751029140634635 -2.031177196576493
0.3132517939407562 -2.014404413514421
0.29624830378457 -1.9799006654583649
0.2795180606197239 -1.9285088510288584
0.2645597809374533 -1.8620097726961498
0.251899968311097 -1.7825069223565861
0.24150343939951524 -1.6921221118279175
0.23309425561870634 -1.59282358469722
0.22635903261626344 -1.4863542802070913
0.22102672229732928 -1.3742189028374447
0.21689386288829113 -1.2577047561667463
0.21380583385669225 -1.1379108994126115
0.21162865929011046 -1.0157398286012909
0.21019083767155253 -0.8919120213720886
0.20926913377171302 -0.7669854372719062
0.20864379522627705 -0.6413383797858658
0.20817531947608253 -0.5151999868639193
0.20781738539315783 -0.3886924339551035
0.20756285286941936 -0.2619373876367339
0.20744149207824653 -0.13511576263957947
0.2074691472075199 -0.008554964097648244
0.47910724126011894 -0.00859933635784917
0.4791104957054418 -0.13513437205619028
0.478969425376327 -0.26191827322559924
0.4786757365725814 -0.38865268195310104
0.4782501800541834 -0.5151459194452774
0.47768474845606834 -0.6412695075679476
0.47690037626315285 -0.7668841839486273
0.47570260535996056 -0.8917288286713191
0.4738206418800318 -1.0154061172481434
0.47101302286878066 -1.137370276062771
0.46709465600808936 -1.256914364711735
0.46188251869448543 -1.3731362956238031
0.45517120834022673 -1.4849287612422792
0.4466977718936861 -1.5909873037759588
0.4361255080007467 -1.6897901353365703
0.42305544163472836 -1.7795874600676322
0.40713008299344494 -1.8584429624151564
0.3882792171425537 -1.9243419334119547
0.36715312871513756 -1.9753982171584108
0.34566571104782323 -2.0101748932475396
0.32751029140634025 -2.0283076243294698
0.3093548717648583 -2.0101748932474806
0.2878674540975475 -1.9753982171582938
0.26674136567013756 -1.9243419334117873
0.247890499819255 -1.8584429624149508
0.23196514117798156 -1.7795874600673978
0.2188950748119726 -1.6897901353363138
0.20832281091904298 -1.5909873037756885
0.19984937447251247 -1.4849287612420026
0.19313806411826384 -1.3731362956235276
0.18792592680466932 -1.2569143647114693
0.18400755994398632 -1.137370276062521
0.18119994093274144 -1.0154061172479123
0.17931797745281752 -0.8917288286711101
0.17812020654962807 -0.7668841839484436
0.17733583435671396 -0.6412695075677923
0.17677040275859948 -0.5151459194451496
0.17634484624020197 -0.38865268195300184
0.17605115743645672 -0.26191827322552813
0.175910087107342 -0.1351343720561476
0.17591334155266486 -0.008599336357835441
0.5106740337422394 -0.008625442504687183
0.510656571206102 -0.1351461698421329
0.5104963677271742 -0.2618956632413386
0.5101651764720747 -0.3886081661982328
0.5096756163629239 -0.5150844204537799
0.5090134583019 -0.6411870471609499
0.5080567773097662 -0.7667490828317699
0.5065520512558315 -0.891472514366641
0.504201609078707 -1.0149538519035288
0.5007634964441483 -1.1366656006816287
0.4960097531495067 -1.2559047847365774
0.4897121790734577 -1.3717676936158378
0.4816109405557188 -1.4831365300576307
0.47138131982825193 -1.588688007083199
0.4586200113608147 -1.6868812416900671
0.44287218948436585 -1.7759589299195488
0.42370959859665175 -1.854016886182362
0.4010224493310613 -1.9191692044916124
0.37556923304214784 -1.9698031506126896
0.34962165259741446 -2.004895469925444
0.3275102914063342 -2.024617323902296
0.30539893021525544 -2.004895469925386
0.2794513497705265 -1.969803150612574
0.25399813348162054 -1.919169204491447
0.23131098421604016 -1.8540168861821589
0.2121483933283374 -1.7759589299193168
0.19640057145189982 -1.6868812416898133
0.18363926298447403 -1.5886880070829308
0.1734096422570189 -1.4831365300573567
0.16530840373929195 -1.371767693615565
0.15901082966325392 -1.2559047847363143
0.1542570863686218 -1.1366656006813802
0.15081897373407066 -1.014953851903299
0.14846853155695194 -0.8914725143664328
0.14696380550302116 -0.7667490828315865
0.14600712451088907 -0.6411870471607947
0.14534496644986591 -0.5150844204536522
0.1448554063407156 -0.3886081661981337
0.14452421508561647 -0.2618956632412674
0.1443640116066889 -0.13514616984209024
0.14434654907055144 -0.008625442504673418
0.5422542150075768 -0.00863776076439858
0.5422208180471564 -0.13515130105491283
0.542043478156552 -0.2618695353260128
0.5416766375780501 -0.3885591170745383
0.5411250926619297 -0.5150165370842381
0.5403628205965385 -0.6410884409352894
0.5392117776701614 -0.7665698503945216
0.5373710888960092 -0.8911313714372228
0.5345540438826398 -1.0143799309405659
0.5304843533377195 -1.1357937960640072
0.5248946482464328 -1.2546727755663234
0.5175092478268278 -1.3701094379270913
0.5080098143301244 -1.4809723650479099
0.4960079032443126 -1.5859184312741288
0.4810426164733991 -1.6833897472445876
0.4626126714066467 -1.7716232623593018
0.44027287376602464 -1.8487474616498658
0.4138787503968662 -1.9130141432467371
0.3842005559559911 -1.9631253774117468
0.35375523285166127 -1.9985453556259165
0.32751029140632826 -2.0200659480463203
0.30126534996099685 -1.9985453556258592
0.27082002685667234 -1.9631253774116326
0.24114183241580617 -1.913014143246574
0.21474770904665938 -1.8487474616496655
0.19240791140605012 -1.7716232623590726
0.1739779663393105 -1.6833897472443367
0.1590126795684103 -1.5859184312738637
0.14701076848261196 -1.480972365047639
0.13751133498592227 -1.3701094379268208
0.13012593456632973 -1.2546727755660632
0.12453622947505381 -1.135793796063761
0.12046653893014231 -1.0143799309403374
0.11764949391677967 -0.8911313714370157
0.11580880514263206 -0.7665698503943388
0.11465776221625744 -0.6410884409351344
0.11389549015086715 -0.5150165370841104
0.11334394523474729 -0.3885591170744393
0.11297710465624572 -0.26186953532594165
0.11279976476564138 -0.13515130105487014
0.1127663678052211 -0.008637760764384814
0.5738486102654076 -0.008640880904431937
0.5738058784799507 -0.13515039067259457
0.5736159459795892 -0.26184011598943496
0.5732152809934619 -0.38850583883307327
0.572601895676709 -0.5149419872908443
0.5717296887157796 -0.640969282443037
0.5703548626843234 -0.7663356230985214
0.5681747638955631 -0.8907026877939764
0.5648906727839937 -1.013682263159047
0.5601925121090482 -1.1347531939455426
0.5537703665565619 -1.2532169563085196
0.5452970820000201 -1.3681589868838058
0.534396015764183 -1.478432490273226
0.5206137611431936 -1.5826735360289135
0.5034279660475036 -1.679310232132804
0.48231934947602373 -1.7665846767744604
0.4568749689677681 -1.8426637065177804
0.42697173838615987 -1.9059193295008108
0.3932370304461026 -1.9553773800678464
0.358223037907906 -1.991079141018317
0.3275102914063222 -2.014576821856826
0.2967975449047401 -1.9910791410182607
0.26178355236654993 -1.9553773800677343
0.228048844426503 -1.90591932950065
0.1981456138449081 -1.842663706517583
0.1727012333366668 -1.7665846767742348
0.1515926167652014 -1.6793102321325564
0.1344068216695262 -1.5826735360286517
0.12062456704855216 -1.4784324902729584
0.10972350081273056 -1.3681589868835389
0.10125021625620276 -1.2532169563082622
0.09482807070372834 -1.1347531939452988
0.09012991002879266 -1.0136822631588203
0.08684581891723098 -0.8907026877937706
0.08466572012847605 -0.7663356230983395
0.08329089409702303 -0.6409692824428822
0.08241868713609483 -0.5149419872907166
0.08180530181934251 -0.38850583883297435
0.08140463683321551 -0.26184011598936374
0.08121470433285428 -0.13515039067255188
0.08117197254739741 -0.008640880904418159
0.6054557978102231 -0.008639486629895013
0.6054134700306062 -0.1351447271806646
0.605219679472263 -0.2618080737821239
0.6047867921904796 -0.38844834583414406
0.6041071193961198 -0.5148595741754317
0.6031047440521279 -0.6408203210298918
0.6014905167896348 -0.7660405139067784
0.5989707322240166 -0.8901849982099067
0.595223743530338 -1.0128598820498371
0.5899041742190281 -1.133543777959452
0.5826565771563158 -1.2515367913144564
0.5731002854381724 -1.3659152625859046
0.5607959729828268 -1.475514234153567
0.545225891933397 -1.5789496104593868
0.5258241866918831 -1.674641272456772
0.502049595496578 -1.7608475818802105
0.4735438105465536 -1.835791605956891
0.44031897022024546 -1.8979556388760295
0.40293668768569013 -1.946599792609027
0.3632934393024568 -1.982418925057345
0.3275102914063158 -2.008011128681109
0.29172714351017703 -1.9824189250572897
0.2520838951269511 -1.946599792608917
0.21470161259240758 -1.8979556388758716
0.18147677226611467 -1.835791605956697
0.15297098731610617 -1.7608475818799885
0.12919639612081732 -1.6746412724565283
0.10979469087931994 -1.5789496104591287
0.09422460982990752 -1.4755142341533034
0.08192029737457909 -1.3659152625856417
0.07236400565645103 -1.251536791314202
0.06511640859375183 -1.1335437779592108
0.05979683928245285 -1.0128598820496126
0.05604985058878262 -0.8901849982097024
0.05353006602317075 -0.7660405139065972
0.051915838760681315 -0.6408203210297375
0.05091346341669099 -0.5148595741753041
0.05023379062233176 -0.3884483458340451
0.04980090334054883 -0.2618080737820528
0.049607112782205774 -0.13514472718062193
0.049564785002589005 -0.008639486629881236
0.6370707606731023 -0.008638189388172202
0.6370443856058188 -0.13513676442062852
0.6368622491537339 -0.2617746028351945
0.6363975013417774 -0.38838633325820915
0.6356389191676957 -0.5147651913427836
0.634483578287706 -0.6406355784627372
0.6326248267579185 -0.7656822664904108
0.6297670365004298 -0.8895775257605887
0.6255651581152732 -1.0119134470202964
0.6196347709705268 -1.132166721938032
0.6115737225578348 -1.2496334087566088
0.6009411495295647 -1.3633773993210547
0.587232170682929 -1.4722154823784532
0.5698822505651274 -1.574746789138
0.5482782980010346 -1.6693851710541912
0.5218637786134253 -1.7544170624797424
0.490329606134721 -1.8281447075921327
0.45384777188220604 -1.8891798823774044
0.4132506714120266 -1.9369530432310766
0.3699080032883564 -1.972495647775492
0.3275102914063092 -2.000000000000001
0.2851125795242644 -1.9724956477754376
0.24176991140060247 -1.9369530432309692
0.2011728109304369 -1.8891798823772503
0.16469097667793933 -1.8281447075919426
0.13315680419925274 -1.7544170624795246
0.10674228481166143 -1.6693851710539513
0.08513833224758702 -1.5747467891377462
0.06778841212980466 -1.472215482378194
0.05407943328318757 -1.3633773993207958
0.04344686025493425 -1.2496334087563583
0.035385811842256656 -1.1321667219377938
0.02945542469752207 -1.0119134470200744
0.025253546312374902 -0.8895775257603862
0.022395756054893017 -0.7656822664902307
0.02053700452510977 -0.6406355784625835
0.019381663645122154 -0.5147651913426562
0.018623081471040952 -0.3883863332581101
0.018158333659085125 -0.2617746028351234
0.017976197207000354 -0.13513676442058592
0.017949822139716864 -0.00863818938815842
SCALARS Stress float 6
LOOKUP_TABLE default
-986.9338455695024 -1766.8682147650438 -1298.3373721664507 -7.405599316631985 0.0 0.0
1170.3900072093227 676.7398101432728 822.8022803406319 -24.992420099720775 0.0 0.0
508.6142250440278 81.80160483214229 178.09418090759976 -34.75762226725176 0.0 0.0
440.695905897577 15.518046807353967 137.0184763499455 -3.8785335686074305 0.0 0.0
542.5739221008635 44.44580516810666 188.5814361683852 -0.47658977909188316 0.0 0.0
620.7332024805597 74.50026605713933 266.61381091816537 0.22743035827250724 0.0 0.0
712.6965483607856 96.32314285948806 351.7761757337914 -0.2522090123976235 0.0 0.0
801.6503799418055 134.35079398603463 438.4065823820047 -0.8982936900649274 0.0 0.0
894.7266975724123 183.16814510509175 521.6530734777616 -1.7457901177484938 0.0 0.0
999.6824939687491 248.07020580074624 611.4786923087215 -2.7521657023924906 0.0 0.0
1120.7175710992842 331.873442660788 715.4037421430506 -3.8277877372769424 0.0 0.0
1257.2475989068182 434.3425016334939 835.0406243881305 -4.8837826434727605 0.0 0.0
1405.4324322518369 549.159151549023 966.0756901285635 -5.555662787629684 0.0 0.0
1560.7655948061167 671.8315831919035 1104.479871670665 -6.129656900666642 0.0 0.0
1715.612621731468 794.8604586780215 1242.7636653377294 -6.580183166651043 0.0 0.0
1861.9464897333953 910.773419980947 1373.2479776606604 -6.887752630749391 0.0 0.0
1992.720745235814 1013.6370443117612 1489.5398335279679 -6.881204579131746 0.0 0.0
2100.7764173755027 1097.521299480413 1585.1865990927945 -6.351228397136341 0.0 0.0
2181.5981073671487 1159.0907330727994 1656.2296533398608 -5.228141097535759 0.0 0.0
2226.193647175342 1190.6981779953387 1694.3487186971813 -4.612690623617888 0.0 0.0
2223.69445546592 1185.176442546614 1690.6687552587096 -1.0716760812101711e-11 0.0 0.0
2226.1936471744107 1190.698177994423 1694.3487186965053 4.6126906236547764 0.0 0.0
2181.5981073675944 1159.0907330732948 1656.229653340123 5.2281410975416325 0.0 0.0
2100.7764173739124 1097.5212994788742 1585.186599091504 6.351228397228555 0.0 0.0
1992.7207452353919 1013.637044311413 1489.5398335275593 6.881204579106228 0.0 0.0
1861.9464897326654 910.7734199803226 1373.2479776599998 6.8877526307657515 0.0 0.0
1715.612621730447 794.8604586771088 1242.7636653367974 6.580183166674159 0.0 0.0
1560.7655948052336 671.8315831911547 1104.4798716699497 6.129656900704282 0.0 0.0
1405.4324322513548 549.1591515486967 966.0756901281131 5.555662787652283 0.0 0.0
1257.2475989059026 434.3425016327656 835.0406243873398 4.883782643459734 0.0 0.0
1120.7175710990143 331.8734426607256 715.4037421427222 3.8277877373319242 0.0 0.0
999.6824939683935 248.07020580061746 611.4786923083435 2.752165702384577 0.0 0.0
894.726697571135 183.1681451040054 521.6530734767936 1.7457901177597268 0.0 0.0
801.6503799411574 134.35079398561118 438.4065823814681 0.8982936900691101 0.0 0.0
712.696548360522 96.32314285949376 351.77617573344804 0.2522090123492262 0.0 0.0
620.7332024798056 74.50026605660427 266.6138109175724 -0.22743035831061498 0.0 0.0
542.573922100453 44.44580516794654 188.58143616812293 0.4765897791593492 0.0 0.0
440.6959058972451 15.518046807185375 137.01847634980535 3.8785335685057634 0.0 0.0
508.61422504372047 81.80160483202923 178.09418090746274 34.757622267285846 0.0 0.0
1170.3900072090419 676.7398101430194 822.8022803401659 24.992420099720867 0.0 0.0
-986.9338455670504 -1766.8682147625868 -1298.3373721639887 7.405599316106908 0.0 0.0
-1257.6908003030835 -2005.7727365207743 -1514.4255927975835 -5.711333062824451 0.0 0.0
790.2257679981581 381.0325540100429 511.152365353475 -38.21097899858637 0.0 0.0
350.55853735370226 33.31133692676766 114.37467904010369 -27.700777060113726 0.0 0.0
390.20475599198926 1.8303633739825114 117.6746734926159 -16.493614294941548 0.0 0.0
483.96510926239995 18.187807193348565 157.00559848685168 -14.99039264635025 0.0 0.0
567.8670423925363 24.216680398281344 216.64951419099913 -18.181336352741813 0.0 0.0
635.4494633019629 33.48289203389132 286.6452510630045 -20.443166674649113 0.0 0.0
703.5618045042687 48.50053206571608 352.6732928811182 -21.325085362032002 0.0 0.0
768.030009546475 67.9356538872853 408.13305740265304 -21.499398756598367 0.0 0.0
834.1007927908435 94.14946159393303 459.9588451983691 -21.504282727243712 0.0 0.0
903.7548860181474 127.25396592936522 513.3654577682364 -21.28911282042643 0.0 0.0
976.38603383602 164.96423541634803 569.1711792895659 -20.96015594432263 0.0 0.0
1049.2340398269816 205.81802395719632 626.1093352820329 -20.395607578947367 0.0 0.0
1119.8968470785367 244.08552732694517 680.4756041453006 -19.77907634379578 0.0 0.0
1181.8562139554642 274.5755373677317 726.5660107109117 -19.245553596737686 0.0 0.0
1230.0996936131446 292.7516640204693 759.6399645925901 -18.601105449511962 0.0 0.0
1261.472857417365 296.4066156995076 777.066025546208 -17.53909375547729 0.0 0.0
1276.507394168005 287.27203151245084 780.0195869446131 -15.751918396822134 0.0 0.0
1276.6687232129166 268.118872492876 770.6802912804073 -13.183366138722858 0.0 0.0
1250.2203158456687 228.64110011171923 738.2997118486514 -10.623079495883143 0.0 0.0
1201.1420770284794 176.67762945666942 688.767987220978 -1.1708856106906751e-11 0.0 0.0
1250.2203158455513 228.64110011164868 738.2997118485677 10.62307949592387 0.0 0.0
1276.6687232129739 268.118872492964 770.6802912804889 13.183366138791133 0.0 0.0
1276.5073941673 287.27203151179447 780.0195869440873 15.751918396877631 0.0 0.0
1261.472857417075 296.4066156992926 777.0660255459672 17.53909375544405 0.0 0.0
1230.099693612746 292.75166402015947 759.6399645922869 18.601105449520475 0.0 0.0
1181.8562139546646 274.57553736703915 726.5660107102515 19.245553596697807 0.0 0.0
1119.896847078219 244.08552732675975 680.4756041450453 19.77907634381845 0.0 0.0
1049.2340398270023 205.81802395739243 626.1093352819906 20.395607578998185 0.0 0.0
976.3860338355884 164.96423541608652 569.1711792892444 20.96015594429233 0.0 0.0
903.7548860178383 127.25396592924974 513.3654577679745 21.289112820432294 0.0 0.0
834.1007927907658 94.14946159406342 459.9588451982702 21.504282727177216 0.0 0.0
768.0300095458657 67.93565388690092 408.1330574021757 21.499398756613218 0.0 0.0
703.5618045036781 48.500532065346746 352.67329288064985 21.325085362001314 0.0 0.0
635.4494633016975 33.48289203389848 286.6452510626918 20.44316667461819 0.0 0.0
567.8670423922011 24.21668039824032 216.6495141907019 18.181336352656654 0.0 0.0
483.96510926207895 18.18780719338533 157.00559848672378 14.99039264644778 0.0 0.0
390.2047559918171 1.830363374054526 117.67467349259766 16.493614294894773 0.0 0.0
350.5585373536755 33.311336926850515 114.37467904012566 27.70077706007892 0.0 0.0
790.2257679977024 381.0325540096736 511.1523653529361 38.21097899863256 0.0 0.0
-1257.6908003012636 -2005.7727365188534 -1514.4255927956056 5.7113330623376015 0.0 0.0
-1026.4264039264601 -1740.3101016459398 -1255.3542050422298 -45.30247388877288 0.0 0.0
592.1332086638681 287.6003959788497 372.21764847656186 -102.1758451680686 0.0 0.0
252.54400155247384 41.71199577596712 88.27673353405542 -28.321887033900524 0.0 0.0
333.35858277433357 -1.250227153007648 99.64997653744605 -36.246715283372765 0.0 0.0
436.70248305014195 12.157156168520885 136.38496476491127 -36.87395393467074 0.0 0.0
536.4251385542753 20.77567160796062 191.56839272269508 -36.11161091114981 0.0 0.0
607.2449313604436 31.93548247179342 262.63334059179 -38.789242168671684 0.0 0.0
677.6219828476293 42.81273537948965 329.88004406660696 -40.35755796717294 0.0 0.0
741.2402288565155 60.07183701022585 387.01095756384075 -40.92151908023145 0.0 0.0
804.6394882927635 82.771775788311 437.6005925337771 -41.04002827316937 0.0 0.0
870.3506307102562 112.00762855841067 487.99830946230657 -40.688470355280344 0.0 0.0
938.3657128371636 146.57443176790355 540.313321540343 -39.7866622109868 0.0 0.0
1008.0067296806906 182.966623612007 593.5971201561517 -38.6686088171841 0.0 0.0
1074.0106135871413 218.09240340666304 644.1496984422703 -37.48892846246337 0.0 0.0
1132.7098300303737 245.67293866743418 687.1705121640348 -36.40456422725195 0.0 0.0
1178.770161399349 261.9836743315387 718.2224009783836 -35.12719768753282 0.0 0.0
1210.2705677533613 265.92604592829707 735.8739665341823 -33.10189252846751 0.0 0.0
1226.222836041779 257.6695623811094 739.7760078676564 -29.914919078531348 0.0 0.0
1223.2114317787864 235.14046565945614 727.2945904518244 -25.50365333890569 0.0 0.0
1206.0048487530241 204.82498970633767 703.9072308402157 -19.758476449745732 0.0 0.0
1143.2531496735237 139.39952852137722 641.1543934903957 2.467714921294828e-11 0.0 0.0
1206.0048487533554 204.8249897066965 703.9072308404121 19.758476449779764 0.0 0.0
1223.211431778392 235.14046565911272 727.2945904515934 25.50365333900551 0.0 0.0
1226.2228360416905 257.6695623810682 739.7760078676179 29.91491907858275 0.0 0.0
1210.2705677531903 265.92604592819544 735.8739665339695 33.10189252842611 0.0 0.0
1178.7701613991646 261.98367433146825 718.2224009782132 35.12719768758053 0.0 0.0
1132.709830029301 245.67293866644906 687.1705121632102 36.40456422723766 0.0 0.0
1074.0106135869678 218.0924034066307 644.1496984420583 37.48892846250556 0.0 0.0
1008.0067296806392 182.96662361211852 593.5971201560483 38.6686088172331 0.0 0.0
938.3657128370945 146.57443176801465 540.3133215402769 39.786662210931325 0.0 0.0
870.3506307100854 112.00762855841573 487.99830946212825 40.68847035523498 0.0 0.0
804.639488292476 82.77177578822673 437.6005925335474 41.040028273077226 0.0 0.0
741.2402288560821 60.0718370100079 387.01095756347786 40.92151908021886 0.0 0.0
677.621982847204 42.81273537932175 329.88004406622167 40.357557967108185 0.0 0.0
607.2449313601426 31.9354824717935 262.63334059145507 38.789242168686265 0.0 0.0
536.4251385539906 20.775671607969993 191.56839272245344 36.111610911077875 0.0 0.0
436.7024830498052 12.157156168609562 136.38496476483505 36.873953934676095 0.0 0.0
333.35858277430543 -1.2502271528302809 99.64997653749033 36.246715283303026 0.0 0.0
252.54400155255826 41.711995776066786 88.27673353411068 28.32188703379618 0.0 0.0
592.1332086633809 287.60039597851994 372.217648476057 102.17584516795546 0.0 0.0
-1026.4264039247043 -1740.310101644066 -1255.3542050402943 45.302473888488066 0.0 0.0
-826.0490842913227 -1508.675620508573 -1029.6941082506214 -59.46538737910015 0.0 0.0
441.9297535073374 193.81531169797816 261.84951185784803 -142.88931006343515 0.0 0.0
186.7123017736688 42.66185669511981 68.81224754063658 -50.55791920825377 0.0 0.0
278.73183019445923 3.537263005414892 84.6835186484702 -54.93730243895231 0.0 0.0
383.40076030810644 4.817853273221728 115.78117291690069 -60.4223797469876 0.0 0.0
489.7985196005047 16.56138218597794 164.75107652013227 -56.15865852888933 0.0 0.0
578.3349277289318 27.311180089561027 234.0878775916986 -58.676506785358534 0.0 0.0
646.4876275637799 37.44866338746343 302.87345226136773 -59.75777548338925 0.0 0.0
710.403528034429 52.22442139435297 362.28156664333255 -60.19777700111535 0.0 0.0
771.4881206461146 71.79242171564519 412.67630314125955 -60.15052537748354 0.0 0.0
833.0036412051982 97.07605352508806 460.32420560902096 -59.404804979460934 0.0 0.0
896.9809562032414 127.07025504627215 508.9309622209105 -58.01817521311429 0.0 0.0
961.9992659141756 160.6396350671877 558.7906487633423 -56.26844932389037 0.0 0.0
1024.4924086667938 190.91856054203112 605.2828487179546 -54.71102273709983 0.0 0.0
1079.3654396647407 215.55584062955955 644.9558498100971 -53.167885218584225 0.0 0.0
1124.1740791873926 231.40048165541185 675.1642849819166 -51.2822366259274 0.0 0.0
1156.2312433091756 235.68826268676403 693.2909208072905 -48.5132553349766 0.0 0.0
1172.5498041279352 227.49368874328974 697.4668181032625 -44.292167632323746 0.0 0.0
1171.8221195569447 206.80171482007924 687.0550921324079 -38.07938016738852 0.0 0.0
1159.3930534171122 180.56566126246773 667.9928018662177 -28.298292920355216 0.0 0.0
1069.7532721866044 88.15540960501927 579.0631485373599 -1.4485301846889342e-11 0.0 0.0
1159.3930534170026 180.56566126238795 667.9928018661103 28.298292920417655 0.0 0.0
1171.8221195569338 206.8017148201405 687.0550921323954 38.07938016754888 0.0 0.0
1172.5498041277647 227.49368874317702 697.4668181031423 44.29216763243022 0.0 0.0
1156.231243309392 235.68826268706118 693.2909208073866 48.51325533500484 0.0 0.0
1124.174079187381 231.40048165550104 675.164284981893 51.282236625985625 0.0 0.0
1079.3654396640468 215.55584062897887 644.955849809584 53.167885218590285 0.0 0.0
1024.492408666662 190.91856054203734 605.2828487178181 54.71102273714148 0.0 0.0
961.9992659136441 160.63963506679977 558.7906487629347 56.26844932391083 0.0 0.0
896.9809562034569 127.07025504670096 508.9309622210179 58.01817521317933 0.0 0.0
833.0036412047757 97.0760535248532 460.3242056087117 59.40480497950493 0.0 0.0
771.4881206453593 71.79242171504796 412.67630314069925 60.150525377393265 0.0 0.0
710.4035280340114 52.22442139416164 362.2815666429807 60.19777700105973 0.0 0.0
646.487627563476 37.44866338742218 302.87345226104145 59.7577754833507 0.0 0.0
578.3349277288132 27.311180089795283 234.0878775914936 58.67650678533013 0.0 0.0
489.7985196001233 16.561382185934804 164.75107651990288 56.1586585287966 0.0 0.0
383.4007603078189 4.817853273294002 115.78117291684299 60.422379746902244 0.0 0.0
278.73183019441115 3.5372630054323597 84.68351864846095 54.93730243887902 0.0 0.0
186.71230177374576 42.661856695192945 68.81224754068161 50.55791920808975 0.0 0.0
441.9297535069081 193.81531169775013 261.8495118574332 142.8893100632135 0.0 0.0
-826.0490842898297 -1508.6756205069191 -1029.6941082489059 59.46538737893395 0.0 0.0
-653.4560371330001 -1305.2532670226424 -832.335350506278 -61.08617282244588 0.0 0.0
332.2854077377945 113.18006103370644 178.30475885719912 -171.28565640254396 0.0 0.0
138.0718820619066 37.499277627522396 52.671347906828686 -78.8492731402608 0.0 0.0
227.88832466327432 10.30326692231213 71.45823283186778 -75.17980983425592 0.0 0.0
322.24214775125836 4.18584487243343 97.89049552220062 -82.09472994994833 0.0 0.0
437.94288921109325 5.213174573924585 136.16983956075197 -82.64442727009272 0.0 0.0
536.1733808434814 20.8481259925086 200.4214397631082 -78.80036834251752 0.0 0.0
609.5431924758545 33.84690341878435 272.0756279955978 -79.22515485396802 0.0 0.0
674.2492233760862 44.75743068935676 332.97672743511623 -79.36243906085225 0.0 0.0
733.5012601634145 61.076239932146876 384.03084501657344 -78.80824750403252 0.0 0.0
791.7020463188694 82.0816194504236 429.76293808934975 -77.54292884135876 0.0 0.0
851.1453402664065 107.65220898254717 474.8809240561893 -75.56075463989225 0.0 0.0
911.970591292292 136.1998701370025 520.5905886704065 -73.41014288611936 0.0 0.0
969.9805095735476 164.25390248643419 563.9674366724989 -71.38677087389338 0.0 0.0
1021.9465410701558 185.60441410181397 600.6261443578344 -69.46611382999527 0.0 0.0
1064.9042427578747 199.10595655519774 628.7527273513253 -67.18006028129493 0.0 0.0
1097.648425974045 204.68980387756105 647.9092006262947 -63.82550168922481 0.0 0.0
1116.6113433119733 198.79766157952093 654.5724944543105 -58.82137243534371 0.0 0.0
1119.368571497726 180.71839537935674 647.2105386613468 -50.82430657395456 0.0 0.0
1108.696771382764 154.77196461732117 629.1541465566967 -37.19626301773951 0.0 0.0
985.173657924801 28.273098268490276 507.3319398579759 1.098854340852995e-11 0.0 0.0
1108.6967713827949 154.77196461740726 629.1541465567695 37.196263017852836 0.0 0.0
1119.3685714977905 180.71839537951297 647.2105386613807 50.82430657422878 0.0 0.0
1116.6113433115308 198.79766157913565 654.5724944540037 58.82137243546654 0.0 0.0
1097.6484259737392 204.68980387730443 647.9092006260533 63.82550168923299 0.0 0.0
1064.904242757324 199.1059565547039 628.7527273509633 67.18006028123587 0.0 0.0
1021.9465410698299 185.6044141016286 600.6261443575644 69.46611383004507 0.0 0.0
969.9805095730353 164.25390248602554 563.9674366721567 71.3867708738957 0.0 0.0
911.9705912920082 136.1998701368899 520.5905886701926 73.4101428861751 0.0 0.0
851.145340266272 107.65220898253818 474.88092405606113 75.56075463984172 0.0 0.0
791.7020463183824 82.08161945010511 429.76293808894263 77.54292884128755 0.0 0.0
733.5012601631221 61.07623993207632 384.03084501631184 78.80824750397241 0.0 0.0
674.2492233756791 44.75743068916516 332.97672743476625 79.36243906082808 0.0 0.0
609.5431924757326 33.84690341901711 272.0756279953864 79.22515485398856 0.0 0.0
536.1733808429908 20.848125992258815 200.4214397627079 78.80036834245183 0.0 0.0
437.9428892107668 5.213174573997794 136.16983956062558 82.64442726999869 0.0 0.0
322.2421477510473 4.185844872482965 97.89049552215575 82.09472994978816 0.0 0.0
227.88832466316853 10.303266922359155 71.45823283184971 75.17980983420138 0.0 0.0
138.0718820619292 37.499277627577015 52.67134790685186 78.8492731401267 0.0 0.0
332.28540773743805 113.18006103359447 178.30475885690183 171.2856564023453 0.0 0.0
-653.4560371317208 -1305.2532670211394 -832.3353505047722 61.08617282237019 0.0 0.0
-502.8097844511121 -1124.7155053743659 -659.2454625968124 -62.796881936389234 0.0 0.0
246.14931654683204 51.765674845319005 115.85764914595985 -185.52582870341007 0.0 0.0
99.79468270203857 28.464164575738902 38.47765418333324 -105.56027477765447 0.0 0.0
180.3019717900852 15.809108505223055 58.8332868774617 -96.03561370027762 0.0 0.0
265.1472037111668 3.9876160515657944 80.70117196226758 -103.01161389987196 0.0 0.0
368.2501459273891 1.6644537860856796 111.09492537086214 -106.09675529633796 0.0 0.0
473.99357803205584 14.63460921006587 164.53154576920562 -101.20575978281406 0.0 0.0
566.2144102585863 25.73888381543386 233.40521153310598 -100.36183131345743 0.0 0.0
629.0278823989556 38.67302966509914 297.81021571857707 -97.79410976858645 0.0 0.0
689.8051665483252 50.384184325464666 350.1931579948615 -97.13081106218598 0.0 0.0
744.9026784450904 67.15374218977219 395.01278428313015 -95.12078251841696 0.0 0.0
800.0178492683159 88.16263956281911 437.2065315507051 -92.47061167596127 0.0 0.0
856.2112697610952 112.58317798506269 479.3495470231181 -89.83333090638102 0.0 0.0
910.0918269325643 135.66937080275693 518.5877568691842 -87.5508104232594 0.0 0.0
958.8095111613942 154.87081215331625 552.7134837340164 -85.36549019769646 0.0 0.0
1000.1021311855397 167.7010203291381 579.7681407738912 -82.61915348804676 0.0 0.0
1033.2835373071325 172.37708210829294 598.7141753835375 -78.95589346417671 0.0 0.0
1055.9366760812288 169.94563329244562 608.9197179636427 -73.42744632987987 0.0 0.0
1063.8105293304286 156.24133984847074 606.3258169385672 -63.95472452175706 0.0 0.0
1054.0592138056795 128.92964005305583 588.0989979789895 -46.974147264589234 0.0 0.0
889.0630210442172 -39.2026111541539 426.2932577778536 6.833467125488824e-11 0.0 0.0
1054.0592138060401 128.92964005347403 588.0989979792972 46.97414726471114 0.0 0.0
1063.8105293308668 156.24133984901368 606.3258169388928 63.95472452199761 0.0 0.0
1055.9366760806256 169.94563329189282 608.9197179632525 73.42744632998001 0.0 0.0
1033.2835373067112 172.37708210794443 598.7141753831729 78.95589346421787 0.0 0.0
1000.1021311854709 167.70102032918098 579.7681407738216 82.61915348806126 0.0 0.0
958.8095111608228 154.87081215287571 552.7134837335512 85.36549019776572 0.0 0.0
910.0918269319754 135.66937080232123 518.5877568687445 87.55081042332829 0.0 0.0
856.2112697609518 112.58317798508655 479.3495470230572 89.83333090648455 0.0 0.0
800.0178492683283 88.1626395630422 437.20653155068743 92.47061167599317 0.0 0.0
744.9026784449667 67.15374218985514 395.01278428295154 95.12078251847423 0.0 0.0
689.8051665483085 50.384184325668556 350.1931579947765 97.13081106215577 0.0 0.0
629.0278823985858 38.673029664955976 297.8102157182143 97.79410976852279 0.0 0.0
566.2144102582618 25.738883815432544 233.405211532795 100.36183131346664 0.0 0.0
473.9935780314692 14.634609209719727 164.53154576879245 101.20575978271816 0.0 0.0
368.2501459269872 1.6644537861088395 111.09492537075397 106.09675529629226 0.0 0.0
265.14720371109456 3.98761605172545 80.70117196229268 103.01161389971251 0.0 0.0
180.30197179013138 15.809108505494082 58.83328687755698 96.03561370016426 0.0 0.0
99.79468270202943 28.46416457578182 38.47765418334337 105.56027477753649 0.0 0.0
246.149316546475 51.76567484517286 115.8576491457 185.52582870322027 0.0 0.0
-502.80978444997055 -1124.7155053729898 -659.2454625954942 62.79688193636523 0.0 0.0
-375.03979658455415 -957.8377067249156 -509.1573779314565 -65.61716069976588 0.0 0.0
178.85793033812195 2.5782450981536034 69.09185003811587 -192.81492994565795 0.0 0.0
67.92044106238205 18.657062109233074 25.973250951484538 -127.78943815548378 0.0 0.0
135.3457838167101 19.185160053286687 46.359283160999055 -115.86223755152619 0.0 0.0
208.58737904211822 6.185623614397572 64.43979432917422 -121.32758192272635 0.0 0.0
293.99874538464036 -1.5084505362969973 87.11907070606527 -128.89551015664202 0.0 0.0
402.7786487454862 3.7084428249886052 127.12299042196139 -128.4589757084956 0.0 0.0
497.5380726993685 19.688068412812555 188.827522947645 -120.87340192799044 0.0 0.0
578.4391877433593 27.598550938057993 252.78459991942654 -119.34453118607307 0.0 0.0
635.6829046007094 40.486152360107724 308.5977675199557 -114.56088400272475 0.0 0.0
690.8762261450652 52.23443399855208 353.8325111745236 -112.10347552740865 0.0 0.0
742.1543100567794 68.43294249399561 394.11543543715493 -108.85629134245352 0.0 0.0
793.6192859644065 88.2007494111527 433.0413507900867 -105.73546223031332 0.0 0.0
842.9060555835915 107.48354444913706 468.9065670846368 -103.11634673037646 0.0 0.0
888.0725939108274 123.6966050071433 500.1858993791558 -100.68997219492282 0.0 0.0
927.6658385084256 133.77194024690806 525.1492883166444 -98.0481495472618 0.0 0.0
960.6875230625874 140.39743121479225 545.1004348780835 -93.7315413664778 0.0 0.0
988.2007046119271 141.25336073682368 559.3137171449823 -87.8759009955209 0.0 0.0
1002.8146330133062 132.03371715387328 562.3192911521186 -77.74725451414038 0.0 0.0
994.9843361334985 104.12034599923753 544.9092903224622 -58.212867218939785 0.0 0.0
779.2836118159764 -114.49823224173329 334.8626179523352 7.764100473650615e-11 0.0 0.0
994.9843361337362 104.12034599956391 544.909290322613 58.212867219188176 0.0 0.0
1002.814633013815 132.0337171544279 562.3192911524944 77.74725451425464 0.0 0.0
988.2007046114803 141.25336073650016 559.3137171447153 87.87590099568017 0.0 0.0
960.6875230626855 140.3974312150167 545.1004348780618 93.73154136664408 0.0 0.0
927.6658385090072 133.77194024762593 525.1492883170649 98.04814954734246 0.0 0.0
888.0725939104464 123.69660500687047 500.1858993788697 100.68997219495812 0.0 0.0
842.9060555833352 107.48354444901688 468.9065670843823 103.11634673044539 0.0 0.0
793.6192859637869 88.20074941068069 433.0413507896279 105.73546223032118 0.0 0.0
742.1543100569179 68.43294249430244 394.1154354372506 108.85629134248938 0.0 0.0
690.8762261447015 52.23443399836793 353.8325111741662 112.10347552739411 0.0 0.0
635.6829046002968 40.486152359885594 308.59776751962653 114.56088400264403 0.0 0.0
578.439187742832 27.598550937744626 252.78459991897864 119.34453118601951 0.0 0.0
497.5380726988212 19.688068412581305 188.82752294724892 120.87340192796268 0.0 0.0
402.77864874523266 3.708442825235148 127.12299042187846 128.45897570846853 0.0 0.0
293.9987453842142 -1.50845053647042 87.11907070589979 128.89551015651108 0.0 0.0
208.5873790421309 6.18562361471607 64.43979432927362 121.32758192262541 0.0 0.0
135.34578381667123 19.185160053335306 46.359283161001954 115.86223755133466 0.0 0.0
67.92044106238886 18.657062109337467 25.97325095151789 127.78943815529983 0.0 0.0
178.85793033776488 2.578245097971781 69.09185003788315 192.81492994545516 0.0 0.0
-375.03979658367666 -957.8377067237499 -509.15737793039324 65.61716069977437 0.0 0.0
-262.1811820318854 -817.3849396121069 -379.9930179395649 -79.4702514277932 0.0 0.0
120.28374078572924 -33.67547718294051 32.72626939686962 -190.9224815314381 0.0 0.0
40.121300379588085 10.481426800767045 15.180842828948046 -145.1149377266379 0.0 0.0
92.32996526608606 20.56496397474554 33.86847877224949 -133.24791654734224 0.0 0.0
152.15696651107845 8.92180028154436 48.32082929020372 -137.26687952349914 0.0 0.0
218.82045769092824 -0.5273697761808446 65.27268357903841 -146.73681326783486 0.0 0.0
311.953660240388 -1.8946123532128103 92.79694065215661 -153.754768651282 0.0 0.0
410.6585323481315 7.680288131023598 138.6772594992409 -145.0790188385534 0.0 0.0
499.7229587527106 19.774040743075954 197.96375945622236 -138.22085506294187 0.0 0.0
570.2046576491438 26.209130820977173 253.4730746062788 -134.41002953441324 0.0 0.0
624.0016749968681 36.41844350922992 300.87047226103533 -128.4390041533065 0.0 0.0
672.8303892372786 48.726878945523325 341.26133287435607 -124.38010557632707 0.0 0.0
720.6120998281439 63.72540631932581 378.38505367824786 -120.9587133930513 0.0 0.0
764.8766293539782 78.42181029883147 411.18533779350867 -118.02985379740913 0.0 0.0
806.5067089177404 91.09723258748255 439.89474342060754 -115.54002941611496 0.0 0.0
843.5753201989266 100.52700262119305 463.7988531607523 -112.86328846631156 0.0 0.0
876.6063615382294 105.32395578190639 483.14742632800176 -108.61010000228057 0.0 0.0
907.8690612264041 109.92630302853536 501.0275558885226 -102.1084288697352 0.0 0.0
931.9071997330637 109.46330674239378 513.1198864597413 -91.81975224363833 0.0 0.0
929.7436419404446 83.18506481098595 499.6920644987855 -71.60711868820783 0.0 0.0
650.0678093168677 -197.97990292098564 230.20169012991917 5.679723358298361e-11 0.0 0.0
929.743641940559 83.18506481122773 499.6920644989183 71.60711868846118 0.0 0.0
931.907199733155 109.46330674258488 513.1198864598202 91.81975224381743 0.0 0.0
907.8690612262062 109.92630302852973 501.0275558884294 102.10842887002337 0.0 0.0
876.6063615384027 105.32395578222243 483.1474263280372 108.61010000251407 0.0 0.0
843.575320199239 100.52700262157582 463.7988531609538 112.86328846630377 0.0 0.0
806.5067089173449 91.09723258719626 439.8947434203566 115.54002941610608 0.0 0.0
764.8766293542179 78.4218102993093 411.1853377936257 118.02985379755228 0.0 0.0
720.612099827765 63.72540631907849 378.3850536779221 120.95871339310816 0.0 0.0
672.830389237115 48.72687894550326 341.2613328742104 124.38010557630717 0.0 0.0
624.0016749961918 36.41844350858666 300.870472260468 128.4390041531653 0.0 0.0
570.2046576489647 26.20913082110265 253.47307460610085 134.41002953437018 0.0 0.0
499.7229587522203 19.77404074290569 197.96375945585476 138.22085506293251 0.0 0.0
410.65853234772527 7.6802881310166375 138.677259499023 145.07901883862715 0.0 0.0
311.95366024013094 -1.89461235291144 92.79694065215857 153.75476865122437 0.0 0.0
218.8204576906217 -0.5273697763817236 65.272683578902 146.73681326757327 0.0 0.0
152.15696651102402 8.921800281578802 48.32082929019484 137.26687952339535 0.0 0.0
92.32996526598417 20.564963974612887 33.86847877217911 133.24791654714545 0.0 0.0
40.12130037965546 10.481426801001865 15.18084282903867 145.11493772646068 0.0 0.0
120.28374078539572 -33.6754771830778 32.726269396687876 190.9224815312194 0.0 0.0
-262.18118203122623 -817.3849396111145 -379.9930179387583 79.47025142786089 0.0 0.0
-184.97939074633777 -679.2555563686294 -283.7352606940505 -90.68091458851828 0.0 0.0
69.70593905019393 -61.43682148081557 5.494595892552 -183.01953617405218 0.0 0.0
14.078801412826838 4.6834375172956735 5.630170950459151 -157.74120392174143 0.0 0.0
51.00956792147367 20.499923561580587 21.452666307597294 -147.3341527622837 0.0 0.0
95.72787773343165 11.436921839514929 32.14848241363614 -150.084875941734 0.0 0.0
144.19535408167675 2.1719186071769365 43.88802749879212 -160.06064406018174 0.0 0.0
208.80347478804794 -2.0799388063746393 61.47232986406292 -173.544076049543 0.0 0.0
298.0126659287727 -4.420017425548993 88.7244581021487 -176.22058131848942 0.0 0.0
389.75794883877046 2.7794078204341943 130.73345502620884 -162.8771954524918 0.0 0.0
468.61914088507467 11.420753484714588 179.82717190750512 -151.99987708142112 0.0 0.0
529.9045084423882 19.486994719339386 226.90417919256484 -143.42197924820735 0.0 0.0
580.5251125745444 26.943311592452492 267.0436510716097 -138.44543005903625 0.0 0.0
625.9214653198484 38.458105012142084 304.3979314215065 -134.87172145607653 0.0 0.0
666.0727543990805 48.664489196545304 336.07868216907355 -131.95350367800904 0.0 0.0
703.5437908448073 57.9568848019624 363.5257337211939 -129.58848907780603 0.0 0.0
738.2814923214314 65.26447227511991 386.8024572389655 -127.30927169317262 0.0 0.0
771.6684613176293 70.94103123872074 407.82763701132575 -123.32895081873936 0.0 0.0
803.627035898972 75.33737292427972 426.6570082070569 -116.31548762874873 0.0 0.0
837.9483047049382 81.69119856596173 447.3184615146031 -105.87407169386515 0.0 0.0
853.3815770918394 67.83211486033743 449.4824577636999 -88.1672425913201 0.0 0.0
493.2325164932101 -286.9427746778108 110.02746871698693 1.800870563783974e-11 0.0 0.0
853.3815770921133 67.8321148608234 449.4824577639814 88.16724259158603 0.0 0.0
837.9483047049899 81.69119856617986 447.3184615146338 105.87407169420665 0.0 0.0
803.6270358986948 75.33737292411325 426.6570082068884 116.31548762894002 0.0 0.0
771.6684613180914 70.94103123946044 407.8276370115626 123.32895081898496 0.0 0.0
738.2814923212346 65.26447227486386 386.80245723877294 127.30927169312623 0.0 0.0
703.5437908445588 57.95688480190026 363.52573372103654 129.58848907779637 0.0 0.0
666.0727543989761 48.664489196506544 336.07868216898316 131.9535036781229 0.0 0.0
625.9214653196428 38.45810501206451 304.3979314213255 134.87172145607545 0.0 0.0
580.5251125742598 26.943311592288666 267.0436510713628 138.44543005906186 0.0 0.0
529.9045084417995 19.486994718735566 226.90417919207678 143.4219792480579 0.0 0.0
468.6191408850467 11.420753485109712 179.82717190747238 151.99987708140057 0.0 0.0
389.75794883854127 2.77940782066706 130.73345502612082 162.87719545260035 0.0 0.0
298.01266592848987 -4.420017425337067 88.72445810210063 176.22058131847004 0.0 0.0
208.8034747878122 -2.0799388060613486 61.47232986410813 173.5440760493489 0.0 0.0
144.19535408155195 2.171918607217549 43.88802749877362 160.06064405997844 0.0 0.0
95.72787773330076 11.436921839359195 32.148482413548706 150.08487594151228 0.0 0.0
51.00956792144016 20.499923561604472 21.452666307594487 147.33415276209988 0.0 0.0
14.078801412784099 4.683437517340139 5.630170950459375 157.7412039215184 0.0 0.0
69.70593904984551 -61.43682148089349 5.4945958923992135 183.0195361737952 0.0 0.0
-184.97939074589175 -679.2555563678004 -283.7352606934956 90.6809145886102 0.0 0.0
-128.50682045493068 -565.1479574548279 -212.23706692865437 -106.7868950101589 0.0 0.0
26.086570099186368 -77.52509237430708 -14.845631689183074 -169.5856898482747 0.0 0.0
-10.091545501028682 1.103837895193457 -2.696030352324157 -165.75677246989318 0.0 0.0
11.142030599346974 19.52613035288083 9.20075055848206 -157.62407026908596 0.0 0.0
39.84268749244386 13.560592434311333 16.021986805272007 -159.2907639309244 0.0 0.0
69.25437676016664 5.207587735812426 22.30215635253726 -169.67388063299688 0.0 0.0
103.4038583838014 0.035374671548738634 30.88599232580859 -184.19396907445903 0.0 0.0
150.07069053864922 -1.6124858316716404 44.61640402794302 -190.22667456091938 0.0 0.0
218.9071286892918 -4.7923667316881025 64.44104724693261 -188.27943327194944 0.0 0.0
294.62903936817804 -11.805995428691563 88.04073307106995 -178.31669758632884 0.0 0.0
366.93480827616327 -16.902945610226123 114.02300564598603 -169.7648851688855 0.0 0.0
422.1185671952459 -15.100886698835382 142.01341825882912 -158.0861936281601 0.0 0.0
464.889638541796 -5.316335753466117 171.68860725114266 -150.976363539537 0.0 0.0
502.3123808828664 6.9127543490648335 200.626589340761 -146.2857654322987 0.0 0.0
536.5917400393328 20.46368490003006 229.64702912098963 -144.09389063737308 0.0 0.0
569.4457567136019 29.01820315140623 257.0787963965557 -145.2089284625082 0.0 0.0
603.7327740627362 34.910618569357304 284.64552364719805 -143.91334157112232 0.0 0.0
639.7415989750784 37.92824990573497 310.45544201952123 -136.70763258029552 0.0 0.0
676.9687384880184 37.35296987511028 332.98130265962703 -123.85703226233763 0.0 0.0
730.7098543419825 50.97917620743323 369.60647420317423 -109.4688200760827 0.0 0.0
276.2331073893576 -382.0119830024333 -39.96284577492081 -1.878674993349705e-11 0.0 0.0
730.7098543418422 50.97917620740895 369.60647420313757 109.46882007633339 0.0 0.0
676.9687384882678 37.35296987569107 332.98130265983553 123.85703226278186 0.0 0.0
639.7415989749818 37.928249905703964 310.4554420194797 136.70763258048152 0.0 0.0
603.7327740633825 34.91061857032382 284.64552364762255 143.91334157139812 0.0 0.0
569.4457567134392 29.01820315112954 257.0787963963805 145.20892846245152 0.0 0.0
536.5917400394424 20.46368490025866 229.6470291210747 144.09389063733485 0.0 0.0
502.3123808822942 6.912754348461075 200.6265893403234 146.28576543232128 0.0 0.0
464.8896385416957 -5.316335753467113 171.68860725106782 150.97636353963935 0.0 0.0
422.118567195091 -15.100886698812326 142.0134182587348 158.08619362817 0.0 0.0
366.9348082761967 -16.902945609666215 114.02300564611313 169.7648851689681 0.0 0.0
294.62903936781527 -11.8059954288683 88.04073307089526 178.31669758625367 0.0 0.0
218.90712868904131 -4.792366731646687 64.44104724686244 188.2794332719705 0.0 0.0
150.07069053857188 -1.6124858314381183 44.61640402799008 190.22667456082294 0.0 0.0
103.40385838361993 0.03537467135656813 30.88599232569852 184.19396907427063 0.0 0.0
69.2543767602175 5.207587736011131 22.302156352610933 169.6738806328703 0.0 0.0
39.84268749253371 13.560592434484217 16.021986805351386 159.2907639307067 0.0 0.0
11.14203059946696 19.526130353105152 9.20075055858526 157.6240702689148 0.0 0.0
-10.091545501033693 1.103837895187839 -2.6960303523275813 165.75677246971028 0.0 0.0
26.086570099039395 -77.52509237429621 -14.845631689231894 169.58568984806985 0.0 0.0
-128.50682045476694 -565.1479574541462 -212.2370669283517 106.78689501019122 0.0 0.0
-104.28732311973528 -451.53120878356356 -167.07479512144837 -106.66129447046646 0.0 0.0
-3.9105562079998215 -88.28480998367554 -27.615701688351393 -158.83801461678027 0.0 0.0
-32.30535169001755 -1.6284016856982892 -10.176664258209986 -169.83926125097815 0.0 0.0
-27.106249519109866 18.282958048560786 -2.6462624906237577 -163.881092819326 0.0 0.0
-15.211943495838941 15.180253092089398 -0.009079182792494311 -164.47243860279542 0.0 0.0
-6.275123049774065 8.31627667383826 0.6130232619690874 -173.75697140749767 0.0 0.0
-2.258094807932748 2.15313195405433 -0.036281788706573614 -188.46326178344506 0.0 0.0
-0.43493691302563775 0.29299037109382997 -0.04107364422396298 -194.90832029650525 0.0 0.0
0.0028581215433298723 -0.14354329246302377 -0.04215723491011225 -192.93595832523582 0.0 0.0
0.11858483015060273 0.0030106491370531785 0.0434628479389918 -182.1821537622356 0.0 0.0
0.420392942293752 -0.5463413105988337 -0.220476765082406 -175.6435875246581 0.0 0.0
-0.4599124716618235 0.3664460098999154 0.04621102122957765 -172.3285244757824 0.0 0.0
-1.762768339636125 1.0231550866995818 -0.08385922977520721 -171.3809095864463 0.0 0.0
-2.936550239632723 1.6038001043166297 -0.14676022745636885 -168.5792748303612 0.0 0.0
1.5895032604454968 0.986752439411319 0.7647384675289501 -162.99224388042657 0.0 0.0
13.954525941515882 4.467934307287223 2.689188925887663 -154.70650894171177 0.0 0.0
46.81764506322817 11.698225826025933 7.522796204255997 -148.449293098554 0.0 0.0
129.29231859473228 10.04526587895154 15.022328753297856 -143.42086085447275 0.0 0.0
298.9343879319824 -52.08805244761169 34.690354267714866 -139.47110043187035 0.0 0.0
449.36819915234616 -34.233637770857214 146.0854045303554 -149.60242889782478 0.0 0.0
-248.40502485428036 -549.4891918396728 -330.5102122634032 -6.567546506630606e-11 0.0 0.0
449.3681991522669 -34.23363777101886 146.08540453023423 149.60242889784024 0.0 0.0
298.9343879323103 -52.0880524467774 34.690354268077115 139.4711004325254 0.0 0.0
129.2923185949337 10.045265878985475 15.022328753514486 143.4208608549515 0.0 0.0
46.81764506322398 11.698225825896856 7.52279620419047 148.44929309878654 0.0 0.0
13.954525941347953 4.467934306837982 2.689188925671921 154.70650894167557 0.0 0.0
1.5895032609189883 0.9867524398268586 0.7647384678226032 162.99224388037314 0.0 0.0
-2.936550239444756 1.6038001040062788 -0.1467602274938855 168.57927483042909 0.0 0.0
-1.7627683392228874 1.023155086660811 -0.08385922967028847 171.38090958671054 0.0 0.0
-0.45991247106365307 0.36644601044110914 0.04621102157704016 172.3285244756637 0.0 0.0
0.4203929427140807 -0.5463413101553058 -0.22047676481375333 175.64358752466418 0.0 0.0
0.1185848304055881 0.003010649268823329 0.04346284805412637 182.18215376210503 0.0 0.0
0.0028581215753398226 -0.14354329269920418 -0.04215723497043111 192.9359583253163 0.0 0.0
-0.4349369129683591 0.2929903710278883 -0.041073644224516315 194.90832029643127 0.0 0.0
-2.258094807909801 2.153131953899098 -0.03628178874644039 188.46326178324443 0.0 0.0
-6.275123049788553 8.316276673664554 0.6130232619125073 173.75697140729181 0.0 0.0
-15.211943495696374 15.180253092319216 -0.00907918268089758 164.47243860261725 0.0 0.0
-27.10624951898366 18.28295804879329 -2.6462624905164365 163.88109281912128 0.0 0.0
-32.3053516899916 -1.6284016856148207 -10.176664258177437 169.8392612508143 0.0 0.0
-3.910556208030626 -88.2848099836464 -27.6157016883486 158.83801461661093 0.0 0.0
-104.28732311963081 -451.53120878294385 -167.0747951212588 106.66129447033074 0.0 0.0
-85.89224902911732 -355.0906384083602 -132.28631333623017 -100.57825946888543 0.0 0.0
-23.269976394050047 -91.60329840878337 -34.46322548117053 -149.3336160713379 0.0 0.0
-52.894106815514576 -4.079149471756598 -17.09271783184852 -169.89957283082254 0.0 0.0
-63.57886836003664 16.977308566329057 -13.978924744644269 -165.9918480901635 0.0 0.0
-69.12667992252567 16.166873898441903 -15.885704773773071 -165.39753232600154 0.0 0.0
-80.79573403039878 11.14572039618484 -20.896701574288826 -172.00461937228783 0.0 0.0
-108.04801558977225 4.482844915444913 -30.84123545960462 -186.16536787423013 0.0 0.0
-151.04006012345636 2.0742951253318065 -44.777374901946246 -190.45926532038726 0.0 0.0
-218.7634946233845 4.478876186905578 -64.5076377489755 -188.24913772619465 0.0 0.0
-294.4008253569 11.747818370390076 -87.97948705826973 -178.28145068870813 0.0 0.0
-368.44002230650915 17.8272081434931 -113.52487032131233 -170.17188200982503 0.0 0.0
-421.84327786457436 14.897926940389242 -142.25316612703332 -157.9754908807535 0.0 0.0
-465.5685395423853 5.377296912585663 -172.25728860698462 -150.44665301342204 0.0 0.0
-503.27230927154744 -6.488442664611995 -201.2518461619787 -145.60389943288774 0.0 0.0
-535.1157026795402 -16.292331481248468 -226.91618381678683 -144.05451854739687 0.0 0.0
-557.8590542608653 -17.311329946899157 -242.17184750372599 -146.66232953582752 0.0 0.0
-568.2212361543063 -12.533081957321329 -243.90419708180627 -152.59806057675877 0.0 0.0
-566.0107632677241 -1.1022872620792015 -226.82673073321627 -163.72889454165147 0.0 0.0
-552.4573727462637 32.11487622634246 -188.94036380834967 -170.32641296101966 0.0 0.0
-337.5075206504713 48.151640191917956 -91.34552601060516 -113.42942266870057 0.0 0.0
-756.4619554734796 -754.0615769880828 -736.8503243039353 -8.575540277888649e-11 0.0 0.0
-337.5075206500868 48.151640192542594 -91.34552601024143 113.42942266908564 0.0 0.0
-552.4573727464084 32.114876226000604 -188.9403638085141 170.32641296136995 0.0 0.0
-566.0107632674662 -1.1022872618472164 -226.82673073307598 163.72889454184786 0.0 0.0
-568.2212361545467 -12.533081957773938 -243.9041970819462 152.59806057682218 0.0 0.0
-557.8590542608165 -17.311329947158306 -242.17184750363242 146.66232953585262 0.0 0.0
-535.1157026791259 -16.29233148086293 -226.9161838164632 144.05451854751053 0.0 0.0
-503.2723092712903 -6.488442664464692 -201.25184616175474 145.60389943285395 0.0 0.0
-465.56853954210806 5.377296912560716 -172.25728860680846 150.44665301360914 0.0 0.0
-421.8432778639582 14.897926940863748 -142.25316612658855 157.97549088073148 0.0 0.0
-368.4400223059456 17.827208143389036 -113.52487032111299 170.17188200982164 0.0 0.0
-294.4008253562347 11.747818370533784 -87.97948705800708 178.28145068866485 0.0 0.0
-218.76349462312703 4.478876186318981 -64.50763774906967 188.24913772622807 0.0 0.0
-151.0400601229979 2.074295125500787 -44.77737490175457 190.45926532035335 0.0 0.0
-108.04801558954212 4.4828449153830805 -30.84123545955555 186.16536787403973 0.0 0.0
-80.79573403035182 11.145720395880144 -20.896701574369047 172.00461937200396 0.0 0.0
-69.12667992249371 16.166873898268033 -15.885704773815462 165.39753232589968 0.0 0.0
-63.57886835991096 16.977308566452088 -13.97892474457014 165.99184808996026 0.0 0.0
-52.89410681546767 -4.079149471711887 -17.092717831821243 169.8995728306566 0.0 0.0
-23.269976394095174 -91.60329840883122 -34.46322548119795 149.33361607121927 0.0 0.0
-85.89224902899699 -355.09063840789554 -132.28631333605958 100.57825946870435 0.0 0.0
-69.44030866864193 -272.0249204439854 -102.43956873378824 -90.6616097354993 0.0 0.0
-37.263906263347614 -89.1300932110621 -37.918473032143446 -138.93567380963987 0.0 0.0
-71.86122664096949 -5.890070195902198 -23.325100954637517 -166.0463833013833 0.0 0.0
-98.34256530904895 15.46731840826451 -24.86443440845632 -163.8877086657157 0.0 0.0
-121.50513433229582 16.49835020174816 -31.50388217439116 -161.74284346116607 0.0 0.0
-155.07332790948533 13.847390131358338 -42.1533960161839 -167.3440536529755 0.0 0.0
-211.01769226378804 5.535455383731419 -61.45110946230624 -172.67926187862906 0.0 0.0
-298.3562080478506 4.6186714943614255 -88.86106661454666 -176.45301513137596 0.0 0.0
-389.7423874006136 -3.0768522491249453 -130.81060324623604 -162.87442582496942 0.0 0.0
-468.5965721145931 -11.533840822342572 -179.81993048685248 -151.94472515823702 0.0 0.0
-529.7700117940931 -19.36450424363304 -226.81487695582072 -143.35281444346126 0.0 0.0
-580.5256345488297 -26.83413512001124 -267.06432438286686 -138.33278434275522 0.0 0.0
-626.3343636212073 -38.27366699878875 -304.6384537843028 -134.30573823002342 0.0 0.0
-666.5763883014199 -47.90577623444282 -336.1418611495217 -130.9754178704607 0.0 0.0
-701.8531047897958 -54.84163034126077 -361.3359353498517 -129.07873379125067 0.0 0.0
-727.3800887743955 -55.16003668851492 -376.57971563311116 -129.61437572471988 0.0 0.0
-739.5777101754479 -47.9647862923258 -380.1677277600501 -133.76332426825905 0.0 0.0
-737.0587080629045 -36.69259767664131 -373.80924728882593 -142.11125005975612 0.0 0.0
-709.2707740573912 -10.16304623050641 -348.5035303982256 -151.8350600727348 0.0 0.0
-673.6198387152053 11.958101131041207 -321.1565718728982 -153.2556550183214 0.0 0.0
-1442.5463498576446 -1010.749444892194 -1174.2836924022508 3.431921413721284e-11 0.0 0.0
-673.6198387155288 11.95810113052923 -321.15657187322915 153.25565501868235 0.0 0.0
-709.270774057062 -10.163046230482493 -348.50353039798733 151.8350600730202 0.0 0.0
-737.058708063263 -36.69259767703241 -373.8092472890594 142.1112500599845 0.0 0.0
-739.5777101749101 -47.96478629189449 -380.1677277597065 133.7633242682521 0.0 0.0
-727.3800887742132 -55.160036688412966 -376.57971563299606 129.6143757247718 0.0 0.0
-701.8531047900248 -54.84163034171957 -361.3359353499798 129.07873379133076 0.0 0.0
-666.5763883010914 -47.90577623425247 -336.1418611492884 130.97541787048917 0.0 0.0
-626.3343636209612 -38.27366699870885 -304.6384537840896 134.30573823005219 0.0 0.0
-580.525634548219 -26.834135119614373 -267.06432438240535 138.33278434268922 0.0 0.0
-529.7700117937297 -19.364504243597473 -226.81487695554878 143.35281444346452 0.0 0.0
-468.59657211448757 -11.533840822805747 -179.81993048676162 151.94472515828875 0.0 0.0
-389.7423874000286 -3.076852249015792 -130.81060324591087 162.87442582501293 0.0 0.0
-298.3562080473153 4.618671494332187 -88.86106661436911 176.45301513142604 0.0 0.0
-211.0176922634288 5.5354553835493086 -61.45110946226131 172.6792618784465 0.0 0.0
-155.07332790909666 13.84739013165519 -42.15339601597921 167.34405365280736 0.0 0.0
-121.50513433218828 16.49835020156786 -31.503882174414183 161.7428434610317 0.0 0.0
-98.34256530895246 15.467318408319843 -24.864434408411327 163.88770866553733 0.0 0.0
-71.86122664094717 -5.890070195971273 -23.325100954652086 166.0463833012419 0.0 0.0
-37.26390626333626 -89.13009321104474 -37.91847303213449 138.93567380951418 0.0 0.0
-69.44030866855583 -272.024920443655 -102.43956873366326 90.66160973540542 0.0 0.0
-55.93476125717832 -201.24921837683672 -77.15519389020449 -79.42760390026896 0.0 0.0
-48.06822266004821 -82.26756041210113 -39.10068362872036 -126.77938421748141 0.0 0.0
-89.58558337622816 -6.9742045402021375 -28.969132290024543 -158.21028338292155 0.0 0.0
-131.4982076719002 13.79310616078484 -35.30889572365572 -157.67275562252902 0.0 0.0
-172.45770980912408 16.218282650494714 -46.81938095735636 -154.0701053558018 0.0 0.0
-225.29557496988053 13.795674151529818 -63.461054387921166 -153.11686949060686 0.0 0.0
-314.2942230412245 6.859968821284134 -92.00512737092131 -157.54755440061626 0.0 0.0
-410.8854456245987 -7.750981116230767 -138.7956650709502 -145.53995323794638 0.0 0.0
-499.79223725682095 -20.075444961151106 -198.043231496246 -138.18017313986536 0.0 0.0
-570.2671549770259 -26.316639810380188 -253.52913143551916 -134.36196622890446 0.0 0.0
-623.8278472960882 -36.26875697164556 -300.7666063170331 -128.37564300017223 0.0 0.0
-672.7255960123616 -48.53075241783504 -341.1520141200008 -124.23491576043043 0.0 0.0
-720.7898440008855 -63.54732761195538 -378.4315924401592 -120.375685180375 0.0 0.0
-765.4748860572017 -78.13841858842252 -411.4249841497275 -116.81195105637478 0.0 0.0
-805.9677723213267 -89.41924076005014 -438.9192462005483 -114.55557524534679 0.0 0.0
-835.6632510804648 -92.89753506870993 -456.29599282530444 -114.9746677633438 0.0 0.0
-849.8675399372662 -84.56885747708075 -459.7486237199442 -119.40490256142527 0.0 0.0
-839.9571019544926 -60.31307945537243 -443.5394139270126 -127.20088404992269 0.0 0.0
-805.3553100334535 -21.61903454460817 -408.5871794920472 -134.79859283129306 0.0 0.0
-727.2113765771909 43.7397873049087 -342.8555503590177 -140.15799688460234 0.0 0.0
-1873.6810688201824 -1245.265675862959 -1516.799457877126 2.2865265236760024e-11 0.0 0.0
-727.2113765772701 43.73978730452133 -342.85555035915877 140.1579968849323 0.0 0.0
-805.3553100326736 -21.61903454400239 -408.5871794915593 134.79859283159828 0.0 0.0
-839.9571019551722 -60.31307945622279 -443.53941392741524 127.2008840501652 0.0 0.0
-849.8675399363859 -84.56885747625128 -459.7486237193831 119.40490256146927 0.0 0.0
-835.6632510806363 -92.89753506902272 -456.29599282543353 114.97466776339745 0.0 0.0
-805.9677723210376 -89.41924075987626 -438.9192462002828 114.55557524534166 0.0 0.0
-765.4748860567894 -78.13841858819015 -411.4249841494525 116.81195105639735 0.0 0.0
-720.789844000856 -63.54732761210687 -378.43159244011525 120.37568518042411 0.0 0.0
-672.7255960117143 -48.53075241738592 -341.15201411953353 124.23491576038029 0.0 0.0
-623.8278472959138 -36.26875697169201 -300.76660631688287 128.3756430001234 0.0 0.0
-570.2671549767878 -26.31663981045071 -253.52913143524052 134.36196622879677 0.0 0.0
-499.79223725619653 -20.075444960872158 -198.043231495777 138.18017313986513 0.0 0.0
-410.88544562404644 -7.750981116137693 -138.79566507062248 145.5399532379726 0.0 0.0
-314.29422304038314 6.8599688218050705 -92.00512737051808 157.54755440049414 0.0 0.0
-225.29557496949826 13.795674151529775 -63.46105438781969 153.11686949042777 0.0 0.0
-172.45770980900915 16.21828265030466 -46.8193809573775 154.0701053556564 0.0 0.0
-131.4982076715948 13.793106161192787 -35.308895723442454 157.67275562236154 0.0 0.0
-89.58558337615997 -6.974204540180447 -28.969132289997166 158.21028338281337 0.0 0.0
-48.068222660030855 -82.2675604120925 -39.10068362871257 126.77938421733533 0.0 0.0
-55.9347612570715 -201.24921837659824 -77.15519389010092 79.42760390016669 0.0 0.0
-45.676300491976 -142.03332842146386 -56.31288867403197 -67.71592842758345 0.0 0.0
-56.7802248252045 -72.4194592718796 -38.75990522912522 -112.76411816936476 0.0 0.0
-106.34544485192707 -7.188664831438427 -34.06078392046794 -146.5401478270901 0.0 0.0
-163.16295086238762 11.814207462296702 -45.41070181601908 -147.18024599935273 0.0 0.0
-220.76375751334675 14.966443301342526 -61.71034570088078 -141.47492415830928 0.0 0.0
-299.58818138406747 14.962524942956385 -84.30122270378413 -139.08033238322716 0.0 0.0
-399.970982938372 -1.940063306568975 -126.73440072552944 -128.8023406456149 0.0 0.0
-497.493772581552 -19.92615152701844 -188.84207835965634 -121.1757364213017 0.0 0.0
-578.6376680365265 -27.932590865412006 -252.94951143005176 -119.26856027032488 0.0 0.0
-635.7369260613814 -40.54787765678179 -308.66898271260453 -114.51697466512819 0.0 0.0
-690.727343498001 -52.04068981558014 -353.7093647403064 -112.07284292020411 0.0 0.0
-741.8866568693959 -68.1035365211235 -393.8496406376104 -108.7118419009218 0.0 0.0
-793.4210409402186 -87.80971428128916 -432.7733391787891 -105.18702871404223 0.0 0.0
-843.4659356385511 -107.49713213124744 -469.23081000292035 -101.85992195614025 0.0 0.0
-889.2707247891353 -124.05355647150442 -501.00840549173665 -99.46274500380228 0.0 0.0
-924.5371592871031 -130.5161464035328 -522.1284861084448 -99.69144210618991 0.0 0.0
-937.7486824624366 -120.77305057862321 -524.3312027885031 -103.1485417241486 0.0 0.0
-919.7450417584757 -84.51785796768424 -498.0299817676012 -109.8126331401885 0.0 0.0
-864.6489843544376 -22.178980526244416 -441.1040370194364 -116.97366998047715 0.0 0.0
-755.7981627409245 75.26141885336583 -343.19898821012436 -123.58245134017248 0.0 0.0
-2208.37827383267 -1480.0921293579083 -1809.1584293761819 7.16369186193333e-11 0.0 0.0
-755.7981627401387 75.26141885410377 -343.1989882095659 123.58245134031901 0.0 0.0
-864.6489843537325 -22.178980525628745 -441.1040370189489 116.97366998059549 0.0 0.0
-919.7450417584835 -84.51785796782437 -498.02998176754534 109.81263314034399 0.0 0.0
-937.748682462074 -120.77305057834266 -524.3312027882612 103.1485417242229 0.0 0.0
-924.5371592866034 -130.51614640315614 -522.1284861080499 99.69144210625296 0.0 0.0
-889.2707247886481 -124.05355647111352 -501.00840549131954 99.46274500381905 0.0 0.0
-843.4659356381716 -107.49713213098585 -469.23081000268536 101.85992195612582 0.0 0.0
-793.4210409402419 -87.8097142815032 -432.77333917875563 105.18702871406056 0.0 0.0
-741.8866568691917 -68.10353652112059 -393.84964063742405 108.71184190091404 0.0 0.0
-690.7273434975419 -52.04068981530008 -353.7093647399808 112.07284292011974 0.0 0.0
-635.7369260609356 -40.5478776566243 -308.66898271224863 114.51697466507854 0.0 0.0
-578.6376680363086 -27.932590865565107 -252.94951142976242 119.26856027034646 0.0 0.0
-497.49377258103675 -19.926151526886873 -188.8420783592584 121.17573642126514 0.0 0.0
-399.97098293774013 -1.9400633063029784 -126.73440072518412 128.8023406455505 0.0 0.0
-299.58818138376574 14.962524942560277 -84.30122270382505 139.08033238308784 0.0 0.0
-220.76375751314978 14.966443301120659 -61.71034570089324 141.4749241581826 0.0 0.0
-163.1629508621005 11.814207462583802 -45.41070181584716 147.18024599915464 0.0 0.0
-106.3454448518547 -7.188664831464252 -34.06078392045374 146.54014782698783 0.0 0.0
-56.78022482514229 -72.41945927183771 -38.75990522909399 112.76411816927879 0.0 0.0
-45.676300491882664 -142.03332842128594 -56.312888673950575 67.71592842747172 0.0 0.0
-38.47012739345283 -93.93599638319867 -39.72183713299544 -55.738350841563076 0.0 0.0
-63.92296234005001 -60.81006354218103 -37.41990776466931 -97.02067129448017 0.0 0.0
-122.24031400375262 -6.539051382266608 -38.63410398548395 -131.1288068367029 0.0 0.0
-193.42250660851738 9.687974038559878 -55.12440134466175 -132.6507558041168 0.0 0.0
-266.4945904372389 12.373023395353668 -76.32998011067295 -124.3202822561965 0.0 0.0
-368.5455533217507 10.526283040341394 -107.27653643432443 -117.25957867174446 0.0 0.0
-472.3779753758679 -12.113445834401746 -163.46191305584296 -103.35341807100892 0.0 0.0
-566.3642075562844 -26.17789615186158 -233.52437159989773 -100.45532808528006 0.0 0.0
-629.2076884368992 -38.88285357677748 -297.9567699877695 -97.71662267442122 0.0 0.0
-689.8437622754217 -50.401329081568754 -350.2492505209656 -97.10806216880587 0.0 0.0
-744.7612811766389 -66.97941485319507 -394.89583681408465 -95.08983542411991 0.0 0.0
-799.6106615411886 -87.71241077541043 -436.80866538652685 -92.32307993238236 0.0 0.0
-855.5526868040607 -111.85601812553944 -478.6826712211313 -89.34603031253276 0.0 0.0
-910.2812891891846 -135.65089305597996 -518.6864941963759 -86.4585090067299 0.0 0.0
-961.6672784103508 -157.28325314260383 -555.3305350233143 -84.1953666203455 0.0 0.0
-1001.8000672648408 -168.9823211670173 -581.3771479479376 -83.55158974631986 0.0 0.0
-1015.3920551200486 -155.61333803842695 -581.91862946153 -85.92238133135625 0.0 0.0
-986.01368400771 -106.78906592368304 -543.6773304725273 -91.31520326345908 0.0 0.0
-907.1284730231432 -20.00361718145706 -462.52210451957774 -98.30105522122608 0.0 0.0
-771.8833539615355 104.31549687972115 -336.84648832685616 -108.28526044600783 0.0 0.0
-2504.7573506069807 -1711.357863933401 -2078.4776518200542 1.4941647918931267e-10 0.0 0.0
-771.88335396144 104.31549687973957 -336.84648832672417 108.28526044619198 0.0 0.0
-907.1284730224371 -20.003617180799452 -462.52210451906774 98.30105522132402 0.0 0.0
-986.0136840079247 -106.78906592397084 -543.6773304726908 91.31520326358071 0.0 0.0
-1015.3920551199919 -155.6133380384743 -581.9186294614786 85.92238133140158 0.0 0.0
-1001.8000672643036 -168.9823211665595 -581.3771479474959 83.5515897463456 0.0 0.0
-961.6672784100992 -157.2832531425086 -555.3305350230385 84.19536662040355 0.0 0.0
-910.2812891884557 -135.6508930553668 -518.6864941958119 86.4585090067415 0.0 0.0
-855.5526868038579 -111.85601812551448 -478.6826712210119 89.34603031252321 0.0 0.0
-799.6106615411801 -87.71241077565823 -436.80866538647786 92.32307993247781 0.0 0.0
-744.761281176114 -66.97941485281773 -394.89583681367526 95.08983542401809 0.0 0.0
-689.8437622748413 -50.40132908119976 -350.24925052050816 97.10806216867894 0.0 0.0
-629.207688436706 -38.88285357693906 -297.9567699875148 97.71662267448615 0.0 0.0
-566.3642075556197 -26.177896151494046 -233.52437159934016 100.45532808522466 0.0 0.0
-472.37797537558924 -12.113445834598261 -163.46191305564437 103.35341807100686 0.0 0.0
-368.5455533212677 10.526283040253876 -107.27653643419974 117.25957867161667 0.0 0.0
-266.494590436977 12.373023395251222 -76.32998011062938 124.32028225611744 0.0 0.0
-193.422506608404 9.687974038333694 -55.1244013446955 132.65075580396567 0.0 0.0
-122.24031400362337 -6.539051382174669 -38.63410398541748 131.12880683657784 0.0 0.0
-63.9229623400248 -60.81006354217937 -37.419907764661225 97.02067129446937 0.0 0.0
-38.47012739337734 -93.9359963830747 -39.72183713293561 55.73835084147422 0.0 0.0
-33.92155694791785 -56.76243270230896 -27.205196895068052 -43.61150817898154 0.0 0.0
-69.55817740992099 -48.41394276086363 -35.39163605123538 -79.70493940315735 0.0 0.0
-137.25520880546648 -5.2655295030078335 -42.75622149254229 -112.09473415388739 0.0 0.0
-222.211791665614 7.556886913614658 -64.40250149731767 -113.93792163782626 0.0 0.0
-314.64822931368565 9.408190091250184 -91.12791453872808 -104.79255593371022 0.0 0.0
-423.4108657865362 -2.266023760621831 -133.43093703123031 -88.10328816199846 0.0 0.0
-534.6861793709354 -18.771344294724933 -199.08799486240042 -80.49282625160643 0.0 0.0
-609.612846849917 -34.10423721950011 -272.11997510214957 -79.11637747421359 0.0 0.0
-674.4098653939645 -44.86483438634709 -333.10628857776436 -79.29614264725694 0.0 0.0
-733.5417935423823 -61.085362953893366 -384.08280234441156 -78.80875710000653 0.0 0.0
-791.5567306723408 -81.90852897888352 -429.6352335023463 -77.51413865914627 0.0 0.0
-850.6264279576127 -107.10810287735194 -474.379098503157 -75.40465354914252 0.0 0.0
-910.9624634241077 -135.2129340645774 -519.6211448409532 -72.99907479997692 0.0 0.0
-969.5920412516643 -163.93434427193387 -563.6231067162598 -70.60698945316241 0.0 0.0
-1024.9994510625284 -188.61080026114604 -603.6259836486886 -68.60133334379006 0.0 0.0
-1070.3429523929071 -204.12745378804308 -634.0433005948275 -67.36276329329534 0.0 0.0
-1086.6469044705664 -193.43364492242674 -637.2551331956071 -67.81732850669088 0.0 0.0
-1047.348997934055 -132.72570906561023 -588.1783515207263 -71.78938101787196 0.0 0.0
-943.3419351121498 -19.168984499360207 -480.8876722576649 -79.92565270062306 0.0 0.0
-776.3629586292618 136.10423315560072 -322.7357428525684 -94.79708664834614 0.0 0.0
-2773.810486389947 -1932.8641434130939 -2328.3361511731205 8.060396794462577e-11 0.0 0.0
-776.362958629086 136.1042331557237 -322.73574285242626 94.79708664844478 0.0 0.0
-943.3419351122334 -19.168984499510998 -480.88767225770914 79.92565270072886 0.0 0.0
-1047.3489979343499 -132.72570906599537 -588.1783515209248 71.78938101797681 0.0 0.0
-1086.6469044703933 -193.4336449223536 -637.255133195471 67.8173285067634 0.0 0.0
-1070.3429523925433 -204.12745378777063 -634.0433005944785 67.36276329333631 0.0 0.0
-1024.9994510620816 -188.6108002608364 -603.6259836483437 68.60133334382405 0.0 0.0
-969.5920412511773 -163.93434427156245 -563.6231067158501 70.60698945319747 0.0 0.0
-910.9624634239541 -135.21293406458318 -519.6211448408599 72.99907479994381 0.0 0.0
-850.6264279571996 -107.10810287713277 -474.3790985028404 75.4046535491282 0.0 0.0
-791.5567306720852 -81.90852897884338 -429.6352335021236 77.5141386591134 0.0 0.0
-733.5417935418832 -61.085362953580116 -384.08280234402406 78.8087570998912 0.0 0.0
-674.4098653934393 -44.86483438612759 -333.1062885773136 79.29614264728646 0.0 0.0
-609.6128468490573 -34.104237218880094 -272.11997510146847 79.11637747417436 0.0 0.0
-534.6861793705331 -18.77134429471652 -199.08799486204768 80.49282625158145 0.0 0.0
-423.41086578587453 -2.266023760402829 -133.43093703092686 88.10328816193217 0.0 0.0
-314.6482293132484 9.408190091375353 -91.12791453856573 104.79255593365896 0.0 0.0
-222.2117916655356 7.5568869132918035 -64.40250149739008 113.93792163778153 0.0 0.0
-137.2552088052325 -5.265529502809345 -42.75622149241255 112.09473415374639 0.0 0.0
-69.55817740990031 -48.413942760904696 -35.391636051241505 79.70493940310458 0.0 0.0
-33.92155694793692 -56.762432702282545 -27.20519689506583 43.61150817884898 0.0 0.0
-31.38549244336673 -30.416199777661703 -18.540507666308525 -31.61293157275374 0.0 0.0
-73.35615013041446 -36.07662528847539 -32.829832625666945 -61.01398713647012 0.0 0.0
-151.09116638943377 -3.7124208662237117 -46.441076176697244 -89.37528941981292 0.0 0.0
-250.0255432349855 5.280004571374457 -73.42698257655977 -91.01243942388746 0.0 0.0
-363.0894155392601 4.70711592821154 -106.67040649506978 -80.38829903654216 0.0 0.0
-481.48508102883903 -10.034852806153529 -159.89014123818976 -63.58305554036056 0.0 0.0
-576.6095758221795 -26.480111728127056 -233.09329215917452 -59.38679366649367 0.0 0.0
-646.4214593206475 -37.31871183275445 -302.77701438652286 -59.594992629166704 0.0 0.0
-710.5536710071672 -52.28458686474608 -362.3996048541977 -60.15113390852774 0.0 0.0
-771.5484966208451 -71.81732231442538 -412.73961347960187 -60.16739709235558 0.0 0.0
-832.8274609399999 -96.88028925361053 -460.1621239699467 -59.3756814858745 0.0 0.0
-896.3957709110855 -126.48608324792878 -508.3725134532266 -57.86062744490407 0.0 0.0
-960.882483370396 -159.6115849528063 -557.7468347371973 -55.950254946784845 0.0 0.0
-1023.5804263378017 -190.23313704080942 -604.5074613605016 -54.267329683743185 0.0 0.0
-1080.7796988150644 -217.21630550924363 -646.5000010589823 -52.70893015918563 0.0 0.0
-1129.1255918923423 -236.2405382417786 -680.0901992537026 -51.03556842876605 0.0 0.0
-1153.2676939571027 -232.13235164339616 -690.3514240588737 -49.64802460683697 0.0 0.0
-1112.6365640505524 -168.62937438024298 -639.2452158363981 -51.58496815829437 0.0 0.0
-981.7625787154977 -26.713447864481267 -504.2960770652532 -61.34771083493374 0.0 0.0
-768.2134358075851 175.79706750042112 -298.1767074141079 -81.94294596001748 0.0 0.0
-3015.7203605941177 -2134.8602331664965 -2554.341099229264 8.270717444247566e-11 0.0 0.0
-768.213435807439 175.7970675005036 -298.17670741400457 81.9429459601622 0.0 0.0
-981.7625787153536 -26.713447864398674 -504.2960770651692 61.347710835016784 0.0 0.0
-1112.6365640502186 -168.62937437997007 -639.2452158361267 51.58496815841606 0.0 0.0
-1153.2676939562007 -232.13235164258606 -690.3514240582518 49.648024606863316 0.0 0.0
-1129.1255918922957 -236.2405382418341 -680.0901992535544 51.03556842886263 0.0 0.0
-1080.7796988148398 -217.2163055091448 -646.5000010588378 52.708930159221886 0.0 0.0
-1023.5804263378166 -190.2331370409562 -604.5074613604363 54.267329683738694 0.0 0.0
-960.8824833698627 -159.61158495247443 -557.7468347368545 55.95025494682736 0.0 0.0
-896.395770910954 -126.48608324796143 -508.37251345310113 57.86062744490999 0.0 0.0
-832.8274609395662 -96.88028925338676 -460.1621239696479 59.37568148581391 0.0 0.0
-771.548496620294 -71.81732231410007 -412.7396134791934 60.167397092290216 0.0 0.0
-710.5536710065913 -52.28458686441302 -362.3996048537376 60.15113390850795 0.0 0.0
-646.4214593200069 -37.31871183235753 -302.7770143859756 59.59499262912166 0.0 0.0
-576.6095758218574 -26.480111728183907 -233.09329215883315 59.38679366645365 0.0 0.0
-481.48508102826577 -10.03485280594583 -159.8901412378438 63.58305554028927 0.0 0.0
-363.089415538593 4.707115928614267 -106.67040649476542 80.3882990365686 0.0 0.0
-250.02554323481195 5.280004571164936 -73.426982576571 91.0124394238643 0.0 0.0
-151.0911663892881 -3.712420866088933 -46.441076176613095 89.37528941969143 0.0 0.0
-73.35615013039586 -36.076625288472655 -32.82983262566056 61.01398713643813 0.0 0.0
-31.385492443309026 -30.416199777613222 -18.540507666276675 31.612931572661253 0.0 0.0
-29.757470305490255 -14.64975705007597 -13.322168206669865 -20.450800551890204 0.0 0.0
-74.50786104566974 -24.707902812701867 -29.76472915751148 -41.214149154192874 0.0 0.0
-163.30018647861473 -2.445636085490713 -49.72374676923163 -62.56181708028032 0.0 0.0
-277.37346452726695 2.8673789686819973 -82.34725275601451 -63.58597838397199 0.0 0.0
-405.8397710407577 -5.360273191155622 -124.88785730339224 -51.826028967602475 0.0 0.0
-528.8223315430412 -17.859338558401397 -187.4141866454938 -40.42523596372284 0.0 0.0
-605.7286207982902 -31.07884726205889 -261.6793252169272 -38.98828307037288 0.0 0.0
-677.3675975784075 -42.263171929573005 -329.5548499081228 -40.22845584602071 0.0 0.0
-741.4354210219258 -60.17383214112257 -387.1758865864196 -40.89489969003115 0.0 0.0
-804.7000734722973 -82.79142021332908 -437.6546370715555 -41.059933108103564 0.0 0.0
-870.1245641413021 -111.7726990651476 -487.78592526970726 -40.661085626895556 0.0 0.0
-937.7671355738303 -146.01054149163005 -539.7532152041043 -39.65077317847298 0.0 0.0
-1006.9897811753974 -182.08229646023057 -592.6762220236398 -38.45701040630819 0.0 0.0
-1072.7656406352971 -217.1265308796265 -643.086864554582 -37.30717154988609 0.0 0.0
-1131.5874316596435 -244.9321256282459 -686.3007651546516 -36.27371247991171 0.0 0.0
-1177.72555754942 -261.2697526654607 -717.4266668911134 -34.83087607649907 0.0 0.0
-1207.0125218242642 -262.7820236061292 -732.8231532984358 -32.47647595488911 0.0 0.0
-1193.5132142875814 -225.6936400360621 -708.2437949481969 -31.511308751008443 0.0 0.0
-1041.9447477742035 -60.51062339459432 -551.5204209414707 -40.799924372078905 0.0 0.0
-740.2436679582629 232.43464932563654 -255.32645980080406 -68.37094177944124 0.0 0.0
-3215.2660726162153 -2298.789845445036 -2739.8287958887704 4.511591100708756e-11 0.0 0.0
-740.2436679585694 232.4346493252739 -255.32645980103092 68.37094177958525 0.0 0.0
-1041.9447477734118 -60.510623393833974 -551.5204209409266 40.79992437210824 0.0 0.0
-1193.513214287375 -225.6936400359092 -708.2437949480216 31.51130875101711 0.0 0.0
-1207.012521823168 -262.78202360508897 -732.8231532977325 32.4764759548564 0.0 0.0
-1177.7255575495776 -261.2697526657371 -717.4266668911041 34.830876076523786 0.0 0.0
-1131.587431659269 -244.93212562798917 -686.3007651543481 36.27371247997637 0.0 0.0
-1072.7656406348472 -217.12653087930957 -643.0868645542131 37.307171549852285 0.0 0.0
-1006.9897811749273 -182.08229645991688 -592.6762220233829 38.45701040631397 0.0 0.0
-937.7671355744686 -146.01054149248273 -539.7532152045153 39.65077317846294 0.0 0.0
-870.124564140134 -111.77269906417865 -487.7859252689184 40.661085626854906 0.0 0.0
-804.7000734716631 -82.79142021290004 -437.65463707106403 41.05993310804016 0.0 0.0
-741.4354210216018 -60.17383214106128 -387.17588658611066 40.89489969004917 0.0 0.0
-677.3675975777808 -42.26317192918311 -329.5548499075884 40.228455845938136 0.0 0.0
-605.7286207977305 -31.078847261842963 -261.6793252164334 38.98828307036882 0.0 0.0
-528.8223315427587 -17.85933855848183 -187.41418664525187 40.425235963682354 0.0 0.0
-405.83977104034983 -5.360273191205708 -124.8878573032714 51.826028967663746 0.0 0.0
-277.37346452699273 2.867378968802785 -82.34725275589852 63.58597838389931 0.0 0.0
-163.30018647840996 -2.4456360853792933 -49.72374676913678 62.561817080213736 0.0 0.0
-74.50786104558676 -24.70790281271717 -29.76472915749118 41.214149154185876 0.0 0.0
-29.75747030544216 -14.649757050035683 -13.322168206643353 20.450800551925767 0.0 0.0
-26.937053823108187 -8.586741462922355 -10.657138585809161 -11.719179880716954 0.0 0.0
-71.60160298698064 -15.712498020753678 -26.194230302320296 -20.630639303473778 0.0 0.0
-173.1051456731014 -2.195442386909083 -52.59017641800313 -30.615957394207534 0.0 0.0
-305.57455261663137 0.4899123148046205 -91.50147012745806 -31.042903145449124 0.0 0.0
-452.9948813853747 -12.305414930978339 -143.98992000143605 -23.236970947412676 0.0 0.0
-562.1197137406605 -24.87702706034348 -214.11993750273777 -19.677992360999603 0.0 0.0
-633.4060139400689 -31.754086521357845 -285.20577183157076 -20.58248923010946 0.0 0.0
-703.2649280126343 -48.09842285577063 -352.4648527225822 -21.2738725823941 0.0 0.0
-768.2745506962699 -67.99730698554876 -408.28654855989805 -21.485151676969302 0.0 0.0
-834.1499793265177 -94.15381796188562 -459.9951676984282 -21.514649839867865 0.0 0.0
-903.4779580793765 -126.97986957848666 -513.1037806005913 -21.268774757838287 0.0 0.0
-975.8098597775448 -164.4539299372446 -568.644911838739 -20.87660599494224 0.0 0.0
-1048.4148451142519 -205.15873819002897 -625.4026202478196 -20.29518198963356 0.0 0.0
-1118.42085304074 -242.88065805799914 -679.1976934570172 -19.749362319327748 0.0 0.0
-1178.125435084307 -271.25872675520696 -723.1484146407836 -19.259345467112514 0.0 0.0
-1220.928882255757 -284.28120081141356 -750.9892709684141 -18.376302543768396 0.0 0.0
-1243.8108821201465 -280.07442810872294 -760.2581733595568 -16.560336722864033 0.0 0.0
-1254.1838290885569 -267.4168708404004 -759.2332795953229 -14.078336113037398 0.0 0.0
-1194.8626894115246 -192.051885150333 -693.200157131489 -17.96184923559528 0.0 0.0
-727.4811175120011 272.95677601403355 -228.24022604847957 -47.81942236793776 0.0 0.0
-3242.376813404447 -2290.7198411754994 -2753.7835735314984 -2.069988624953112e-11 0.0 0.0
-727.4811175116529 272.9567760143415 -228.2402260481943 47.819422368000545 0.0 0.0
-1194.8626894110544 -192.05188514989754 -693.2001571311406 17.96184923560316 0.0 0.0
-1254.183829088413 -267.4168708403172 -759.233279595178 14.0783361130066 0.0 0.0
-1243.8108821197823 -280.0744281084328 -760.2581733593404 16.560336722877263 0.0 0.0
-1220.9288822556612 -284.281200811418 -750.9892709682234 18.37630254374244 0.0 0.0
-1178.125435083493 -271.25872675450717 -723.1484146401297 19.259345467128963 0.0 0.0
-1118.4208530404328 -242.8806580578255 -679.1976934567494 19.74936231937509 0.0 0.0
-1048.4148451141832 -205.1587381901246 -625.4026202477468 20.295181989589896 0.0 0.0
-975.8098597774984 -164.45392993740728 -568.6449118386814 20.8766059949243 0.0 0.0
-903.4779580788882 -126.9798695781931 -513.1037806002382 21.268774757767847 0.0 0.0
-834.1499793262077 -94.1538179618112 -459.9951676981737 21.514649839847607 0.0 0.0
-768.2745506959113 -67.99730698543992 -408.28654855957313 21.485151676965966 0.0 0.0
-703.2649280119683 -48.09842285536346 -352.46485272203927 21.27387258240622 0.0 0.0
-633.4060139394497 -31.754086520998342 -285.2057718310336 20.5824892300355 0.0 0.0
-562.1197137403426 -24.87702706038397 -214.11993750244443 19.677992360935093 0.0 0.0
-452.99488138504444 -12.305414931176333 -143.98992000134027 23.23697094746869 0.0 0.0
-305.57455261614024 0.4899123152076208 -91.50147012720953 31.04290314537039 0.0 0.0
-173.1051456729847 -2.1954423869715556 -52.59017641798686 30.615957394276858 0.0 0.0
-71.60160298690488 -15.71249802083764 -26.194230302322755 20.63063930344485 0.0 0.0
-26.937053822962042 -8.58674146285442 -10.657138585744937 11.719179880739084 0.0 0.0
-16.25563176057975 -4.115618616462441 -6.111375113112658 -7.44684248824233 0.0 0.0
-60.98434589966604 -8.635576734931199 -20.885976790379168 -8.566235127031012 0.0 0.0
-179.08111163388472 -3.186527119141182 -54.68029162590777 -10.481864020332651 0.0 0.0
-340.1093397942179 -9.523331734203872 -104.88569007138437 -10.049695891613883 0.0 0.0
-511.3983095057007 -38.43627413923711 -174.4531619091299 -3.8553598619830467 0.0 0.0
-625.9750934529079 -70.68758753646253 -263.4322393483631 -0.62694201197586 0.0 0.0
-711.0626719616009 -94.83483060784903 -350.7040326401754 -0.2387832254771851 0.0 0.0
-801.9673233178871 -134.31667206761497 -438.64665967752 -0.8834708010395254 0.0 0.0
-895.10430383651 -183.41558539103414 -521.9709192583881 -1.7484599301102008 0.0 0.0
-999.7466214037179 -248.08792619992897 -611.5325686949152 -2.761864615770639 0.0 0.0
-1120.2416523075528 -331.40871245467775 -714.950246601164 -3.822887544880208 0.0 0.0
-1256.3746656131243 -433.55339522469006 -834.2255367301472 -4.848236855902718 0.0 0.0
-1404.4676676222125 -548.3591792752189 -965.2261303063876 -5.531665725684668 0.0 0.0
-1558.9395615824578 -670.2555238665005 -1102.8687338004684 -6.193710340732087 0.0 0.0
-1707.9261874947717 -787.6006906664553 -1235.511078748056 -6.715428100108895 0.0 0.0
-1834.4464369581785 -884.2059634849472 -1346.6830136620351 -6.878649909825686 0.0 0.0
-1917.880115374818 -940.9603306527997 -1416.6719371919328 -6.359462174109996 0.0 0.0
-1935.4232186508482 -936.5691024187565 -1423.5593874900926 -4.535815498353234 0.0 0.0
-1921.2368947849664 -906.0619485196866 -1401.3096380985517 -5.579889634713128 0.0 0.0
-1838.566849542073 -819.5273556753649 -1313.2568890916855 -34.929506999652524 0.0 0.0
-4813.772719944757 -3833.7475172537365 -4293.976209817343 1.9184653865522705e-11 0.0 0.0
-1838.5668495408015 -819.5273556741038 -1313.2568890906234 34.929506999676676 0.0 0.0
-1921.2368947846933 -906.0619485194568 -1401.3096380982656 5.579889634652645 0.0 0.0
-1935.4232186501558 -936.569102418142 -1423.5593874894003 4.535815498322059 0.0 0.0
-1917.8801153742756 -940.9603306523302 -1416.6719371914787 6.35946217414973 0.0 0.0
-1834.44643695791 -884.2059634848027 -1346.6830136616363 6.878649909871886 0.0 0.0
-1707.9261874935105 -787.6006906652941 -1235.5110787469202 6.71542810012113 0.0 0.0
-1558.9395615821804 -670.2555238663708 -1102.8687338000818 6.193710340788819 0.0 0.0
-1404.4676676219442 -548.3591792751312 -965.2261303059996 5.531665725641332 0.0 0.0
-1256.3746656119893 -433.5533952237335 -834.2255367292021 4.84823685584718 0.0 0.0
-1120.2416523078296 -331.4087124552009 -714.9502466012138 3.8228875447552078 0.0 0.0
-999.7466214032964 -248.08792619975344 -611.5325686945234 2.7618646158712927 0.0 0.0
-895.1043038361358 -183.41558539092537 -521.9709192580119 1.7484599300557768 0.0 0.0
-801.9673233170008 -134.31667206697904 -438.6466596768055 0.8834708011209926 0.0 0.0
-711.062671961136 -94.83483060766743 -350.7040326397049 0.23878322537940733 0.0 0.0
-625.9750934523877 -70.68758753625775 -263.43223934789444 0.6269420119127034 0.0 0.0
-511.398309505141 -38.43627413906202 -174.4531619088183 3.855359862080178 0.0 0.0
-340.10933979360937 -9.523331733604188 -104.88569007101518 10.049695891572888 0.0 0.0
-179.08111163359484 -3.186527119026451 -54.68029162578637 10.48186402046359 0.0 0.0
-60.984345899729625 -8.635576735092322 -20.88597679044658 8.566235127028186 0.0 0.0
-16.25563176063173 -4.115618616478713 -6.111375113133132 7.446842488245761 0.0 0.0
SCALARS Strain float 6
LOOKUP_TABLE default
0.010801664292469437 -0.018905943157471426 0.0 -0.0006093055277016936 0.0 0.0
0.0066718768037563915 -0.0013320126083699337 0.0 -0.005778417938500566 0.0 0.0
0.002169141643669076 -0.0006321216221015354 0.0 -0.0005606300350750338 0.0 0.0
0.0019762900392926498 -0.0007898251811828969 0.0 -4.599277588134973e-05 0.0 0.0
0.0025843344269473757 -0.0010331321000726648 0.0 5.581977621347375e-05 0.0 0.0
0.003838677399715734 -0.0019149828408040032 0.0 0.00012690289935025765 0.0 0.0
0.005895147239811396 -0.003573555505903262 0.0 0.00016244996753680824 0.0 0.0
0.00880707216963528 -0.006058256657015591 0.0 0.00017566276188090592 0.0 0.0
0.012653288414203032 -0.009454192581892508 0.0 0.00017728480459895232 0.0 0.0
0.01748415833295535 -0.013765695548798907 0.0 0.000157456682594742 0.0 0.0
0.02337086372949728 -0.01903487421769103 0.0 0.00016016966319292006 0.0 0.0
0.03044779129915324 -0.025394529849296348 0.0 0.0001816004471742208 0.0 0.0
0.03887047654044802 -0.03302914199258915 0.0 0.0001472017937823759 0.0 0.0
0.048777642689605105 -0.042103488590267746 0.0 0.00010523191908937048 0.0 0.0
0.06020634203569915 -0.05269986854420472 0.0 -7.211606417192309e-06 0.0 0.0
0.07292757302143527 -0.06463563724668522 0.0 -0.00021381213120746033 0.0 0.0
0.08632710168583449 -0.07733530643968349 0.0 -0.0004861813044962542 0.0 0.0
0.09938320491185562 -0.08981623627995812 0.0 -0.0007175740828138124 0.0 0.0
0.11078767046574498 -0.10079383347818544 0.0 -0.0007465305232275193 0.0 0.0
0.119073577590637 -0.10885109650290134 0.0 -0.0007368814630831313 0.0 0.0
0.1222453318599018 -0.11204625255335934 0.0 1.6714060691036536e-15 0.0 0.0
0.1190735775906252 -0.10885109650289435 0.0 0.000736881463088159 0.0 0.0
0.11078767046571908 -0.10079383347815707 0.0 0.0007465305232318854 0.0 0.0
0.09938320491181905 -0.08981623627993042 0.0 0.0007175740828188459 0.0 0.0
0.08632710168579259 -0.07733530643964391 0.0 0.00048618130449628715 0.0 0.0
0.07292757302139176 -0.06463563724664576 0.0 0.0002138121312070221 0.0 0.0
0.06020634203565518 -0.0526998685441665 0.0 7.211606416656063e-06 0.0 0.0
0.048777642689560086 -0.04210348859022739 0.0 -0.00010523191908998674 0.0 0.0
0.03887047654040329 -0.033029141992546945 0.0 -0.00014720179378255316 0.0 0.0
0.030447791299111467 -0.025394529849259474 0.0 -0.00018160044717561237 0.0 0.0
0.023370863729461042 -0.019034874217656123 0.0 -0.00016016966319332333 0.0 0.0
0.01748415833292555 -0.013765695548770857 0.0 -0.00015745668259566764 0.0 0.0
0.012653288414179368 -0.009454192581875484 0.0 -0.0001772848045992066 0.0 0.0
0.008807072169617482 -0.0060582566570010045 0.0 -0.00017566276188106744 0.0 0.0
0.005895147239799167 -0.003573555505892238 0.0 -0.00016244996753747278 0.0 0.0
0.003838677399708579 -0.0019149828408006149 0.0 -0.00012690289935033398 0.0 0.0
0.002584334426944308 -0.0010331321000712614 0.0 -5.5819776212240576e-05 0.0 0.0
0.0019762900392916744 -0.0007898251811832013 0.0 4.599277588005522e-05 0.0 0.0
0.002169141643667685 -0.0006321216221012594 0.0 0.0005606300350747703 0.0 0.0
0.006671876803751716 -0.0013320126083672524 0.0 0.005778417938492176 0.0 0.0
0.010801664292462201 -0.018905943157449475 0.0 0.0006093055276669525 0.0 0.0
0.0072726073579372705 -0.01682838561718017 0.0 -0.0001601712569261549 0.0 0.0
0.0043333909993026505 -0.000968569624579295 0.0 -0.004508419379471797 0.0 0.0
0.0015061659155512677 -0.00050967680891012 0.0 -0.0003765213495395952 0.0 0.0
0.0017730529599679894 -0.0007536333742508141 0.0 -0.0002121667843272639 0.0 0.0
0.0022711451938799377 -0.000952828163994737 0.0 -0.00016931418892825572 0.0 0.0
0.0033392836827510985 -0.0017218172087874657 0.0 -0.0001894668635189309 0.0 0.0
0.005175547470082045 -0.003264392257284327 0.0 -0.0003541737806140938 0.0 0.0
0.007820796931429652 -0.005611325672527445 0.0 -0.0005626931242086746 0.0 0.0
0.011323427242995933 -0.008835229801323102 0.0 -0.0008274969346863725 0.0 0.0
0.015704170317991477 -0.012927752118825185 0.0 -0.0011346614371716903 0.0 0.0
0.02100660644133254 -0.01791785782190104 0.0 -0.0014471193422879358 0.0 0.0
0.027342427425419983 -0.02392138452833609 0.0 -0.0017551735588534874 0.0 0.0
0.03488674205375758 -0.031124419255625153 0.0 -0.0021237877476195173 0.0 0.0
0.04379940108916794 -0.03971048513206637 0.0 -0.0025770740417375895 0.0 0.0
0.05412676040531623 -0.049760764881248025 0.0 -0.0031110745299874685 0.0 0.0
0.0656739193984383 -0.06110893675398592 0.0 -0.003702805181058184 0.0 0.0
0.07788573188803562 -0.07321584089070934 0.0 -0.004209208336535214 0.0 0.0
0.08984145614844716 -0.08515385812319706 0.0 -0.004356081002640232 0.0 0.0
0.10032319545886752 -0.09569225968489503 0.0 -0.003883881840356089 0.0 0.0
0.1078063662445962 -0.10337204398898409 0.0 -0.0029080134734189456 0.0 0.0
0.11058527889744754 -0.10645210351003535 0.0 3.9065972678997696e-15 0.0 0.0
0.10780636624458484 -0.10337204398897332 0.0 0.00290801347343016 0.0 0.0
0.10032319545884473 -0.09569225968487179 0.0 0.0038838818403688553 0.0 0.0
0.08984145614841554 -0.08515385812316918 0.0 0.004356081002648848 0.0 0.0
0.07788573188799891 -0.07321584089067426 0.0 0.0042092083365359925 0.0 0.0
0.06567391939839955 -0.061108936753949086 0.0 0.0037028051810567056 0.0 0.0
0.054126760405276544 -0.04976076488121266 0.0 0.0031110745299855985 0.0 0.0
0.04379940108912755 -0.03971048513202749 0.0 0.0025770740417366614 0.0 0.0
0.03488674205371788 -0.031124419255585116 0.0 0.0021237877476180736 0.0 0.0
0.027342427425382666 -0.0239213845283008 0.0 0.0017551735588502571 0.0 0.0
0.02100660644129978 -0.017917857821869672 0.0 0.0014471193422844896 0.0 0.0
0.01570417031796437 -0.01292775211879816 0.0 0.0011346614371677728 0.0 0.0
0.011323427242974476 -0.008835229801304594 0.0 0.0008274969346847974 0.0 0.0
0.007820796931413321 -0.005611325672513974 0.0 0.0005626931242066033 0.0 0.0
0.0051755474700709465 -0.003264392257274368 0.0 0.0003541737806127892 0.0 0.0
0.003339283682745363 -0.0017218172087830755 0.0 0.00018946686351775988 0.0 0.0
0.0022711451938777463 -0.0009528281639933709 0.0 0.00016931418892979124 0.0 0.0
0.0017730529599672975 -0.0007536333742503586 0.0 0.00021216678432665323 0.0 0.0
0.0015061659155511718 -0.0005096768089098683 0.0 0.00037652134953900456 0.0 0.0
0.004333390999297323 -0.0009685696245766956 0.0 0.004508419379463071 0.0 0.0
0.007272607357926445 -0.016828385617157902 0.0 0.0001601712568996042 0.0 0.0
0.005208610040208773 -0.013252791461438033 0.0 -0.002622386844883479 0.0 0.0
0.00301007610075813 -0.000506173594519571 0.0 -0.004358107334672972 0.0 0.0
0.0010677355459816672 -0.000302670084256674 0.0 -0.00036818404387172296 0.0 0.0
0.0015196097519367788 -0.0006560930876192348 0.0 -0.00047160364009629586 0.0 0.0
0.0019872636762022725 -0.0008167744682351239 0.0 -0.0004682905632484403 0.0 0.0
0.0028613336499275707 -0.0013637952441577076 0.0 -0.000468006822379978 0.0 0.0
0.004454832846740051 -0.002651205337891997 0.0 -0.0007665742515542597 0.0 0.0
0.006823862354052033 -0.00472323282946458 0.0 -0.0011878624348512295 0.0 0.0
0.009970751905863624 -0.0075941058590024545 0.0 -0.001717133077879478 0.0 0.0
0.01389609909300112 -0.011246075379771419 0.0 -0.0023198341128095987 0.0 0.0
0.01861910974844928 -0.01567839661098732 0.0 -0.002947369913995783 0.0 0.0
0.024229892306471094 -0.020979385374180273 0.0 -0.0035698517569716834 0.0 0.0
0.030894013915139913 -0.027324872968242226 0.0 -0.0042320768500804275 0.0 0.0
0.03879491582804655 -0.03492241039717439 0.0 -0.0050380272839196045 0.0 0.0
0.048000654232173125 -0.04386954767044946 0.0 -0.0060086372358877805 0.0 0.0
0.05834823882260095 -0.05403028634918237 0.0 -0.0070523320148165695 0.0 0.0
0.06937020515846226 -0.06494606399803057 0.0 -0.007914851604746137 0.0 0.0
0.08025407197594345 -0.07580673516336238 0.0 -0.008151461799790082 0.0 0.0
0.08984412330550895 -0.0854728303297288 0.0 -0.007351276215885024 0.0 0.0
0.09672865334587098 -0.09249917920727173 0.0 -0.005394896901715515 0.0 0.0
0.09930751574796334 -0.09545990160459268 0.0 8.79071121451247e-15 0.0 0.0
0.09672865334586034 -0.0924991792072594 0.0 0.005394896901735252 0.0 0.0
0.08984412330548892 -0.08547283032971081 0.0 0.007351276215907709 0.0 0.0
0.080254071975916 -0.07580673516333515 0.0 0.00815146179980349 0.0 0.0
0.06937020515843002 -0.06494606399799936 0.0 0.007914851604747466 0.0 0.0
0.05834823882256632 -0.0540302863491486 0.0 0.00705233201481522 0.0 0.0
0.04800065423213764 -0.04386954767041975 0.0 0.006008637235886122 0.0 0.0
0.03879491582801077 -0.03492241039713946 0.0 0.005038027283917886 0.0 0.0
0.030894013915104476 -0.02732487296820685 0.0 0.004232076850076895 0.0 0.0
0.024229892306437698 -0.020979385374146935 0.0 0.0035698517569653174 0.0 0.0
0.018619109748420144 -0.015678396610958868 0.0 0.0029473699139892715 0.0 0.0
0.013896099092976791 -0.011246075379748291 0.0 0.002319834112803271 0.0 0.0
0.00997075190584421 -0.007594105858985074 0.0 0.0017171330778758187 0.0 0.0
0.006823862354037502 -0.004723232829452006 0.0 0.0011878624348474497 0.0 0.0
0.004454832846730437 -0.002651205337883656 0.0 0.000766574251552855 0.0 0.0
0.002861333649922918 -0.0013637952441540903 0.0 0.00046800682237866883 0.0 0.0
0.0019872636762006493 -0.0008167744682341491 0.0 0.0004682905632488083 0.0 0.0
0.0015196097519362876 -0.000656093087618357 0.0 0.000471603640095359 0.0 0.0
0.0010677355459818574 -0.0003026700842563858 0.0 0.0003681840438703668 0.0 0.0
0.003010076100753206 -0.0005061735945172897 0.0 0.0043581073346614495 0.0 0.0
0.005208610040198418 -0.013252791461416544 0.0 0.0026223868448660517 0.0 0.0
0.0038563048464940073 -0.010585142472595045 0.0 -0.003032361080294012 0.0 0.0
0.0021768447009210177 -0.00038165554679469075 0.0 -0.003999534236713489 0.0 0.0
0.0007663503525147095 -0.00016997754049585896 0.0 -0.000657252949707299 0.0 0.0
0.0012613847239563924 -0.0005274795002597037 0.0 -0.0007142419870039551 0.0 0.0
0.0017192178095039917 -0.0007112182365075332 0.0 -0.0007739349126546182 0.0 0.0
0.0024218505682396907 -0.0010796286116264602 0.0 -0.0007533069201778387 0.0 0.0
0.003747898652544714 -0.0020684306817243293 0.0 -0.0010437530503640874 0.0 0.0
0.005821080413081403 -0.00384746092665618 0.0 -0.0016532720072108629 0.0 0.0
0.00860475040569747 -0.0063549313735532425 0.0 -0.0023871940195054372 0.0 0.0
0.012070739237087288 -0.009558825546081241 0.0 -0.0032223314769895635 0.0 0.0
0.016217297351139155 -0.013436489550460536 0.0 -0.004091376150274257 0.0 0.0
0.021113481673423428 -0.01804751732648256 0.0 -0.004955163984209651 0.0 0.0
0.02691068284265498 -0.02354782374316556 0.0 -0.0058593537351199895 0.0 0.0
0.033787965580528566 -0.030146577944675006 0.0 -0.006915020185754143 0.0 0.0
0.04184495262339006 -0.037965198363181255 0.0 -0.008183154441852403 0.0 0.0
0.050975205343955374 -0.04691372765230592 0.0 -0.009565684250663484 0.0 0.0
0.06079298425814133 -0.056622563404534865 0.0 -0.010719889643877815 0.0 0.0
0.07059976880456444 -0.06640474818261545 0.0 -0.011091317835135743 0.0 0.0
0.07935592757913372 -0.07522456972611473 0.0 -0.01011602034115022 0.0 0.0
0.08578449335906843 -0.08176859032597696 0.0 -0.00727395496427625 0.0 0.0
0.08824920021371473 -0.08477525655305677 0.0 1.0823373447488294e-14 0.0 0.0
0.08578449335905858 -0.08176859032596759 0.0 0.007273954964303535 0.0 0.0
0.079355927579116 -0.07522456972609701 0.0 0.010116020341178485 0.0 0.0
0.07059976880454012 -0.06640474818259191 0.0 0.011091317835153106 0.0 0.0
0.06079298425811326 -0.056622563404505596 0.0 0.01071988964388062 0.0 0.0
0.05097520534392504 -0.04691372765227547 0.0 0.009565684250660983 0.0 0.0
0.04184495262335875 -0.037965198363153554 0.0 0.008183154441849697 0.0 0.0
0.033787965580497306 -0.03014657794464426 0.0 0.0069150201857518506 0.0 0.0
0.02691068284262427 -0.023547823743137512 0.0 0.005859353735115311 0.0 0.0
0.021113481673394434 -0.018047517326452083 0.0 0.004955163984203129 0.0 0.0
0.016217297351113474 -0.013436489550436788 0.0 0.004091376150267749 0.0 0.0
0.012070739237065727 -0.00955882554606351 0.0 0.0032223314769815846 0.0 0.0
0.00860475040568025 -0.00635493137353794 0.0 0.002387194019499752 0.0 0.0
0.005821080413068725 -0.0038474609266448464 0.0 0.001653272007206478 0.0 0.0
0.003747898652536984 -0.002068430681716778 0.0 0.0010437530503615972 0.0 0.0
0.0024218505682362 -0.0010796286116242781 0.0 0.0007533069201763452 0.0 0.0
0.001719217809502694 -0.0007112182365067818 0.0 0.0007739349126536655 0.0 0.0
0.001261384723956139 -0.0005274795002595297 0.0 0.0007142419870030003 0.0 0.0
0.0007663503525149171 -0.00016997754049567632 0.0 0.0006572529497051669 0.0 0.0
0.0021768447009165633 -0.00038165554679238123 0.0 0.003999534236701639 0.0 0.0
0.003856304846484829 -0.010585142472576138 0.0 0.0030323610802819104 0.0 0.0
0.0028739825655932283 -0.008456071874917068 0.0 -0.002753021957968016 0.0 0.0
0.0015988371552435184 -0.0003512966999861188 0.0 -0.003612867833952789 0.0 0.0
0.0005551034720080064 -9.861845681549088e-05 0.0 -0.0010250405508233907 0.0 0.0
0.0010168186001561293 -0.0003975189513212205 0.0 -0.0009773619628296642 0.0 0.0
0.001457272117316538 -0.0006086351410247532 0.0 -0.001067412392113236 0.0 0.0
0.002028483727931582 -0.0008698319212400417 0.0 -0.0010561548225556906 0.0 0.0
0.0030771131002987283 -0.0015622272071005303 0.0 -0.0012623831188547934 0.0 0.0
0.004820835895013968 -0.0029899044472334936 0.0 -0.0019154672531708204 0.0 0.0
0.007235279497749979 -0.00513131273474886 0.0 -0.002830716125064294 0.0 0.0
0.010237554137511498 -0.00788033744728723 0.0 -0.0038345038853688255 0.0 0.0
0.013811912271346169 -0.011204819063628883 0.0 -0.004877657927666563 0.0 0.0
0.0180022732081972 -0.01513491626158691 0.0 -0.0059096496850157675 0.0 0.0
0.022939199756726338 -0.019801677656526916 0.0 -0.0069811221778717444 0.0 0.0
0.028800863668460103 -0.025404459970995132 0.0 -0.008209045589081808 0.0 0.0
0.03569697329883556 -0.03208061909977594 0.0 -0.00966126360034109 0.0 0.0
0.043576040078783095 -0.0397905142254543 0.0 -0.011233360474182361 0.0 0.0
0.05216085981562468 -0.04826036495466886 0.0 -0.01258660309883408 0.0 0.0
0.060876824443526406 -0.05693686144483481 0.0 -0.013137168734651402 0.0 0.0
0.06883416903963076 -0.06493957402855392 0.0 -0.012119818346397035 0.0 0.0
0.07489848597356032 -0.07111324020844667 0.0 -0.00871562496759057 0.0 0.0
0.07730428647209826 -0.07426272907999575 0.0 1.2502585772233843e-14 0.0 0.0
0.07489848597355153 -0.0711132402084375 0.0 0.00871562496762264 0.0 0.0
0.06883416903961488 -0.0649395740285375 0.0 0.012119818346428807 0.0 0.0
0.06087682444350498 -0.05693686144481565 0.0 0.01313716873467101 0.0 0.0
0.052160859815600265 -0.04826036495464607 0.0 0.012586603098837985 0.0 0.0
0.04357604007875686 -0.03979051422543085 0.0 0.011233360474178146 0.0 0.0
0.0356969732988087 -0.03208061909975065 0.0 0.00966126360033811 0.0 0.0
0.02880086366843352 -0.025404459970971075 0.0 0.008209045589078567 0.0 0.0
0.02293919975670021 -0.01980167765650202 0.0 0.0069811221778663755 0.0 0.0
0.01800227320817251 -0.015134916261562777 0.0 0.005909649685006328 0.0 0.0
0.01381191227132426 -0.011204819063609404 0.0 0.004877657927656234 0.0 0.0
0.010237554137492907 -0.007880337447269887 0.0 0.003834503885359902 0.0 0.0
0.00723527949773514 -0.005131312734735916 0.0 0.002830716125058151 0.0 0.0
0.004820835895003536 -0.0029899044472232613 0.0 0.001915467253166611 0.0 0.0
0.003077113100292658 -0.0015622272070967434 0.0 0.0012623831188521089 0.0 0.0
0.0020284837279290926 -0.0008698319212383117 0.0 0.0010561548225543269 0.0 0.0
0.0014572721173155634 -0.0006086351410241913 0.0 0.0010674123921112573 0.0 0.0
0.001016818600155546 -0.0003975189513207912 0.0 0.0009773619628289402 0.0 0.0
0.0005551034720080027 -9.861845681528654e-05 0.0 0.0010250405508216468 0.0 0.0
0.001598837155239903 -0.000351296699984033 0.0 0.003612867833943191 0.0 0.0
0.002873982565585786 -0.008456071874901057 0.0 0.0027530219579600147 0.0 0.0
0.0021269157568910386 -0.006700457261735619 0.0 -0.0023339862206164506 0.0 0.0
0.0011732929168892534 -0.00034574763581303176 0.0 -0.003237627874157632 0.0 0.0
0.0003985606853715848 -6.508768244936324e-05 0.0 -0.0013722835721095082 0.0 0.0
0.0007895454798354115 -0.0002796567454898716 0.0 -0.0012484617992800013 0.0 0.0
0.0011976912400927448 -0.0004980192566427443 0.0 -0.0013379489911564545 0.0 0.0
0.0016687258943483777 -0.000706706844179704 0.0 -0.00135879423484384 0.0 0.0
0.002468466145884729 -0.0011621466798620748 0.0 -0.0014992148747883139 0.0 0.0
0.003850891118786625 -0.002200174107572373 0.0 -0.00203652410178086 0.0 0.0
0.0058639984226562655 -0.0039329761670909985 0.0 -0.003010512662028299 0.0 0.0
0.008406714862122498 -0.00622594984438519 0.0 -0.00414523901950939 0.0 0.0
0.011411067223062331 -0.008996928813226349 0.0 -0.005292735238265723 0.0 0.0
0.014905494645258848 -0.012254720604495162 0.0 -0.006428444491735388 0.0 0.0
0.018995946063979474 -0.01609965807444092 0.0 -0.007589290117234974 0.0 0.0
0.023842390380813566 -0.02071369247160456 0.0 -0.008894230529254232 0.0 0.0
0.029575641704246647 -0.0262428540901492 0.0 -0.010425699784747442 0.0 0.0
0.036191951933481376 -0.032696809348904225 0.0 -0.012078436202047014 0.0 0.0
0.04349560708938715 -0.03988685749978922 0.0 -0.01352286669727025 0.0 0.0
0.0510759351523909 -0.047406331097716296 0.0 -0.014216643304615615 0.0 0.0
0.058239196948231556 -0.054586441575996604 0.0 -0.013326968873763658 0.0 0.0
0.06399451587220918 -0.060452340168533736 0.0 -0.009757173471140263 0.0 0.0
0.06637964970955375 -0.06382734237421787 0.0 1.3824878741797164e-14 0.0 0.0
0.06399451587220145 -0.060452340168523896 0.0 0.00975717347117169 0.0 0.0
0.05823919694821779 -0.054586441575980214 0.0 0.013326968873795707 0.0 0.0
0.051075935152372555 -0.047406331097701 0.0 0.014216643304634631 0.0 0.0
0.04349560708936645 -0.0398868574997708 0.0 0.01352286669727374 0.0 0.0
0.03619195193345918 -0.03269680934888222 0.0 0.01207843620204294 0.0 0.0
0.029575641704224033 -0.02624285409012952 0.0 0.010425699784743923 0.0 0.0
0.02384239038079168 -0.020713692471585603 0.0 0.008894230529251161 0.0 0.0
0.018995946063957898 -0.016099658074419692 0.0 0.007589290117230231 0.0 0.0
0.014905494645238233 -0.012254720604474108 0.0 0.006428444491726973 0.0 0.0
0.011411067223044169 -0.008996928813208621 0.0 0.005292735238256082 0.0 0.0
0.008406714862107055 -0.006225949844369543 0.0 0.004145239019499663 0.0 0.0
0.005863998422644167 -0.003932976167080654 0.0 0.0030105126620213482 0.0 0.0
0.0038508911187783556 -0.0022001741075653777 0.0 0.0020365241017769606 0.0 0.0
0.0024684661458802704 -0.001162146679860307 0.0 0.0014992148747857133 0.0 0.0
0.001668725894346673 -0.0007067068441789728 0.0 0.0013587942348436619 0.0 0.0
0.0011976912400920793 -0.0004980192566418535 0.0 0.001337948991154326 0.0 0.0
0.0007895454798350953 -0.00027965674548873013 0.0 0.0012484617992785305 0.0 0.0
0.00039856068537145935 -6.508768244915007e-05 0.0 0.0013722835721079747 0.0 0.0
0.0011732929168864741 -0.0003457476358117775 0.0 0.0032376278741501224 0.0 0.0
0.002126915756885456 -0.006700457261722368 0.0 0.002333986220610893 0.0 0.0
0.0015526329588867222 -0.005236702721368576 0.0 -0.001946070339344107 0.0 0.0
0.0008502326267836771 -0.00034917657583489423 0.0 -0.0029000044104738037 0.0 0.0
0.0002726567357208339 -4.755522747463451e-05 0.0 -0.001661262696021289 0.0 0.0
0.0005784122542621221 -0.00017663180020013037 0.0 -0.0015062090881698405 0.0 0.0
0.0009371871441999316 -0.0003787615502285516 0.0 -0.0015777460785819065 0.0 0.0
0.0013257568417097798 -0.0005665381106009623 0.0 -0.0016481092772824162 0.0 0.0
0.0019184205002299119 -0.0008512003362450391 0.0 -0.0017346838738501584 0.0 0.0
0.0029489927610800055 -0.0015368854329603538 0.0 -0.0021302749199664916 0.0 0.0
0.004521419527725603 -0.002803774850523914 0.0 -0.002961624863919488 0.0 0.0
0.006582258184045047 -0.004612724535083506 0.0 -0.004114271913636139 0.0 0.0
0.009024831069492718 -0.006830944726856435 0.0 -0.005317466252531752 0.0 0.0
0.011830945092336474 -0.009421539716360613 0.0 -0.006493678944469297 0.0 0.0
0.015088033317466248 -0.012458310545134962 0.0 -0.007673706401737203 0.0 0.0
0.018935941177744407 -0.016097348843509666 0.0 -0.008970072782162058 0.0 0.0
0.023503707239254754 -0.020479797042660487 0.0 -0.010455331898603063 0.0 0.0
0.028836251717648476 -0.025663077583504515 0.0 -0.012078013883994161 0.0 0.0
0.03482958754445015 -0.031537216766139235 0.0 -0.013529004945653485 0.0 0.0
0.04121196101281852 -0.03783442544783103 0.0 -0.014316462737620205 0.0 0.0
0.04752498813800373 -0.04413065285536513 0.0 -0.013680126375754048 0.0 0.0
0.052985032061677324 -0.0496970041167669 0.0 -0.010372796343049431 0.0 0.0
0.05537727206823517 -0.053377976073182044 0.0 1.318563314089971e-14 0.0 0.0
0.052985032061670656 -0.049697004116758765 0.0 0.01037279634308064 0.0 0.0
0.04752498813799195 -0.04413065285535049 0.0 0.013680126375783513 0.0 0.0
0.04121196101280302 -0.03783442544781761 0.0 0.014316462737638789 0.0 0.0
0.03482958754443313 -0.03153721676612159 0.0 0.013529004945657182 0.0 0.0
0.02883625171763042 -0.02566307758348302 0.0 0.012078013883989169 0.0 0.0
0.023503707239236494 -0.0204797970426441 0.0 0.01045533189859818 0.0 0.0
0.01893594117772709 -0.016097348843493627 0.0 0.008970072782158608 0.0 0.0
0.01508803331744939 -0.01245831054512119 0.0 0.0076737064017320875 0.0 0.0
0.011830945092320149 -0.009421539716343215 0.0 0.0064936789444605385 0.0 0.0
0.00902483106947796 -0.006830944726843484 0.0 0.005317466252521284 0.0 0.0
0.006582258184032634 -0.004612724535073016 0.0 0.0041142719136265365 0.0 0.0
0.004521419527716146 -0.0028037748505170363 0.0 0.0029616248639132516 0.0 0.0
0.0029489927610738334 -0.0015368854329565296 0.0 0.0021302749199630364 0.0 0.0
0.0019184205002267174 -0.000851200336242025 0.0 0.0017346838738484232 0.0 0.0
0.00132575684170848 -0.0005665381106011928 0.0 0.0016481092772810922 0.0 0.0
0.0009371871441993724 -0.0003787615502271312 0.0 0.0015777460785806141 0.0 0.0
0.0005784122542618503 -0.00017663180019983324 0.0 0.0015062090881673505 0.0 0.0
0.0002726567357206614 -4.7555227474172814e-05 0.0 0.0016612626960188978 0.0 0.0
0.0008502326267814885 -0.00034917657583424897 0.0 0.0029000044104676424 0.0 0.0
0.0015526329588824305 -0.00523670272135807 0.0 0.0019460703393403146 0.0 0.0
0.0011097387787853288 -0.0040288570579524435 0.0 -0.001662397373028376 0.0 0.0
0.0005991557144971899 -0.00036048664849787327 0.0 -0.0026001404241215538 0.0 0.0
0.00016211220311622226 -3.0545063097615836e-05 0.0 -0.001886464287111448 0.0 0.0
0.0003799996622099378 -8.647284618377556e-05 0.0 -0.001732222915115449 0.0 0.0
0.0006748375788990135 -0.00025603838673336044 0.0 -0.0017842839992031545 0.0 0.0
0.0009917605261193102 -0.0004246289831317387 0.0 -0.0018932627421777374 0.0 0.0
0.0014149892152081432 -0.0006092772381294793 0.0 -0.0019776188737374795 0.0 0.0
0.0021243191081157546 -0.001010286948158962 0.0 -0.002215524890913287 0.0 0.0
0.003250326546678694 -0.0018154050287746758 0.0 -0.002802264578159658 0.0 0.0
0.004790652779611313 -0.003090879053458513 0.0 -0.003765843657344001 0.0 0.0
0.006656195325631373 -0.004733614144097101 0.0 -0.004919589481338195 0.0 0.0
0.008786201211531565 -0.006660564009417253 0.0 -0.006066929037747202 0.0 0.0
0.011226988974053474 -0.008901543854402031 0.0 -0.007207635537364987 0.0 0.0
0.014091703225636434 -0.011582735670743796 0.0 -0.008413873602530755 0.0 0.0
0.017504224693040766 -0.014829227323189104 0.0 -0.009763230980894015 0.0 0.0
0.02154201544033734 -0.018726213088375583 0.0 -0.011219114729764224 0.0 0.0
0.02618054356400414 -0.023250388076707856 0.0 -0.012578328404557686 0.0 0.0
0.03129365541220864 -0.02825600957192169 0.0 -0.013395442267049917 0.0 0.0
0.03666182926933301 -0.03355284848346264 0.0 -0.013093329691158711 0.0 0.0
0.04177923982576243 -0.03875399828326199 0.0 -0.010493570203011825 0.0 0.0
0.04418357229334329 -0.042818993100291664 0.0 1.0253516785629913e-14 0.0 0.0
0.04177923982575713 -0.03875399828325572 0.0 0.010493570203039797 0.0 0.0
0.03666182926932378 -0.03355284848345265 0.0 0.01309332969118716 0.0 0.0
0.031293655412196454 -0.02825600957191015 0.0 0.01339544226706759 0.0 0.0
0.026180543563990875 -0.023250388076693544 0.0 0.012578328404560609 0.0 0.0
0.021542015440323657 -0.018726213088360134 0.0 0.01121911472975757 0.0 0.0
0.017504224693027107 -0.014829227323177315 0.0 0.009763230980888877 0.0 0.0
0.014091703225623937 -0.01158273567072963 0.0 0.008413873602528097 0.0 0.0
0.01122698897404125 -0.008901543854391722 0.0 0.007207635537360179 0.0 0.0
0.008786201211519433 -0.006660564009405774 0.0 0.006066929037738743 0.0 0.0
0.006656195325620352 -0.004733614144089858 0.0 0.004919589481327121 0.0 0.0
0.004790652779602247 -0.0030908790534499102 0.0 0.003765843657335812 0.0 0.0
0.0032503265466722647 -0.0018154050287703025 0.0 0.0028022645781558223 0.0 0.0
0.002124319108111727 -0.0010102869481561974 0.0 0.0022155248909118295 0.0 0.0
0.001414989215206154 -0.0006092772381273983 0.0 0.0019776188737363116 0.0 0.0
0.0009917605261186716 -0.0004246289831323874 0.0 0.0018932627421754172 0.0 0.0
0.0006748375788986295 -0.0002560383867330341 0.0 0.001784283999201585 0.0 0.0
0.0003799996622097329 -8.64728461841805e-05 0.0 0.0017322229151128911 0.0 0.0
0.0001621122031160729 -3.0545063096680834e-05 0.0 0.001886464287109207 0.0 0.0
0.0005991557144955774 -0.0003604866484975657 0.0 0.002600140424116843 0.0 0.0
0.00110973877878243 -0.004028857057944628 0.0 0.0016623973730263207 0.0 0.0
0.0007874707530513234 -0.0030834111686693587 0.0 -0.0015154766928581146 0.0 0.0
0.0004053424273910238 -0.0003778150004671631 0.0 -0.0023581104563645473 0.0 0.0
5.49199715061789e-05 -6.135151745015567e-06 0.0 -0.0020501407950481287 0.0 0.0
0.0001921205279841463 -6.1962124028431975e-06 0.0 -0.0019151984392591554 0.0 0.0
0.0004132523521627561 -0.0001346257881895907 0.0 -0.0019509630841632601 0.0 0.0
0.0006512902710097025 -0.0002707796706344107 0.0 -0.002077515503988676 0.0 0.0
0.0009411033127276732 -0.0004047115810362004 0.0 -0.002212109701007737 0.0 0.0
0.0013804058840856024 -0.0006157716708748571 0.0 -0.002351538203755454 0.0 0.0
0.002076820805653907 -0.00103027918228308 0.0 -0.0026563578217368667 0.0 0.0
0.0030764976537904104 -0.001756763521235822 0.0 -0.0032428149727842717 0.0 0.0
0.0043332921369667685 -0.002780700772258183 0.0 -0.00413233212250896 0.0 0.0
0.005778431303828463 -0.004029407153351248 0.0 -0.005118276810197858 0.0 0.0
0.0074162097888427845 -0.005478654785335785 0.0 -0.006152115825185512 0.0 0.0
0.009321842218827503 -0.007220210367298096 0.0 -0.007221812917925945 0.0 0.0
0.011594928142685855 -0.009344875323949934 0.0 -0.00835532222931944 0.0 0.0
0.014329831923999363 -0.011949135080328332 0.0 -0.009568194924094555 0.0 0.0
0.017584786187455372 -0.01508391192832001 0.0 -0.010749184473227837 0.0 0.0
0.021350074729871715 -0.018738831895811114 0.0 -0.011556669741706532 0.0 0.0
0.02561727573955439 -0.02288335980998336 0.0 -0.011491560431390832 0.0 0.0
0.030271757187333513 -0.02753036488790174 0.0 -0.009921126801494597 0.0 0.0
0.03266254062807925 -0.032029906207014514 0.0 7.960212350388574e-15 0.0 0.0
0.030271757187330058 -0.027530364887896227 0.0 0.009921126801519166 0.0 0.0
0.025617275739547855 -0.022883359809976234 0.0 0.01149156043141649 0.0 0.0
0.02135007472986301 -0.018738831895803602 0.0 0.011556669741719098 0.0 0.0
0.01758478618744599 -0.015083911928307756 0.0 0.010749184473228637 0.0 0.0
0.014329831923989868 -0.01194913508032011 0.0 0.009568194924087725 0.0 0.0
0.011594928142676885 -0.00934487532394189 0.0 0.008355322229315298 0.0 0.0
0.00932184221881981 -0.007220210367290876 0.0 0.007221812917924099 0.0 0.0
0.007416209788835422 -0.005478654785329357 0.0 0.006152115825181086 0.0 0.0
0.005778431303820719 -0.004029407153344897 0.0 0.005118276810191023 0.0 0.0
0.004333292136959868 -0.0027807007722546436 0.0 0.004132332122500056 0.0 0.0
0.003076497653785042 -0.0017567635212297835 0.0 0.003242814972778662 0.0 0.0
0.002076820805650091 -0.0010302791822794327 0.0 0.0026563578217353168 0.0 0.0
0.0013804058840833158 -0.0006157716708728087 0.0 0.002351538203753841 0.0 0.0
0.0009411033127264532 -0.0004047115810347353 0.0 0.002212109701006254 0.0 0.0
0.0006512902710091749 -0.0002707796706340885 0.0 0.002077515503986943 0.0 0.0
0.0004132523521624361 -0.00013462578819001863 0.0 0.0019509630841602057 0.0 0.0
0.0001921205279839468 -6.196212402668492e-06 0.0 0.0019151984392568096 0.0 0.0
5.491997150589978e-05 -6.135151744732546e-06 0.0 0.002050140795045361 0.0 0.0
0.00040534242738986893 -0.00037781500046716644 0.0 0.0023581104563614717 0.0 0.0
0.0007874707530494765 -0.0030834111686638523 0.0 0.0015154766928570042 0.0 0.0
0.0005655155574984233 -0.0023772992471752497 0.0 -0.001444617232424851 0.0 0.0
0.00026157101426425963 -0.0003941393221928674 0.0 -0.0021915390866337208 0.0 0.0
-4.8069273033127916e-05 2.4701797116809157e-05 0.0 -0.0021547391298544203 0.0 0.0
1.262973914980324e-05 6.710808387161652e-05 0.0 -0.002049031927173238 0.0 0.0
0.00015486379428608635 -1.6013260822031928e-05 0.0 -0.002070777921494279 0.0 0.0
0.00030421181675112727 -0.00011068357505409464 0.0 -0.0021979284835572594 0.0 0.0
0.00046685357896401604 -0.0001982031282016985 0.0 -0.0023703504121633722 0.0 0.0
0.0006868536985467989 -0.0003007044810769577 0.0 -0.002522489708861936 0.0 0.0
0.0010168398096535925 -0.00045972819124451975 0.0 -0.0026526488426918122 0.0 0.0
0.001487625772226355 -0.0007458982182052421 0.0 -0.002881846318864016 0.0 0.0
0.002105417263741506 -0.0011773075271176595 0.0 -0.0033331560475429738 0.0 0.0
0.002835552308522152 -0.0017374901110116727 0.0 -0.003984034767430759 0.0 0.0
0.0036612309265239107 -0.0023987071064449643 0.0 -0.004760079588766393 0.0 0.0
0.0046244524534114735 -0.003204749004266092 0.0 -0.0056328402669058135 0.0 0.0
0.0057790397860464785 -0.004205634877925768 0.0 -0.0065967833716202365 0.0 0.0
0.007211176589598554 -0.005500091077075425 0.0 -0.007674094567480235 0.0 0.0
0.009045554775952204 -0.0071989769433936255 0.0 -0.00879049502381267 0.0 0.0
0.011424074054247862 -0.00944782347244719 0.0 -0.009657909191035067 0.0 0.0
0.01444266098997422 -0.01234805496792872 0.0 -0.009716599934502475 0.0 0.0
0.018360697998764507 -0.016058106989259312 0.0 -0.008646059774306655 0.0 0.0
0.020603392029249646 -0.02089487547202565 0.0 6.558989462668308e-15 0.0 0.0
0.018360697998763206 -0.016058106989258424 0.0 0.008646059774327256 0.0 0.0
0.014442660989970166 -0.012348054967922576 0.0 0.009716599934522785 0.0 0.0
0.011424074054242544 -0.009447823472442218 0.0 0.009657909191043495 0.0 0.0
0.009045554775947182 -0.007198976943384525 0.0 0.008790495023811422 0.0 0.0
0.007211176589594169 -0.00550009107707227 0.0 0.0076740945674740844 0.0 0.0
0.005779039786042825 -0.004205634877921272 0.0 0.006596783371616446 0.0 0.0
0.004624452453408548 -0.0032047490042663904 0.0 0.005632840266904811 0.0 0.0
0.0036612309265210536 -0.00239870710644246 0.0 0.004760079588763645 0.0 0.0
0.0028355523085189242 -0.0017374901110088971 0.0 0.003984034767425371 0.0 0.0
0.002105417263738574 -0.0011773075271132862 0.0 0.0033331560475388534 0.0 0.0
0.0014876257722241932 -0.0007458982182045085 0.0 0.002881846318861135 0.0 0.0
0.0010168398096521757 -0.0004597281912436614 0.0 0.0026526488426907046 0.0 0.0
0.0006868536985459569 -0.00030070448107570916 0.0 0.002522489708859909 0.0 0.0
0.000466853578963616 -0.00019820312820226595 0.0 0.0023703504121613313 0.0 0.0
0.00030421181675095065 -0.00011068357505327141 0.0 0.0021979284835555546 0.0 0.0
0.00015486379428616542 -1.6013260821426737e-05 0.0 0.0020707779214915872 0.0 0.0
1.26297391499075e-05 6.710808387240728e-05 0.0 0.002049031927171109 0.0 0.0
-4.8069273033139056e-05 2.4701797116792175e-05 0.0 0.0021547391298521097 0.0 0.0
0.000261571014263691 -0.0003941393221926683 0.0 0.002191539086631278 0.0 0.0
0.0005655155574972563 -0.0023772992471717868 0.0 0.0014446172324246182 0.0 0.0
0.0004094586855928632 -0.0018552453396423578 0.0 -0.00139129339048985 0.0 0.0
0.000153911828932987 -0.0003935339646930405 0.0 -0.0020645329859160836 0.0 0.0
-0.00014380896425926566 5.558812899141397e-05 0.0 -0.0022071286731460433 0.0 0.0
-0.0001589633277874998 0.00013602421986515413 0.0 -0.0021301999268909734 0.0 0.0
-9.879692492998588e-05 9.87153857569018e-05 0.0 -0.0021381479865282323 0.0 0.0
-4.4710169848628086e-05 5.001852362069469e-05 0.0 -0.0022511301277059817 0.0 0.0
-1.457103089154302e-05 1.428854160637301e-05 0.0 -0.002427157377684352 0.0 0.0
-2.844183802679689e-06 2.4781434303681436e-06 0.0 -0.0026009460376533286 0.0 0.0
2.659969849224059e-07 -6.316817965819377e-07 0.0 -0.0027046670177257935 0.0 0.0
6.697844772605662e-07 -3.396678228072248e-07 0.0 -0.002804047208912102 0.0 0.0
6.982138437478978e-07 -1.391064110522935e-06 0.0 -0.002998627428808404 0.0 0.0
-1.4168821139961207e-06 1.3223712329316008e-06 0.0 -0.0034395130374596425 0.0 0.0
-8.06231560738298e-06 6.415370641959655e-06 0.0 -0.004032176546417751 0.0 0.0
-1.6401231227693657e-05 1.344221050214879e-05 0.0 -0.004780285028585982 0.0 0.0
-5.803243108581631e-06 1.2485231443352778e-05 0.0 -0.005702001517711522 0.0 0.0
0.00010755682962094472 -6.533353127156376e-05 0.0 -0.00680092064989125 0.0 0.0
0.0005168887637243212 -0.00038481142953730057 0.0 -0.008047394708667529 0.0 0.0
0.0015105273019409208 -0.0012018074754869571 0.0 -0.009307664309588695 0.0 0.0
0.0033212513364878735 -0.0027581779569837025 0.0 -0.01029511191188544 0.0 0.0
0.0061648290618184585 -0.005042389129994768 0.0 -0.01039427361927721 0.0 0.0
0.007880735673939623 -0.010137544531854331 0.0 6.5672293991791975e-15 0.0 0.0
0.006164829061818583 -0.00504238912999562 0.0 0.010394273619291631 0.0 0.0
0.003321251336486558 -0.0027581779569793375 0.0 0.010295111911895798 0.0 0.0
0.0015105273019399676 -0.0012018074754851001 0.0 0.009307664309591577 0.0 0.0
0.0005168887637247602 -0.00038481142953813725 0.0 0.008047394708663402 0.0 0.0
0.00010755682962196821 -6.533353127425261e-05 0.0 0.006800920649886494 0.0 0.0
-5.803243107432485e-06 1.2485231444568819e-05 0.0 0.005702001517707583 0.0 0.0
-1.6401231226012114e-05 1.3442210500147489e-05 0.0 0.004780285028584418 0.0 0.0
-8.062315605332916e-06 6.415370640868188e-06 0.0 0.0040321765464146125 0.0 0.0
-1.416882112287418e-06 1.3223712341962278e-06 0.0 0.0034395130374540728 0.0 0.0
6.982138449839967e-07 -1.3910641094939865e-06 0.0 0.0029986274288039774 0.0 0.0
6.69784478234505e-07 -3.3966782277752443e-07 0.0 0.002804047208910636 0.0 0.0
2.6599698553867997e-07 -6.316817977273736e-07 0.0 0.0027046670177253923 0.0 0.0
-2.8441838023000963e-06 2.478143429970177e-06 0.0 0.0026009460376516446 0.0 0.0
-1.457103089113988e-05 1.4288541605625589e-05 0.0 0.002427157377682196 0.0 0.0
-4.471016984835935e-05 5.001852361993636e-05 0.0 0.0022511301277034503 0.0 0.0
-9.879692492979113e-05 9.8715385757675e-05 0.0 0.0021381479865260136 0.0 0.0
-0.00015896332778738827 0.00013602421986597468 0.0 0.0021301999268884247 0.0 0.0
-0.0001438089642593093 5.558812899174163e-05 0.0 0.0022071286731439855 0.0 0.0
0.00015391182893274301 -0.00039353396469279424 0.0 0.002064532985913814 0.0 0.0
0.0004094586855924573 -0.001855245339640124 0.0 0.0013912933904886308 0.0 0.0
0.00030152927096038394 -0.0014480676725077998 0.0 -0.0013073732405546133 0.0 0.0
7.276054665849863e-05 -0.0003714335472265066 0.0 -0.0019413452705013472 0.0 0.0
-0.0002327257323130208 8.459378407478137e-05 0.0 -0.0022088859162886854 0.0 0.0
-0.0003223494984152645 0.00020118852933856068 0.0 -0.0021575816705978568 0.0 0.0
-0.00034592109875810484 0.00020823007716239104 0.0 -0.002149322982638272 0.0 0.0
-0.0003895382582513806 0.00020844482783437512 0.0 -0.002235031034879867 0.0 0.0
-0.0004952719100964612 0.00022645909782859704 0.0 -0.0023857305779930505 0.0 0.0
-0.0006929787889061465 0.0003054925091060048 0.0 -0.0025275325686686025 0.0 0.0
-0.0010160996358769886 0.00045851512350607965 0.0 -0.0026538844561397237 0.0 0.0
-0.0014857478780065025 0.0007444828899169436 0.0 -0.0028806379452622896 0.0 0.0
-0.0021038730307158695 0.0011755976617472126 0.0 -0.003329604949100195 0.0 0.0
-0.0028388087606924625 0.0017404117265900246 0.0 -0.0039829217323444025 0.0 0.0
-0.003677240579846158 0.0024123435173725883 0.0 -0.004754230642248176 0.0 0.0
-0.004657697761881394 0.003235672565685116 0.0 -0.005620387974461564 0.0 0.0
-0.005790557631357601 0.004233909195402449 0.0 -0.00660495627934401 0.0 0.0
-0.007004270602742011 0.00536958613931903 0.0 -0.007785162120399442 0.0 0.0
-0.008084267725179176 0.006434950694792305 0.0 -0.00923884470850879 0.0 0.0
-0.008655433169886515 0.007067553607360468 0.0 -0.011018390240847824 0.0 0.0
-0.008244686446887046 0.006826120726230511 0.0 -0.01298581388623589 0.0 0.0
-0.005770098677910788 0.005008695864972473 0.0 -0.013780862347160775 0.0 0.0
-0.003808567388967722 -0.0006861803245632725 0.0 8.041744353759483e-15 0.0 0.0
-0.005770098677911343 0.005008695864975769 0.0 0.013780862347174863 0.0 0.0
-0.008244686446885618 0.0068261207262277825 0.0 0.012985813886247522 0.0 0.0
-0.008655433169882104 0.007067553607357321 0.0 0.011018390240850887 0.0 0.0
-0.008084267725172982 0.006434950694784449 0.0 0.00923884470850393 0.0 0.0
-0.007004270602735714 0.005369586139312498 0.0 0.0077851621203955754 0.0 0.0
-0.005790557631351662 0.00423390919539876 0.0 0.006604956279339998 0.0 0.0
-0.004657697761874948 0.003235672565679927 0.0 0.005620387974457527 0.0 0.0
-0.003677240579839233 0.0024123435173665194 0.0 0.004754230642244045 0.0 0.0
-0.0028388087606857305 0.0017404117265863639 0.0 0.0039829217323369415 0.0 0.0
-0.0021038730307100977 0.0011755976617427574 0.0 0.003329604949093872 0.0 0.0
-0.001485747878002383 0.000744482889914967 0.0 0.002880637945259304 0.0 0.0
-0.0010160996358744667 0.0004585151235027108 0.0 0.0026538844561388463 0.0 0.0
-0.0006929787889043651 0.00030549250910586145 0.0 0.0025275325686675036 0.0 0.0
-0.0004952719100953156 0.00022645909782788634 0.0 0.0023857305779907243 0.0 0.0
-0.00038953825825067284 0.0002084448278329913 0.0 0.0022350310348769496 0.0 0.0
-0.0003459210987576121 0.0002082300771615299 0.0 0.0021493229826369037 0.0 0.0
-0.0003223494984149451 0.0002011885293388871 0.0 0.002157581670595333 0.0 0.0
-0.00023272573231289265 8.459378407489105e-05 0.0 0.0022088859162865725 0.0 0.0
7.276054665838005e-05 -0.00037143354722662876 0.0 0.0019413452704997907 0.0 0.0
0.0003015292709600785 -0.001448067672505983 0.0 0.0013073732405523512 0.0 0.0
0.0002144951904234508 -0.0011023047861162822 0.0 -0.0011786009265614909 0.0 0.0
4.25007123254994e-06 -0.00033287501624565635 0.0 -0.001806212565097642 0.0 0.0
-0.00031549215167212186 0.00011333935608910347 0.0 -0.002158550405477233 0.0 0.0
-0.0004776740096862882 0.0002621946470678066 0.0 -0.0021307746638328743 0.0 0.0
-0.0005850122726898065 0.0003119909400799289 0.0 -0.00210217393797638 0.0 0.0
-0.0007273234691317431 0.00036056480154312133 0.0 -0.0021512649140171952 0.0 0.0
-0.0009665746154286783 0.0004327079227439524 0.0 -0.002244151287896494 0.0 0.0
-0.0013853532741541432 0.0006201560678180711 0.0 -0.002361992256174936 0.0 0.0
-0.002075611055899852 0.0010283513701079027 0.0 -0.002656748951173355 0.0 0.0
-0.003074241397507596 0.0017543407106600187 0.0 -0.0032391883160167983 0.0 0.0
-0.004332454907474799 0.0027805561214877023 0.0 -0.004130109847184613 0.0 0.0
-0.005781344218550982 0.004032496030447568 0.0 -0.00511765249187907 0.0 0.0
-0.007429391069846556 0.005490898101037953 0.0 -0.006138678533119239 0.0 0.0
-0.009352469171028393 0.007251221119657628 0.0 -0.0071829159923182395 0.0 0.0
-0.011612204182632436 0.00937614284167062 0.0 -0.008328847640806106 0.0 0.0
-0.014158656321347832 0.011840416639155792 0.0 -0.009751384691256701 0.0 0.0
-0.016739857667575925 0.01440443721912026 0.0 -0.011659990090801068 0.0 0.0
-0.01886522946085588 0.01657010835479914 0.0 -0.014155512086026762 0.0 0.0
-0.019605478444374574 0.01746960374300232 0.0 -0.01672173013760384 0.0 0.0
-0.01736483192916965 0.015399195310255527 0.0 -0.017235173354247593 0.0 0.0
-0.015256088815634058 0.008000929841329881 0.0 8.814563662307151e-15 0.0 0.0
-0.01736483192916886 0.015399195310252398 0.0 0.017235173354268454 0.0 0.0
-0.019605478444370366 0.01746960374299929 0.0 0.016721730137623982 0.0 0.0
-0.018865229460847333 0.016570108354788615 0.0 0.014155512086033908 0.0 0.0
-0.016739857667564247 0.014404437219111221 0.0 0.011659990090797764 0.0 0.0
-0.014158656321336185 0.011840416639144943 0.0 0.009751384691250895 0.0 0.0
-0.011612204182622144 0.009376142841658696 0.0 0.008328847640800219 0.0 0.0
-0.009352469171017383 0.007251221119648113 0.0 0.007182915992312824 0.0 0.0
-0.0074293910698347825 0.005490898101027263 0.0 0.006138678533112383 0.0 0.0
-0.005781344218539643 0.004032496030439164 0.0 0.005117652491869392 0.0 0.0
-0.004332454907464452 0.0027805561214786995 0.0 0.004130109847175349 0.0 0.0
-0.0030742413974997065 0.001754340710651597 0.0 0.0032391883160107554 0.0 0.0
-0.002075611055894854 0.0010283513701049428 0.0 0.0026567489511709276 0.0 0.0
-0.001385353274151051 0.0006201560678163463 0.0 0.0023619922561739486 0.0 0.0
-0.0009665746154268763 0.0004327079227425943 0.0 0.0022441512878946445 0.0 0.0
-0.0007273234691305711 0.0003605648015437294 0.0 0.0021512649140150346 0.0 0.0
-0.0005850122726890016 0.0003119909400789322 0.0 0.002102173937974829 0.0 0.0
-0.0004776740096859712 0.00026219464706788326 0.0 0.0021307746638306656 0.0 0.0
-0.00031549215167188713 0.00011333935608874597 0.0 0.0021585504054754856 0.0 0.0
4.250071232569659e-06 -0.0003328750162456007 0.0 0.0018062125650959628 0.0 0.0
0.00021449519042319816 -0.0011023047861149467 0.0 0.0011786009265602703 0.0 0.0
0.0001379328121146702 -0.0008066111591631094 0.0 -0.0010325588507034968 0.0 0.0
-5.828808413747535e-05 -0.0002805848492642642 0.0 -0.0016481224741753367 0.0 0.0
-0.0003940419083146827 0.00014298406790177296 0.0 -0.002056900559170473 0.0 0.0
-0.0006251444296302161 0.0003191164351606739 0.0 -0.0020493722320431896 0.0 0.0
-0.0008150080496181845 0.00040889043338621274 0.0 -0.0019983067697078236 0.0 0.0
-0.0010521422843683666 0.0005022203739558228 0.0 -0.0019934439304591803 0.0 0.0
-0.0014359894450225463 0.0006371106818408225 0.0 -0.002023733491613403 0.0 0.0
-0.002127954700889 0.0010130905172654405 0.0 -0.0022281132746033053 0.0 0.0
-0.003247876960588776 0.0018120551331603386 0.0 -0.0027994171596122013 0.0 0.0
-0.0047887803029629085 0.0030885544505170576 0.0 -0.0037611068157960325 0.0 0.0
-0.006656391869338273 0.0047346654481687355 0.0 -0.00491855265632971 0.0 0.0
-0.00878813297213945 0.006663316247039055 0.0 -0.0060658663839212555 0.0 0.0
-0.011233386202444606 0.008907848674338604 0.0 -0.007188798327113255 0.0 0.0
-0.014109849807181208 0.011599773229590505 0.0 -0.008344394246393478 0.0 0.0
-0.017520830557004943 0.014852218038441084 0.0 -0.009664791829660175 0.0 0.0
-0.02143890847824291 0.018669194920293952 0.0 -0.011377548956534237 0.0 0.0
-0.025575319193332002 0.022786949151063423 0.0 -0.013845786010293928 0.0 0.0
-0.029203644529265674 0.02651602533859192 0.0 -0.01720560418808317 0.0 0.0
-0.030936329930741836 0.02846520688260161 0.0 -0.020546575719101103 0.0 0.0
-0.02842291940705536 0.02637026512779277 0.0 -0.021641370105035657 0.0 0.0
-0.025739114571047397 0.016467622165926853 0.0 1.0534108307869161e-14 0.0 0.0
-0.02842291940705293 0.026370265127789103 0.0 0.021641370105061404 0.0 0.0
-0.03093632993073532 0.028465206882598827 0.0 0.0205465757191273 0.0 0.0
-0.029203644529253427 0.026516025338575794 0.0 0.01720560418809441 0.0 0.0
-0.02557531919331612 0.022786949151052092 0.0 0.013845786010293543 0.0 0.0
-0.021438908478226836 0.018669194920276643 0.0 0.011377548956527712 0.0 0.0
-0.017520830556989747 0.014852218038427342 0.0 0.009664791829652908 0.0 0.0
-0.014109849807165634 0.011599773229576772 0.0 0.008344394246387294 0.0 0.0
-0.011233386202428416 0.00890784867432226 0.0 0.007188798327105429 0.0 0.0
-0.008788132972123561 0.006663316247026289 0.0 0.006065866383910459 0.0 0.0
-0.006656391869323843 0.004734665448154866 0.0 0.004918552656317295 0.0 0.0
-0.00478878030295153 0.00308855445050657 0.0 0.003761106815785892 0.0 0.0
-0.003247876960580764 0.0018120551331550724 0.0 0.002799417159607326 0.0 0.0
-0.002127954700883868 0.0010130905172622546 0.0 0.0022281132746007144 0.0 0.0
-0.0014359894450198874 0.0006371106818416947 0.0 0.0020237334916120772 0.0 0.0
-0.0010521422843669291 0.0005022203739553528 0.0 0.0019934439304577743 0.0 0.0
-0.0008150080496172609 0.0004088904333850968 0.0 0.0019983067697058664 0.0 0.0
-0.0006251444296296398 0.0003191164351619509 0.0 0.0020493722320411227 0.0 0.0
-0.0003940419083144062 0.00014298406790173095 0.0 0.0020569005591690053 0.0 0.0
-5.8288084137413536e-05 -0.0002805848492642583 0.0 0.001648122474173443 0.0 0.0
0.00013793281211469118 -0.0008066111591622326 0.0 0.001032558850702167 0.0 0.0
6.913782318336369e-05 -0.0005571828583583074 0.0 -0.0008803070695585849 0.0 0.0
-0.00011713207737451534 -0.00021878710127790337 0.0 -0.001465933536201742 0.0 0.0
-0.0004698666436394745 0.0001746768564318076 0.0 -0.001905076941543328 0.0 0.0
-0.0007655832583296457 0.00037206436789742554 0.0 -0.0019137811773693798 0.0 0.0
-0.0010330122914001775 0.0004979969715744075 0.0 -0.0018373189777877406 0.0 0.0
-0.0013672678695399393 0.0006294141112501485 0.0 -0.0017622535374624485 0.0 0.0
-0.0019338030565982395 0.0008765121626572983 0.0 -0.0017873884897898974 0.0 0.0
-0.002949406898004068 0.0015368828930676136 0.0 -0.002140187389649304 0.0 0.0
-0.0045187452314355584 0.0027997056907715766 0.0 -0.002955787169699652 0.0 0.0
-0.006581504497740649 0.004611596924879113 0.0 -0.0041097622982648255 0.0 0.0
-0.009026110550814613 0.006833155754706839 0.0 -0.005317002047927767 0.0 0.0
-0.01183146215998553 0.009423782491929267 0.0 -0.006492461285970056 0.0 0.0
-0.015084416651741955 0.012456408462941363 0.0 -0.0076525565423223255 0.0 0.0
-0.01893050847908502 0.01609012072353959 0.0 -0.008880534955750431 0.0 0.0
-0.023507140865508043 0.020478475492003288 0.0 -0.010289978760446987 0.0 0.0
-0.028820426922442667 0.025666063338844497 0.0 -0.012158650581738864 0.0 0.0
-0.034522615385803264 0.03135690951414409 0.0 -0.01490970865007753 0.0 0.0
-0.03961065355891136 0.036606067795923854 0.0 -0.018742536136713818 0.0 0.0
-0.042167166651299645 0.039511302647499365 0.0 -0.0228469441911126 0.0 0.0
-0.039077484527224544 0.037030013063029166 0.0 -0.024796794832255473 0.0 0.0
-0.035646243663976306 0.024650985998842766 0.0 1.2681695971128448e-14 0.0 0.0
-0.03907748452722041 0.037030013063029214 0.0 0.024796794832281574 0.0 0.0
-0.04216716665129044 0.039511302647493834 0.0 0.022846944191139175 0.0 0.0
-0.03961065355889599 0.036606067795908234 0.0 0.018742536136728286 0.0 0.0
-0.034522615385783675 0.03135690951412633 0.0 0.01490970865007811 0.0 0.0
-0.02882042692242262 0.025666063338827007 0.0 0.01215865058173424 0.0 0.0
-0.023507140865488326 0.020478475491986163 0.0 0.010289978760439876 0.0 0.0
-0.018930508479064738 0.01609012072352104 0.0 0.008880534955742946 0.0 0.0
-0.015084416651721354 0.012456408462920348 0.0 0.0076525565423139555 0.0 0.0
-0.011831462159965426 0.009423782491909958 0.0 0.006492461285959181 0.0 0.0
-0.009026110550796307 0.006833155754690658 0.0 0.005317002047914604 0.0 0.0
-0.006581504497725796 0.004611596924866176 0.0 0.004109762298254755 0.0 0.0
-0.004518745231424648 0.002799705690761376 0.0 0.0029557871696931975 0.0 0.0
-0.0029494068979968417 0.0015368828930624764 0.0 0.0021401873896449534 0.0 0.0
-0.0019338030565943741 0.0008765121626559188 0.0 0.0017873884897878396 0.0 0.0
-0.001367267869538084 0.0006294141112480226 0.0 0.0017622535374610822 0.0 0.0
-0.0010330122913989595 0.0004979969715731143 0.0 0.001837318977786362 0.0 0.0
-0.0007655832583289078 0.0003720643678981799 0.0 0.001913781177366858 0.0 0.0
-0.00046986664363908907 0.00017467685643154351 0.0 0.0019050769415419728 0.0 0.0
-0.00011713207737431385 -0.00021878710127783417 0.0 0.001465933536200624 0.0 0.0
6.913782318344136e-05 -0.0005571828583576799 0.0 0.0008803070695571324 0.0 0.0
8.136113307027033e-06 -0.00035239203512632094 0.0 -0.0007245985609403203 0.0 0.0
-0.00017226985473997456 -0.00015203601255382626 0.0 -0.0012612687268282424 0.0 0.0
-0.0005434489160754356 0.00020862197733242927 0.0 -0.001704698452053802 0.0 0.0
-0.0008990566526794602 0.00042133878485022165 0.0 -0.0017246625123171976 0.0 0.0
-0.0012387351456413372 0.0005778320513362208 0.0 -0.0016192668874057828 0.0 0.0
-0.001687254738788167 0.0007566631253566996 0.0 -0.0014894770521798766 0.0 0.0
-0.0024776788701346714 0.0011817722016024459 0.0 -0.0015475100356907511 0.0 0.0
-0.0038496679789013005 0.002197535028285212 0.0 -0.002040886051337005 0.0 0.0
-0.005861978113974882 0.0039298834899719895 0.0 -0.0030033814590704516 0.0 0.0
-0.008407482339928022 0.006226493656172113 0.0 -0.004141571889104543 0.0 0.0
-0.011413130217869074 0.008999857152181236 0.0 -0.005292358326085845 0.0 0.0
-0.014904309584828412 0.012256046109422158 0.0 -0.006426402872989308 0.0 0.0
-0.01898093350099928 0.016088750748697797 0.0 -0.007566808393986957 0.0 0.0
-0.023807125424350057 0.020677888071466994 0.0 -0.008801754446734528 0.0 0.0
-0.02955291282369716 0.0262043506905446 0.0 -0.010235855626564544 0.0 0.0
-0.036244281259127244 0.032739962186367655 0.0 -0.012058158934501852 0.0 0.0
-0.04347028061521833 0.039964432569978336 0.0 -0.014699108073419698 0.0 0.0
-0.04997119284788421 0.04669823268707634 0.0 -0.018594432738646544 0.0 0.0
-0.05326688261841307 0.05048757422896476 0.0 -0.023306429724371754 0.0 0.0
-0.04955354663599672 0.047544717945179366 0.0 -0.026872440336437667 0.0 0.0
-0.04538854910370624 0.03279936337098538 0.0 1.316394909745e-14 0.0 0.0
-0.04955354663599094 0.04754471794517405 0.0 0.026872440336466054 0.0 0.0
-0.05326688261840098 0.0504875742289564 0.0 0.023306429724398642 0.0 0.0
-0.04997119284786559 0.04669823268705641 0.0 0.01859443273866219 0.0 0.0
-0.043470280615194964 0.03996443256995503 0.0 0.014699108073421036 0.0 0.0
-0.03624428125910304 0.032739962186346346 0.0 0.012058158934497826 0.0 0.0
-0.0295529128236732 0.02620435069052191 0.0 0.010235855626559301 0.0 0.0
-0.02380712542432519 0.020677888071445924 0.0 0.008801754446728035 0.0 0.0
-0.018980933500973983 0.01608875074867321 0.0 0.007566808393978983 0.0 0.0
-0.014904309584803953 0.012256046109397307 0.0 0.006426402872980607 0.0 0.0
-0.01141313021784691 0.008999857152161695 0.0 0.005292358326072546 0.0 0.0
-0.008407482339909882 0.006226493656156785 0.0 0.004141571889093673 0.0 0.0
-0.005861978113961015 0.003929883489958693 0.0 0.003003381459064207 0.0 0.0
-0.00384966797889171 0.002197535028278801 0.0 0.002040886051332151 0.0 0.0
-0.0024776788701294447 0.0011817722015977816 0.0 0.0015475100356884064 0.0 0.0
-0.0016872547387857615 0.0007566631253553334 0.0 0.0014894770521784392 0.0 0.0
-0.0012387351456400418 0.0005778320513353313 0.0 0.0016192668874049272 0.0 0.0
-0.000899056652678501 0.0004213387848489692 0.0 0.00172466251231524 0.0 0.0
-0.0005434489160750243 0.00020862197733259314 0.0 0.0017046984520521673 0.0 0.0
-0.000172269854739863 -0.00015203601255386784 0.0 0.001261268726828102 0.0 0.0
8.136113307128752e-06 -0.0003523920351259041 0.0 0.0007245985609391648 0.0 0.0
-4.365634034352378e-05 -0.000192122032747066 0.0 -0.0005669496063267599 0.0 0.0
-0.00022208251883145655 -8.464499361258357e-05 0.0 -0.0010361642122410457 0.0 0.0
-0.0006142434175340074 0.00024368949793197392 0.0 -0.0014572315440005363 0.0 0.0
-0.0010259392053127677 0.00046782439281413337 0.0 -0.001481441488208481 0.0 0.0
-0.0014396477127183885 0.0006469118051960611 0.0 -0.0013490381646654274 0.0 0.0
-0.0020235488164472375 0.0009053331632904598 0.0 -0.001190467270137438 0.0 0.0
-0.003076758807585679 0.0015716677705295572 0.0 -0.001299826972071257 0.0 0.0
-0.004818960288823934 0.0029872861704807996 0.0 -0.0019135436594559536 0.0 0.0
-0.0072356935146039685 0.005130931537887818 0.0 -0.002824347880694639 0.0 0.0
-0.010239819911500473 0.007882399993819093 0.0 -0.003832013696616893 0.0 0.0
-0.013814146713363291 0.011207945727056143 0.0 -0.004877654976044601 0.0 0.0
-0.017998515742234853 0.015134288483558602 0.0 -0.005906035989605182 0.0 0.0
-0.02291357405650722 0.01978198097184795 0.0 -0.006957361884713619 0.0 0.0
-0.028738661493630156 0.025344362509150436 0.0 -0.00813023278741334 0.0 0.0
-0.035636412929857614 0.0320019404599129 0.0 -0.009503111182175972 0.0 0.0
-0.04363801595520371 0.039820988541652114 0.0 -0.011133406755777373 0.0 0.0
-0.0523121751916307 0.04847750382645349 0.0 -0.013298889352181419 0.0 0.0
-0.060175456943129924 0.05663895082608919 0.0 -0.01673516426634714 0.0 0.0
-0.0642509959170586 0.06136419873332022 0.0 -0.02192069558802205 0.0 0.0
-0.060073677044767126 0.058147688108114645 0.0 -0.028070107592818628 0.0 0.0
-0.0552784029776989 0.04120838141574657 0.0 1.2096226797986276e-14 0.0 0.0
-0.060073677044759646 0.05814768810810804 0.0 0.028070107592845617 0.0 0.0
-0.06425099591704364 0.06136419873330466 0.0 0.021920695588047615 0.0 0.0
-0.060175456943107934 0.05663895082606536 0.0 0.016735164266362536 0.0 0.0
-0.05231217519160396 0.048477503826427557 0.0 0.013298889352184949 0.0 0.0
-0.04363801595517544 0.039820988541625836 0.0 0.011133406755775139 0.0 0.0
-0.035636412929829185 0.032001940459886656 0.0 0.009503111182172116 0.0 0.0
-0.028738661493601186 0.025344362509124006 0.0 0.00813023278740774 0.0 0.0
-0.022913574056477638 0.01978198097181885 0.0 0.006957361884705426 0.0 0.0
-0.01799851574220626 0.015134288483531912 0.0 0.005906035989596012 0.0 0.0
-0.013814146713337732 0.011207945727031625 0.0 0.0048776549760333405 0.0 0.0
-0.010239819911479067 0.007882399993800089 0.0 0.0038320136966065784 0.0 0.0
-0.007235693514587312 0.0051309315378735496 0.0 0.0028243478806888956 0.0 0.0
-0.004818960288811884 0.002987286170473072 0.0 0.001913543659451253 0.0 0.0
-0.003076758807578585 0.0015716677705239885 0.0 0.0012998269720686001 0.0 0.0
-0.002023548816444014 0.0009053331632896042 0.0 0.0011904672701365255 0.0 0.0
-0.0014396477127167873 0.0006469118051959095 0.0 0.00134903816466495 0.0 0.0
-0.0010259392053117613 0.0004678243928124935 0.0 0.0014814414882078674 0.0 0.0
-0.0006142434175333297 0.00024368949793242083 0.0 0.0014572315439987029 0.0 0.0
-0.00022208251883128226 -8.464499361281083e-05 0.0 0.0010361642122403598 0.0 0.0
-4.3656340343662084e-05 -0.0001921220327469085 0.0 0.0005669496063250367 0.0 0.0
-8.34924010508783e-05 -7.719199872379567e-05 0.0 -0.0004109681104457987 0.0 0.0
-0.00026342106378085875 -2.1104152308254885e-05 0.0 -0.0007931818327741118 0.0 0.0
-0.0006802255863827876 0.000277736259518078 0.0 -0.001161878762457568 0.0 0.0
-0.001147981868277989 0.0005116368257976472 0.0 -0.0011832295908458992 0.0 0.0
-0.001642271226889564 0.0007121658146773277 0.0 -0.001030258257013329 0.0 0.0
-0.002391643739710444 0.0010888235895640792 0.0 -0.0008604895684575826 0.0 0.0
-0.00373966462566177 0.0020672986662428074 0.0 -0.001063236254629849 0.0 0.0
-0.0058221672344020165 0.0038491328633221654 0.0 -0.0016490374838977597 0.0 0.0
-0.008608419447862206 0.00635794372240998 0.0 -0.0023827122570470724 0.0 0.0
-0.012074244545258789 0.009562033680429046 0.0 -0.003220977457698058 0.0 0.0
-0.016218881888614534 0.01343914214028741 0.0 -0.00409148529357913 0.0 0.0
-0.02110604239538554 0.018043533660161055 0.0 -0.004949972219170922 0.0 0.0
-0.02687668072814399 0.023520198922023176 0.0 -0.005835865641475225 0.0 0.0
-0.03370899732090663 0.03007235527142843 0.0 -0.006859521171139003 0.0 0.0
-0.041744039797082515 0.037855047786315876 0.0 -0.008091265423021934 0.0 0.0
-0.05096217838421812 0.04687126572544255 0.0 -0.009461343048308306 0.0 0.0
-0.06091740126222549 0.05676589832290667 0.0 -0.010911749253712955 0.0 0.0
-0.07009039726254175 0.06624937495400739 0.0 -0.013225949426857737 0.0 0.0
-0.07515439693150616 0.07212885272421574 0.0 -0.018575028454200195 0.0 0.0
-0.0708628306870787 0.06908164453563626 0.0 -0.028168786740758997 0.0 0.0
-0.0656123536133306 0.050202510227350866 0.0 1.1732802229769135e-14 0.0 0.0
-0.07086283068706983 0.06908164453562797 0.0 0.028168786740783436 0.0 0.0
-0.07515439693148841 0.0721288527241985 0.0 0.01857502845422372 0.0 0.0
-0.07009039726251622 0.06624937495398357 0.0 0.013225949426872066 0.0 0.0
-0.060917401262195026 0.056765898322880926 0.0 0.01091174925371678 0.0 0.0
-0.05096217838418607 0.04687126572541068 0.0 0.009461343048308262 0.0 0.0
-0.041744039797049715 0.037855047786284075 0.0 0.00809126542301884 0.0 0.0
-0.033708997320873235 0.03007235527139479 0.0 0.006859521171133578 0.0 0.0
-0.026876680728110117 0.02352019892199174 0.0 0.005835865641470165 0.0 0.0
-0.021106042395352867 0.018043533660128834 0.0 0.004949972219163436 0.0 0.0
-0.01621888188858563 0.013439142140260426 0.0 0.004091485293569336 0.0 0.0
-0.012074244545234251 0.009562033680407077 0.0 0.003220977457689794 0.0 0.0
-0.008608419447842646 0.0063579437223931605 0.0 0.0023827122570414397 0.0 0.0
-0.0058221672343878005 0.0038491328633111195 0.0 0.001649037483893182 0.0 0.0
-0.0037396646256528067 0.0020672986662350584 0.0 0.001063236254626821 0.0 0.0
-0.002391643739706143 0.0010888235895620323 0.0 0.0008604895684562765 0.0 0.0
-0.0016422712268876858 0.000712165814678197 0.0 0.0010302582570139653 0.0 0.0
-0.0011479818682767963 0.0005116368257963599 0.0 0.001183229590845605 0.0 0.0
-0.0006802255863823873 0.00027773625951840703 0.0 0.0011618787624559886 0.0 0.0
-0.0002634210637807795 -2.110415230827868e-05 0.0 0.0007931818327736957 0.0 0.0
-8.34924010507103e-05 -7.719199872368757e-05 0.0 0.0004109681104445963 0.0 0.0
-0.00010682946364233255 -8.629327482139672e-06 0.0 -0.00026586040717457263 0.0 0.0
-0.0002908303572730288 3.286937124126249e-05 0.0 -0.0005357839390045073 0.0 0.0
-0.0007382468581109904 0.000307307719444316 0.0 -0.0008133036220436445 0.0 0.0
-0.0012675628786001448 0.0005538562019709456 0.0 -0.000826566064614271 0.0 0.0
-0.0018569903471027751 0.0007848145440321635 0.0 -0.0006691708415033863 0.0 0.0
-0.002808791240481864 0.0013405995269879913 0.0 -0.0005324274816499663 0.0 0.0
-0.004443656025270618 0.0026466824387160626 0.0 -0.0007730610913067186 0.0 0.0
-0.006830237375412076 0.004731866136579872 0.0 -0.0011850834356195536 0.0 0.0
-0.00997781473314346 0.007600244453644519 0.0 -0.0017146344509664916 0.0 0.0
-0.013900382784289792 0.01125009052277543 0.0 -0.002319262030298864 0.0 0.0
-0.018619287636285193 0.01567992125933286 0.0 -0.002947596623414323 0.0 0.0
-0.024217938490473566 0.020970876705934435 0.0 -0.0035642293991604655 0.0 0.0
-0.030854151071033023 0.027290654471714484 0.0 -0.004212393167872844 0.0 0.0
-0.038710062145849176 0.034844104073710115 0.0 -0.005007233879050665 0.0 0.0
-0.047868014583962344 0.0437423739390773 0.0 -0.005981074839513413 0.0 0.0
-0.058191246349669476 0.05387840239545746 0.0 -0.0070072225315638125 0.0 0.0
-0.06918451386232984 0.06477927846487223 0.0 -0.007813632005293263 0.0 0.0
-0.0795474231520819 0.07529252185353823 0.0 -0.008690992820686314 0.0 0.0
-0.08593587559781737 0.08262792401359682 0.0 -0.012769105748388196 0.0 0.0
-0.08215842379972556 0.08063215284285859 0.0 -0.026308269982246207 0.0 0.0
-0.07678186625395744 0.06027409682605732 0.0 9.12724756885197e-15 0.0 0.0
-0.08215842379971527 0.08063215284284665 0.0 0.026308269982265552 0.0 0.0
-0.08593587559779639 0.08262792401358013 0.0 0.012769105748406905 0.0 0.0
-0.07954742315205232 0.0752925218535097 0.0 0.008690992820695737 0.0 0.0
-0.06918451386229524 0.06477927846484328 0.0 0.007813632005295284 0.0 0.0
-0.05819124634963337 0.05387840239542059 0.0 0.007007222531563783 0.0 0.0
-0.04786801458392567 0.04374237393904248 0.0 0.005981074839512735 0.0 0.0
-0.038710062145811575 0.03484410407367482 0.0 0.005007233879046066 0.0 0.0
-0.03085415107099461 0.02729065447167815 0.0 0.004212393167869246 0.0 0.0
-0.024217938490436786 0.020970876705893808 0.0 0.00356422939915499 0.0 0.0
-0.018619287636252816 0.01567992125930636 0.0 0.002947596623407178 0.0 0.0
-0.01390038278426262 0.01125009052275137 0.0 0.002319262030292536 0.0 0.0
-0.00997781473312171 0.007600244453624163 0.0 0.0017146344509625902 0.0 0.0
-0.006830237375395769 0.004731866136566661 0.0 0.0011850834356152578 0.0 0.0
-0.0044436560252599355 0.002646682438707919 0.0 0.0007730610913048344 0.0 0.0
-0.002808791240476521 0.0013405995269835354 0.0 0.0005324274816488449 0.0 0.0
-0.0018569903471006683 0.0007848145440310139 0.0 0.0006691708415043793 0.0 0.0
-0.0012675628785991757 0.0005538562019709992 0.0 0.0008265660646133467 0.0 0.0
-0.0007382468581102759 0.0003073077194444236 0.0 0.0008133036220427785 0.0 0.0
-0.0002908303572726213 3.286937124103102e-05 0.0 0.0005357839390044165 0.0 0.0
-0.0001068294636421922 -8.629327482050194e-06 0.0 0.000265860407175035 0.0 0.0
-0.00010581944904244366 1.3457581298764239e-05 0.0 -0.0001523493384493204 0.0 0.0
-0.0002951479224502923 6.8131259830183e-05 0.0 -0.00026819831094515914 0.0 0.0
-0.0007833473001581387 0.00032756577120211143 0.0 -0.00039800744612469787 0.0 0.0
-0.0013907000951788031 0.0005975278743202333 0.0 -0.0004032737500567688 0.0 0.0
-0.0021025601729396486 0.0008839797403040698 0.0 -0.00027985153975065445 0.0 0.0
-0.0032707532581062308 0.0016685199014987474 0.0 -0.00020672680455118144 0.0 0.0
-0.005167514785138953 0.0032667830405529582 0.0 -0.00035602610704306176 0.0 0.0
-0.007833466574120963 0.005625810166938987 0.0 -0.0005628471544892586 0.0 0.0
-0.011333197506235727 0.008844080693752292 0.0 -0.0008260480305340453 0.0 0.0
-0.015708957967527807 0.012932360037554139 0.0 -0.0011348422733808282 0.0 0.0
-0.02100486097606965 0.017917737759552736 0.0 -0.0014475757767007484 0.0 0.0
-0.027325755216861244 0.023907937813754176 0.0 -0.0017514659011648656 0.0 0.0
-0.0348429918809693 0.031085039473865102 0.0 -0.002112160248123467 0.0 0.0
-0.043714732863679634 0.03963373445456811 0.0 -0.002566350769336239 0.0 0.0
-0.053970370546023765 0.0496253053930632 0.0 -0.003120804508374941 0.0 0.0
-0.06535047018166201 0.060838071473590896 0.0 -0.0037157711881408706 0.0 0.0
-0.07716328159541566 0.07259499462823876 0.0 -0.004111885410008601 0.0 0.0
-0.0882589035760793 0.08369723561703084 0.0 -0.004130065834938846 0.0 0.0
-0.09628191364723587 0.09212168418384908 0.0 -0.005510902897024807 0.0 0.0
-0.09428299534921798 0.09291746621412512 0.0 -0.01833934318785029 0.0 0.0
-0.08945786974034978 0.07288410928412682 0.0 3.881443777498106e-15 0.0 0.0
-0.0942829953492058 0.0929174662141148 0.0 0.018339343187861394 0.0 0.0
-0.09628191364721186 0.09212168418382749 0.0 0.005510902897035302 0.0 0.0
-0.08825890357604554 0.08369723561699778 0.0 0.004130065834944054 0.0 0.0
-0.07716328159537676 0.07259499462820171 0.0 0.00411188541000996 0.0 0.0
-0.06535047018162171 0.06083807147355111 0.0 0.0037157711881403988 0.0 0.0
-0.053970370545982756 0.049625305393026516 0.0 0.0031208045083743145 0.0 0.0
-0.0437147328636373 0.039633734454527246 0.0 0.002566350769335194 0.0 0.0
-0.03484299188092612 0.03108503947382199 0.0 0.002112160248120885 0.0 0.0
-0.027325755216820638 0.023907937813713462 0.0 0.0017514659011618103 0.0 0.0
-0.02100486097603411 0.017917737759519468 0.0 0.0014475757766961197 0.0 0.0
-0.015708957967497713 0.012932360037525317 0.0 0.0011348422733776248 0.0 0.0
-0.0113331975062115 0.008844080693729649 0.0 0.0008260480305318021 0.0 0.0
-0.007833466574102598 0.005625810166923855 0.0 0.000562847154487795 0.0 0.0
-0.005167514785126632 0.0032667830405436683 0.0 0.00035602610704106607 0.0 0.0
-0.0032707532580997112 0.0016685199014933685 0.0 0.00020672680455015524 0.0 0.0
-0.002102560172936946 0.0008839797403018235 0.0 0.00027985153975168005 0.0 0.0
-0.0013907000951777044 0.0005975278743214203 0.0 0.00040327375005575687 0.0 0.0
-0.0007833473001574859 0.00032756577120159953 0.0 0.00039800744612559916 0.0 0.0
-0.0002951479224497838 6.813125982965322e-05 0.0 0.000268198310944783 0.0 0.0
-0.00010581944904191118 1.3457581298788371e-05 0.0 0.0001523493384496081 0.0 0.0
-6.593766820853611e-05 1.2972417228226405e-05 0.0 -9.680895234715029e-05 0.0 0.0
-0.0002606393992103647 7.962760036041183e-05 0.0 -0.00011136105665140314 0.0 0.0
-0.0008086053300518502 0.0003347094692939828 0.0 -0.00013626423226432448 0.0 0.0
-0.0015291624825480112 0.0006201257593483992 0.0 -0.00013114412150701883 0.0 0.0
-0.0023924038175895416 0.0009438283264814068 0.0 6.441210099537148e-06 0.0 0.0
-0.003767615512221406 0.0018474256715459371 0.0 0.00014199842124703742 0.0 0.0
-0.005895677234095001 0.00358247416367575 0.0 0.0001656655605231591 0.0 0.0
-0.008824585803306532 0.006074724493180486 0.0 0.00017406710177547756 0.0 0.0
-0.012665331912378787 0.009464350295406921 0.0 0.00017765062754840572 0.0 0.0
-0.017489294446798115 0.013770560214200984 0.0 0.00015601534459864976 0.0 0.0
-0.023367026801202673 0.019033825578475872 0.0 0.00015810728641303 0.0 0.0
-0.030426939843632168 0.02537863264849624 0.0 0.00018104888661853733 0.0 0.0
-0.0388236237055464 0.032987517751138735 0.0 0.00015023972983992714 0.0 0.0
-0.04869234085236798 0.0420282132138691 0.0 0.00010147547263337879 0.0 0.0
-0.06002308993962772 0.05256101402580908 0.0 -4.672858566364107e-05 0.0 0.0
-0.07243586483289184 0.06430519400468153 0.0 -0.0003075895039535252 0.0 0.0
-0.08502000841402371 0.0764689836475845 0.0 -0.0005955689904029319 0.0 0.0
-0.09634866840336787 0.08775756498624827 0.0 -0.0007224029290736744 0.0 0.0
-0.10492471074231205 0.09646749377950567 0.0 -0.0010048694842450705 0.0 0.0
-0.10717547500714689 0.0992327728185287 0.0 -0.01266305610215877 0.0 0.0
-0.10599427970511514 0.08011128681108347 0.0 2.248201624865942e-15 0.0 0.0
-0.10717547500713327 0.09923277281852216 0.0 0.012663056102162845 0.0 0.0
-0.1049247107422843 0.09646749377947954 0.0 0.0010048694842469431 0.0 0.0
-0.09634866840332892 0.08775756498621357 0.0 0.000722402929076044 0.0 0.0
-0.08502000841398019 0.07646898364754381 0.0 0.0005955689904034046 0.0 0.0
-0.07243586483284739 0.06430519400463874 0.0 0.00030758950395408553 0.0 0.0
-0.060023089939582074 0.05256101402577064 0.0 4.6728585663191775e-05 0.0 0.0
-0.04869234085232101 0.04202821321382373 0.0 -0.00010147547263294598 0.0 0.0
-0.038823623705499376 0.03298751775109323 0.0 -0.00015023972984117614 0.0 0.0
-0.030426939843588015 0.025378632648458157 0.0 -0.0001810488866212643 0.0 0.0
-0.023367026801163655 0.01903382557843517 0.0 -0.00015810728641621648 0.0 0.0
-0.0174892944467652 0.013770560214170063 0.0 -0.00015601534459793766 0.0 0.0
-0.012665331912352182 0.009464350295382042 0.0 -0.00017765062754937088 0.0 0.0
-0.008824585803286305 0.006074724493164734 0.0 -0.00017406710177429903 0.0 0.0
-0.005895677234081421 0.0035824741636644045 0.0 -0.00016566556052436364 0.0 0.0
-0.003767615512213588 0.0018474256715405083 0.0 -0.00014199842124751035 0.0 0.0
-0.002392403817586016 0.0009438283264799742 0.0 -6.441210097778681e-06 0.0 0.0
-0.0015291624825462882 0.0006201257593498306 0.0 0.00013114412150648267 0.0 0.0
-0.0008086053300507547 0.0003347094692939394 0.0 0.0001362642322660267 0.0 0.0
-0.0002606393992103398 7.96276003598027e-05 0.0 0.00011136105665136644 0.0 0.0
-6.593766820874089e-05 1.297241722825372e-05 0.0 9.680895234719488e-05 0.0 0.0
SCALARS Statev float 8
LOOKUP_TABLE default
0.0 0.014089691785453794 0.011138525139919706 -0.013499508910250136 0.0023609837703304345 -0.0005130327365854773 0.0 0.0
0.0 0.00430745871700329 0.0030692399034356376 -0.001725923227761368 -0.0013433166756742674 -0.005453516477204195 0.0 0.0
0.0 -2.104512691659902e-05 1.5914197058549136e-05 -1.1067037334805374e-05 -4.8471597237439216e-06 -0.00010878094560076087 0.0 0.0
0.0 8.442459935948887e-05 1.6152945407133014e-06 -8.438418483825798e-07 -7.714526923308084e-07 4.428160510546815e-06 0.0 0.0
0.0 0.0005191235651465051 0.0002210056784477946 -0.00015862808850932464 -6.237758993847035e-05 6.201544334166822e-05 0.0 0.0
0.0 0.0011866764952235655 0.0012466825027758908 -0.000956463650991612 -0.0002902188517842788 0.00012394630469271512 0.0 0.0
0.0 0.003237912432680945 0.003003813475897386 -0.002458462134058836 -0.0005453513418385461 0.00016572868469797743 0.0 0.0
0.0 0.0061652060257326715 0.005657956334478312 -0.004869925183460051 -0.0007880311510182639 0.0001873405798517499 0.0 0.0
0.0 0.010191338397072452 0.009236886754215252 -0.008245463650842706 -0.0009914231033725522 0.0001999800761296828 0.0 0.0
0.0 0.01539592065946518 0.013775069210275801 -0.012589304798386429 -0.0011857644118893648 0.00019323483672584435 0.0 0.0
0.0 0.02184112052046919 0.019338191651206614 -0.01794005946113146 -0.0013981321900751458 0.00020993090377751977 0.0 0.0
0.0 0.0293529427041892 0.026065627993651582 -0.024427810022521392 -0.0016378179711301851 0.0002450896215393671 0.0 0.0
0.0 0.03847365952848723 0.03411616664170523 -0.032217675566763665 -0.0018984910749415293 0.00021942541002156095 0.0 0.0
0.0 0.04931181190185423 0.04363828189786838 -0.041464778306512094 -0.002173503591356296 0.00018491745879803748 0.0 0.0
0.0 0.06193261067822045 0.05468471511306543 -0.052236606406991 -0.0024481087060744125 7.833077474927151e-05 0.0 0.0
0.0 0.0761355816787912 0.0670438726692307 -0.06433671264549887 -0.0027071600237317875 -0.0001242713470077175 0.0 0.0
0.0 0.0911945193505424 0.08011826327641502 -0.07718010079309665 -0.0029381624833184758 -0.0003967256449675402 0.0 0.0
0.0 0.10593752517014904 0.09290338467283793 -0.08977489825265773 -0.003128486420180098 -0.0006350081136510385 0.0 0.0
0.0 0.11886114851373039 0.10410266050852819 -0.10083254550248892 -0.0032701150060393826 -0.0006785646889595539 0.0 0.0
0.0 0.12808293737759352 0.11227017969979905 -0.10892377384406925 -0.003346405855729885 -0.0006769164849760975 0.0 0.0
0.0 0.1316561980590789 0.11544062737928022 -0.11210058995000546 -0.0033400374292747487 1.811484989788781e-15 0.0 0.0
0.0 0.12808293737758272 0.11227017969978956 -0.10892377384406007 -0.003346405855729277 0.0006769164849806482 0.0 0.0
0.0 0.118861148513699 0.10410266050850125 -0.10083254550246194 -0.003270115006039281 0.0006785646889638443 0.0 0.0
0.0 0.10593752517011196 0.09290338467280504 -0.08977489825262663 -0.0031284864201783407 0.0006350081136548731 0.0 0.0
0.0 0.09119451935049525 0.08011826327637409 -0.07718010079305657 -0.0029381624833175893 0.0003967256449679069 0.0 0.0
0.0 0.07613558167874385 0.06704387266918892 -0.06433671264545837 -0.002707160023730518 0.0001242713470070685 0.0 0.0
0.0 0.0619326106781733 0.054684715113023835 -0.05223660640695118 -0.0024481087060726553 -7.83307747501084e-05 0.0 0.0
0.0 0.049311811901805294 0.04363828189782558 -0.04146477830647037 -0.00217350359135517 -0.0001849174587991425 0.0 0.0
0.0 0.03847365952843742 0.034116166641661734 -0.03221767556672123 -0.001898491074940488 -0.00021942541002203247 0.0 0.0
0.0 0.029352942704144545 0.02606562799361211 -0.024427810022483447 -0.001637817971128697 -0.00024508962154058895 0.0 0.0
0.0 0.021841120520428914 0.019338191651171146 -0.017940059461097144 -0.0013981321900740022 -0.0002099309037786385 0.0 0.0
0.0 0.015395920659432401 0.013775069210247029 -0.01258930479835884 -0.0011857644118882015 -0.0001932348367266678 0.0 0.0
0.0 0.010191338397049943 0.009236886754194894 -0.008245463650823619 -0.0009914231033712577 -0.0001999800761300829 0.0 0.0
0.0 0.0061652060257154345 0.0056579563344623125 -0.004869925183445123 -0.0007880311510171875 -0.0001873405798519657 0.0 0.0
0.0 0.0032379124326694046 0.0030038134758859705 -0.0024584621340487515 -0.0005453513418372164 -0.0001657286846980128 0.0 0.0
0.0 0.0011866764952190771 0.001246682502770817 -0.0009564636509875701 -0.0002902188517832474 -0.000123946304692296 0.0 0.0
0.0 0.0005191235651436214 0.00022100567844614687 -0.00015862808850813047 -6.237758993801565e-05 -6.20154433413121e-05 0.0 0.0
0.0 8.442459935885933e-05 1.6152945409348026e-06 -8.438418485527366e-07 -7.714526923815688e-07 -4.428160510519757e-06 0.0 0.0
0.0 -2.1045126917072127e-05 1.5914197058320095e-05 -1.1067037334630493e-05 -4.847159723689087e-06 0.0001087809456000542 0.0 0.0
0.0 0.004307458716995076 0.0030692399034312817 -0.0017259232277585374 -0.0013433166756727385 0.005453516477195805 0.0 0.0
0.0 0.014089691785436079 0.01113852513990759 -0.0134995089102331 0.0023609837703254884 0.000513032736557563 0.0 0.0
0.0 0.011280804099873473 0.008280763865475153 -0.010957696524227296 0.002676932658752131 -8.592392710943719e-05 0.0 0.0
0.0 0.0024163512662382504 0.0017205395383571372 -0.0009216651946020609 -0.0007988743437550739 -0.0040116766524901735 0.0 0.0
0.0 -1.0547640828576868e-05 -2.5097747266937274e-05 2.11663310467507e-05 3.9314162201866074e-06 -1.6411247758116763e-05 0.0 0.0
0.0 9.707202174589316e-06 1.2867353079411605e-06 -9.660468938190613e-07 -3.2068841412214825e-07 2.2502015069762565e-06 0.0 0.0
0.0 0.00021438849626101008 0.00011410975608823782 -8.23111383376023e-05 -3.179861775063549e-05 2.556091547429748e-05 0.0 0.0
0.0 0.0010748069875640628 0.0008612477626723373 -0.0006661257759035693 -0.0001951219867687694 4.68905090667127e-05 0.0 0.0
0.0 0.002666898898091574 0.0024784923682175746 -0.002048664645906332 -0.00042982772231124085 -8.841261384365514e-05 0.0 0.0
0.0 0.005382849625507578 0.004904748646328559 -0.0042694756867779435 -0.0006352729595506136 -0.0002854670145022586 0.0 0.0
0.0 0.009132943005064675 0.008197380262198463 -0.007410663470335834 -0.0007867167918626249 -0.0005480047508505937 0.0 0.0
0.0 0.013903904663094165 0.012364828814225718 -0.011457409969811032 -0.0009074188444146813 -0.0008551057617175217 0.0 0.0
0.0 0.0197705912104324 0.017448761146788207 -0.016428447135868295 -0.0010203140109199137 -0.0011703608756223928 0.0 0.0
0.0 0.026962101739046826 0.023561700378298755 -0.022427869885729455 -0.001133830492569278 -0.0014826915315772921 0.0 0.0
0.0 0.035103999067951745 0.03088846289348152 -0.029640494312747612 -0.0012479685807338982 -0.0018586448490932016 0.0 0.0
0.0 0.045120473623794136 0.03958675855098363 -0.03823035409186534 -0.0013564044591182808 -0.0023199460492682434 0.0 0.0
0.0 0.056785232011812334 0.04971919165765689 -0.0482710092310871 -0.0014481824265697649 -0.002860882333229879 0.0 0.0
0.0 0.06992155539617301 0.06110200837329216 -0.05958808558677965 -0.0015139227865125305 -0.0034609908102145293 0.0 0.0
0.0 0.08392682371904359 0.07318857656281735 -0.07164006564476152 -0.001548510918055732 -0.003981200117714011 0.0 0.0
0.0 0.09773327420953924 0.08505985660529274 -0.0835054278090904 -0.0015544287962023814 -0.004151306063481544 0.0 0.0
0.0 0.10987558945767205 0.09549805058846286 -0.09396183052561945 -0.0015362200628433497 -0.0037124980805526907 0.0 0.0
0.0 0.11866273036955208 0.10300567588330842 -0.10153246944800122 -0.0014732064353071752 -0.0027699134399724644 0.0 0.0
0.0 0.1222064647342645 0.10587773693732166 -0.10450062656094453 -0.0013771103763771655 4.057518210309752e-15 0.0 0.0
0.0 0.11866273036953988 0.10300567588329738 -0.1015324694479904 -0.0014732064353070375 0.00276991343998315 0.0 0.0
0.0 0.10987558945764558 0.09549805058844008 -0.09396183052559638 -0.0015362200628435388 0.003712498080564571 0.0 0.0
0.0 0.09773327420950506 0.08505985660526288 -0.08350542780906108 -0.0015544287962017953 0.004151306063489438 0.0 0.0
0.0 0.08392682371900198 0.07318857656278144 -0.07164006564472614 -0.0015485109180552858 0.00398120011771522 0.0 0.0
0.0 0.06992155539612972 0.061102008373254496 -0.05958808558674232 -0.001513922786512077 0.003460990810212939 0.0 0.0
0.0 0.05678523201176934 0.049719191657619156 -0.04827100923105049 -0.0014481824265687021 0.0028608823332285276 0.0 0.0
0.0 0.045120473623748734 0.039586758550944165 -0.03823035409182639 -0.0013564044591177584 0.0023199460492670213 0.0 0.0
0.0 0.03510399906790614 0.030888462893441947 -0.0296404943127086 -0.001247968580733362 0.0018586448490910982 0.0 0.0
0.0 0.026962101739005855 0.023561700378262728 -0.022427869885693986 -0.00113383049256871 0.0014826915315744565 0.0 0.0
0.0 0.019770591210395955 0.017448761146756434 -0.016428447135837198 -0.00102031401091924 0.0011703608756188696 0.0 0.0
0.0 0.01390390466306428 0.012364828814199046 -0.011457409969784924 -0.0009074188444141061 0.0008551057617144692 0.0 0.0
0.0 0.009132943005043288 0.008197380262178762 -0.007410663470317036 -0.0007867167918617288 0.0005480047508488255 0.0 0.0
0.0 0.005382849625491867 0.004904748646313928 -0.004269475686764214 -0.0006352729595497122 0.0002854670145005863 0.0 0.0
0.0 0.002666898898080969 0.0024784923682073436 -0.0020486646458972775 -0.0004298277223100654 8.841261384275265e-05 0.0 0.0
0.0 0.0010748069875587383 0.0008612477626677706 -0.0006661257758999231 -0.0001951219867678475 -4.6890509066776614e-05 0.0 0.0
0.0 0.00021438849625932544 0.00011410975608751635 -8.231113833709379e-05 -3.17986177504229e-05 -2.556091547402988e-05 0.0 0.0
0.0 9.707202174143765e-06 1.2867353081904118e-06 -9.660468940091992e-07 -3.206884141810555e-07 -2.250201506978727e-06 0.0 0.0
0.0 -1.054764082851758e-05 -2.5097747266741396e-05 2.116633104658076e-05 3.931416220160511e-06 1.6411247757978544e-05 0.0 0.0
0.0 0.002416351266230415 0.0017205395383527258 -0.0009216651945991065 -0.0007988743437536179 0.004011676652480846 0.0 0.0
0.0 0.011280804099854958 0.00828076386546108 -0.01095769652420894 0.0026769326587478535 8.59239270892159e-05 0.0 0.0
0.0 0.008150767768939937 0.005847245599808821 -0.00797391186666137 0.0021266662668525498 -0.002033454684329432 0.0 0.0
0.0 0.0016700341967249349 0.0010391371241219069 -0.0004976492887031744 -0.000541487835418732 -0.0030298213474880802 0.0 0.0
0.0 1.2634912319597936e-08 -1.3678156687548327e-09 1.0394932843731892e-09 3.2832238438154863e-10 4.875689838480855e-10 0.0 0.0
0.0 2.4269358654992594e-06 4.164621417685482e-07 -3.29112886527161e-07 -8.734925524151304e-08 -3.963414124499124e-07 0.0 0.0
0.0 5.913351634900497e-05 2.6564442351710476e-05 -1.7929077355148465e-05 -8.635364996562225e-06 1.107083790227918e-05 0.0 0.0
0.0 0.0007068939608167999 0.000497724053652177 -0.00037568330528205514 -0.00012204074837012164 1.44411946496965e-06 0.0 0.0
0.0 0.0019393587340701458 0.0018604614245332088 -0.0015060653423226145 -0.00035439608221059503 -0.0002623141033615276 0.0 0.0
0.0 0.004377630800858905 0.003994791608983031 -0.0034260434659906746 -0.0005687481429923563 -0.0006632141812779809 0.0 0.0
0.0 0.007691917764068832 0.006935174953442146 -0.00620208826442305 -0.000733086689019092 -0.0011851533298364695 0.0 0.0
0.0 0.011997493652598923 0.010653460204020434 -0.009796574137473162 -0.000856886066547274 -0.0017863137452583965 0.0 0.0
0.0 0.01723427869242347 0.01516736550192908 -0.014200911343520528 -0.0009664541584085329 -0.0024184197993771393 0.0 0.0
0.0 0.023391998936976466 0.02056839537224765 -0.019494238981453534 -0.001074156390794115 -0.0030526251482288543 0.0 0.0
0.0 0.031009756272326165 0.027018825882388697 -0.025837300311546994 -0.0011815255708417136 -0.003729384935457033 0.0 0.0
0.0 0.03961495471424043 0.03471822591288423 -0.033435631946163585 -0.0012825939667206452 -0.004550671213907578 0.0 0.0
0.0 0.05002713579348074 0.04373637025826845 -0.04236809185049502 -0.0013682784077734633 -0.005535377900933508 0.0 0.0
0.0 0.06179429464367481 0.05392469712856908 -0.052494715877273466 -0.0014299812512955866 -0.006595678444878643 0.0 0.0
0.0 0.0744009450076976 0.06482155233838918 -0.06335647742624073 -0.0014650749121484234 -0.0074845270018760604 0.0 0.0
0.0 0.08690105692861855 0.07561912615110772 -0.0741460847094038 -0.00147304144170395 -0.007762567851769171 0.0 0.0
0.0 0.09799180690240539 0.08517171873078193 -0.08372277362468014 -0.0014489451061017588 -0.00701972872247925 0.0 0.0
0.0 0.10602666241023644 0.09206172743292568 -0.09065843603641358 -0.0014032913965120373 -0.0051380367078688255 0.0 0.0
0.0 0.10936465744967734 0.09476208088261341 -0.09348028793245369 -0.0012817929501596288 8.470654733194749e-15 0.0 0.0
0.0 0.1060266624102241 0.09206172743291421 -0.09065843603640224 -0.0014032913965119833 0.005138036707888115 0.0 0.0
0.0 0.09799180690238386 0.08517171873076301 -0.08372277362466139 -0.0014489451061017093 0.007019728722500635 0.0 0.0
0.0 0.08690105692858725 0.07561912615108057 -0.07414608470937656 -0.0014730414417039514 0.007762567851781911 0.0 0.0
0.0 0.0744009450076608 0.06482155233835732 -0.0633564774262096 -0.0014650749121477697 0.007484527001877924 0.0 0.0
0.0 0.06179429464363575 0.05392469712853501 -0.05249471587723988 -0.0014299812512951168 0.0065956784448766735 0.0 0.0
0.0 0.0500271357934433 0.04373637025823564 -0.042368091850463224 -0.0013682784077724253 0.0055353779009320305 0.0 0.0
0.0 0.03961495471420005 0.034718225912848975 -0.033435631946129085 -0.0012825939667198928 0.004550671213905313 0.0 0.0
0.0 0.031009756272285804 0.02701882588235353 -0.025837300311512417 -0.0011815255708411058 0.003729384935452865 0.0 0.0
0.0 0.023391998936938357 0.02056839537221467 -0.019494238981420955 -0.0010741563907937202 0.003052625148223209 0.0 0.0
0.0 0.017234278692391445 0.015167365501900528 -0.014200911343492627 -0.0009664541584078896 0.002418419799371217 0.0 0.0
0.0 0.011997493652572978 0.010653460203997074 -0.009796574137450395 -0.0008568860665466828 0.0017863137452532665 0.0 0.0
0.0 0.0076919177640488515 0.006935174953424029 -0.006202088264405775 -0.0007330866890182538 0.0011851533298329734 0.0 0.0
0.0 0.004377630800844307 0.003994791608969797 -0.0034260434659784756 -0.0005687481429913201 0.0006632141812750434 0.0 0.0
0.0 0.0019393587340613555 0.0018604614245245977 -0.0015060653423152263 -0.0003543960822093716 0.0002623141033599337 0.0 0.0
0.0 0.0007068939608122886 0.0004977240536486011 -0.00037568330527927406 -0.00012204074836932642 -1.4441194653435897e-06 0.0 0.0
0.0 5.9133516348258175e-05 2.6564442351789894e-05 -1.7929077355236617e-05 -8.63536499655327e-06 -1.1070837901980988e-05 0.0 0.0
0.0 2.4269358651725304e-06 4.164621417509187e-07 -3.291128865119549e-07 -8.734925523894193e-08 3.963414124199298e-07 0.0 0.0
0.0 1.2634912310065045e-08 -1.367815667713223e-09 1.0394932835817643e-09 3.283223841315191e-10 -4.875689834762404e-10 0.0 0.0
0.0 0.0016700341967187187 0.001039137124118167 -0.0004976492887007327 -0.000541487835417434 0.0030298213474780284 0.0 0.0
0.0 0.008150767768921669 0.0058472455997954 -0.007973911866643712 0.0021266662668483175 0.002033454684315707 0.0 0.0
0.0 0.006003729170352545 0.004178995674811829 -0.005825379158865095 0.0016463834840532642 -0.002259311044365711 0.0 0.0
0.0 0.0011162373342715338 0.0006506931687180702 -0.0002950632072368034 -0.00035562996148126683 -0.002141973205888831 0.0 0.0
0.0 0.0 0.0 0.0 0.0 0.0 0.0 0.0
0.0 -2.643440396309232e-07 5.674546492412087e-08 -4.279202238420706e-08 -1.395344253991743e-08 -5.705529757500409e-08 0.0 0.0
0.0 6.536412867406798e-06 -1.6887452751357204e-05 1.3465396963868781e-05 3.4220557874886694e-06 1.1556024056220551e-05 0.0 0.0
0.0 0.00032322337099534515 0.0002448266582963319 -0.00018061112837539415 -6.421552992093735e-05 -2.324435930227698e-05 0.0 0.0
0.0 0.001474765072295038 0.0012483226004219444 -0.000986352374191189 -0.0002619702262307541 -0.00028095846215442637 0.0 0.0
0.0 0.0034026155289599703 0.0030991254487357485 -0.002610662623855776 -0.0004884628248799737 -0.0008764209259268029 0.0 0.0
0.0 0.006322214132490743 0.0056744917475818534 -0.005007025838508365 -0.0006674659090734899 -0.001604622918490938 0.0 0.0
0.0 0.010102150261876518 0.00894000172114207 -0.00814154101897841 -0.0007984607021636579 -0.0024403746470822774 0.0 0.0
0.0 0.014636282931506431 0.012888379533814324 -0.011981878047864648 -0.000906501485949675 -0.0033191136855412647 0.0 0.0
0.0 0.020131390444825398 0.017582578718307998 -0.016574000724077692 -0.0010085779942302826 -0.004200927706439164 0.0 0.0
0.0 0.026460242446657775 0.023179831938829894 -0.022069837046485227 -0.0011099948923446676 -0.005127863893909415 0.0 0.0
0.0 0.03441383676570009 0.02985980565108458 -0.02865650786130804 -0.0012032977897765361 -0.006203776890171843 0.0 0.0
0.0 0.04341984007956376 0.03773889296072583 -0.036456495632116795 -0.0012823973286090358 -0.007491971934010806 0.0 0.0
0.0 0.053616324723878866 0.046714182097974406 -0.04537172251432902 -0.0013424595836453767 -0.008899015174526428 0.0 0.0
0.0 0.06490944109492422 0.05640529681683652 -0.055026721471793986 -0.001378575345042543 -0.010089217324523121 0.0 0.0
0.0 0.07616615104339672 0.06612446054419456 -0.0647371916929851 -0.001387268851209475 -0.010515519655915533 0.0 0.0
0.0 0.08623504187676627 0.07483760219177774 -0.07347026248268108 -0.0013673397090965037 -0.009620988398974167 0.0 0.0
0.0 0.09363355077938482 0.08126036578667589 -0.07993033984936429 -0.001330025937311718 -0.006906077156311634 0.0 0.0
0.0 0.09692167678728243 0.08390126168999527 -0.08274280896999595 -0.0011584527199993637 1.1013759348976748e-14 0.0 0.0
0.0 0.09363355077937505 0.08126036578666634 -0.07993033984935487 -0.0013300259373114664 0.006906077156338106 0.0 0.0
0.0 0.08623504187674687 0.07483760219176012 -0.0734702624826637 -0.0013673397090963664 0.009620988399000352 0.0 0.0
0.0 0.07616615104336968 0.06612446054417076 -0.06473719169296147 -0.0013872688512093004 0.010515519655931513 0.0 0.0
0.0 0.06490944109489093 0.056405296816807976 -0.05502672147176573 -0.0013785753450422534 0.010089217324525557 0.0 0.0
0.0 0.05361632472384413 0.04671418209794423 -0.04537172251429909 -0.001342459583645143 0.008899015174523166 0.0 0.0
0.0 0.04341984007953002 0.037738892960696366 -0.036456495632088 -0.0012823973286083836 0.007491971934008022 0.0 0.0
0.0 0.034413836765664986 0.02985980565105378 -0.02865650786127772 -0.0012032977897760422 0.00620377689016901 0.0 0.0
0.0 0.026460242446623917 0.02317983193880065 -0.022069837046456646 -0.0011099948923440068 0.0051278638939044685 0.0 0.0
0.0 0.02013139044479231 0.01758257871827873 -0.016574000724048875 -0.0010085779942298537 0.004200927706431798 0.0 0.0
0.0 0.014636282931478867 0.012888379533789945 -0.011981878047840825 -0.0009065014859491155 0.0033191136855341835 0.0 0.0
0.0 0.010102150261854577 0.008940001721122554 -0.008141541018959668 -0.0007984607021628859 0.0024403746470754717 0.0 0.0
0.0 0.0063222141324728726 0.005674491747565906 -0.005007025838493259 -0.0006674659090726438 0.0016046229184859756 0.0 0.0
0.0 0.0034026155289478234 0.003099125448724041 -0.0026106626238451814 -0.0004884628248788598 0.0008764209259229185 0.0 0.0
0.0 0.0014747650722864495 0.0012483226004148505 -0.0009863523741852947 -0.00026197022622955526 0.0002809584621523055 0.0 0.0
0.0 0.0003232233709922339 0.00024482665829434017 -0.00018061112837391272 -6.421552992042734e-05 2.3244359301989402e-05 0.0 0.0
0.0 6.536412866666635e-06 -1.6887452751195363e-05 1.3465396963741001e-05 3.422055787454326e-06 -1.1556024056063765e-05 0.0 0.0
0.0 -2.6434403948436847e-07 5.67454649230585e-08 -4.279202238347214e-08 -1.3953442539573874e-08 5.7055297572775666e-08 0.0 0.0
0.0 0.0 0.0 0.0 0.0 0.0 0.0 0.0
0.0 0.0011162373342658038 0.0006506931687147978 -0.0002950632072346201 -0.0003556299614801789 0.0021419732058798636 0.0 0.0
0.0 0.006003729170337674 0.004178995674800241 -0.005825379158849646 0.0016463834840494064 0.00225931104435577 0.0 0.0
0.0 0.004224134502691448 0.002934879824964848 -0.004158492621262774 0.0012236127962979273 -0.00195890171127622 0.0 0.0
0.0 0.0008942394421972688 0.0003746373463909048 -0.0001513117552621607 -0.00022332559112874455 -0.0013861543007197173 0.0 0.0
0.0 0.0 0.0 0.0 0.0 0.0 0.0 0.0
0.0 -2.1175026786527247e-07 1.9226471027512064e-08 -1.544969006812908e-08 -3.77678095938152e-09 -2.443498433731356e-08 0.0 0.0
0.0 -7.41133248975478e-06 -8.241108478023828e-07 6.34599523268013e-07 1.895113245343684e-07 -1.809027639074086e-07 0.0 0.0
0.0 0.00011962450753256939 5.0843803078130174e-05 -3.472870095189694e-05 -1.611510212623308e-05 1.822273195551471e-05 0.0 0.0
0.0 0.00101336751656165 0.0007281505447147447 -0.0005615756061531885 -0.00016657493856155582 -0.00023797833040206526 0.0 0.0
0.0 0.0024827972256082757 0.0022320037297562678 -0.0018367107336202365 -0.00039529299613603043 -0.0008855402400692363 0.0 0.0
0.0 0.004984433227884669 0.0044306346180562565 -0.0038442609619788407 -0.0005863736560774166 -0.001799004417273214 0.0 0.0
0.0 0.008210851702351672 0.0072377084641175055 -0.006509420489177983 -0.0007282879749395248 -0.0028099966678164032 0.0 0.0
0.0 0.012143155240099714 0.010621168876061482 -0.009783029684268672 -0.0008381391917928098 -0.0038695998527288984 0.0 0.0
0.0 0.016818996077320347 0.014620346206423267 -0.013684137910015754 -0.0009362082964075157 -0.004927359874697166 0.0 0.0
0.0 0.02243711443870018 0.01936453248847599 -0.018333835237267886 -0.001030697251208091 -0.006026790320352191 0.0 0.0
0.0 0.02881928740898984 0.025043293129330766 -0.023924807564058237 -0.0011184855652725228 -0.007281017567721194 0.0 0.0
0.0 0.0367322396200115 0.03176658643117426 -0.03057478214214302 -0.001191804289031217 -0.008758204120551148 0.0 0.0
0.0 0.04579421774300474 0.03949330689085351 -0.038245558553066474 -0.0012477483377870183 -0.010360019690525529 0.0 0.0
0.0 0.05544877516634532 0.047951516192510237 -0.04666547753415616 -0.0012860386583540635 -0.01175687157687416 0.0 0.0
0.0 0.06540792935224549 0.05657382296101731 -0.05527407399608299 -0.0012997489649343111 -0.01237249089299193 0.0 0.0
0.0 0.0745215658631794 0.06447921958320318 -0.0631932973402121 -0.0012859222429911117 -0.011459102360935633 0.0 0.0
0.0 0.08146159062611215 0.07053089128340752 -0.0692803236546241 -0.0012505676287833556 -0.008232073548359954 0.0 0.0
0.0 0.0848003753349028 0.07318182573966396 -0.07216533617466403 -0.0010164895649999422 1.2358603723727768e-14 0.0 0.0
0.0 0.08146159062610363 0.0705308912833988 -0.06928032365461517 -0.001250567628783544 0.008232073548390553 0.0 0.0
0.0 0.07452156586316228 0.06447921958318725 -0.0631932973401963 -0.0012859222429909506 0.01145910236096383 0.0 0.0
0.0 0.06540792935222298 0.05657382296099703 -0.05527407399606303 -0.0012997489649340182 0.012372490893009944 0.0 0.0
0.0 0.05544877516631788 0.047951516192486596 -0.04666547753413291 -0.0012860386583537027 0.011756871576877957 0.0 0.0
0.0 0.045794217742976276 0.03949330689082874 -0.038245558553041945 -0.0012477483377867744 0.010360019690522079 0.0 0.0
0.0 0.036732239619981844 0.03176658643114834 -0.030574782142117698 -0.0011918042890306341 0.00875820412054752 0.0 0.0
0.0 0.028819287408961045 0.025043293129305616 -0.023924807564033417 -0.001118485565272194 0.007281017567717924 0.0 0.0
0.0 0.022437114438671545 0.019364532488450794 -0.01833383523724318 -0.0010306972512076158 0.006026790320346099 0.0 0.0
0.0 0.01681899607729273 0.01462034620639905 -0.013684137909991964 -0.0009362082964070904 0.004927359874688385 0.0 0.0
0.0 0.012143155240076206 0.010621168876040919 -0.009783029684248941 -0.0008381391917919818 0.0038695998527194958 0.0 0.0
0.0 0.008210851702331537 0.007237708464099881 -0.006509420489161119 -0.0007282879749387619 0.0028099966678082604 0.0 0.0
0.0 0.004984433227869522 0.004430634618042641 -0.003844260961966074 -0.0005863736560765644 0.0017990044172673852 0.0 0.0
0.0 0.002482797225597528 0.002232003729746476 -0.0018367107336116682 -0.0003952929961348078 0.0008855402400647595 0.0 0.0
0.0 0.001013367516555444 0.0007281505447101549 -0.0005615756061494901 -0.00016657493856066499 0.0002379783304002348 0.0 0.0
0.0 0.00011962450753053708 5.084380307719372e-05 -3.472870095121216e-05 -1.6115102125981192e-05 -1.822273195565568e-05 0.0 0.0
0.0 -7.411332490367809e-06 -8.241108477151543e-07 6.345995231984215e-07 1.8951132451666685e-07 1.8090276401107449e-07 0.0 0.0
0.0 -2.117502677458955e-07 1.9226471016883667e-08 -1.5449690059872236e-08 -3.776780957015529e-09 2.4434984322558555e-08 0.0 0.0
0.0 0.0 0.0 0.0 0.0 0.0 0.0 0.0
0.0 0.0008942394421918867 0.0003746373463884567 -0.00015131175526049548 -0.00022332559112796035 0.0013861543007127023 0.0 0.0
0.0 0.004224134502679497 0.0029348798249555236 -0.004158492621250099 0.0012236127962945713 0.0019589017112692027 0.0 0.0
0.0 0.002952734176669021 0.0019650232271898327 -0.0028199626054356774 0.0008549393782458453 -0.0015176267554433908 0.0 0.0
0.0 0.00044416421583598405 0.00019398132014201134 -6.156556150043859e-05 -0.00013241575864157291 -0.0008257921010133 0.0 0.0
0.0 0.0 0.0 0.0 0.0 0.0 0.0 0.0
0.0 9.284367499638105e-09 -7.860409871244372e-10 5.99985333389106e-10 1.8605565373520125e-10 1.1788236078775784e-09 0.0 0.0
0.0 -2.518142369719963e-06 -1.0115964423391346e-06 8.152266095781223e-07 1.9636983276102253e-07 1.2019895418812024e-06 0.0 0.0
0.0 -3.3143578850279017e-06 -3.385766553145988e-06 3.988493837244497e-06 -6.027272840986045e-07 2.046358400855366e-05 0.0 0.0
0.0 0.0004243112527084053 0.0003672474881933575 -0.0002775320402105119 -8.971544798284578e-05 -0.0001835399976117314 0.0 0.0
0.0 0.0018943945174800312 0.0014085352105165025 -0.0011294390939620039 -0.0002790961165544998 -0.000731820294705913 0.0 0.0
0.0 0.0035680738340549013 0.003223583878737002 -0.0027360841682401963 -0.0004874997104968035 -0.0017391892350366745 0.0 0.0
0.0 0.0063997678139140176 0.00555855504286136 -0.004917873279197732 -0.0006406817636636232 -0.0028825384757009726 0.0 0.0
0.0 0.009674081035220012 0.00837980362054623 -0.007622824330082876 -0.0007569792904633572 -0.004056165065526303 0.0 0.0
0.0 0.013539391065571874 0.011693459155587553 -0.01083969723108073 -0.000853761924506823 -0.00522632653994789 0.0 0.0
0.0 0.01811354695628951 0.015602788802686268 -0.014659232739189915 -0.0009435560634963545 -0.006421456815452019 0.0 0.0
0.0 0.02366185726951034 0.02027331693765865 -0.01924901994991572 -0.0010242969877429394 -0.00775606999375186 0.0 0.0
0.0 0.030118036371640778 0.025842970592270677 -0.02474992365857267 -0.0010930469336980166 -0.009315948412177387 0.0 0.0
0.0 0.03752932762429091 0.03231264501920821 -0.03116550904261077 -0.0011471359765974408 -0.011004387206702406 0.0 0.0
0.0 0.04616656514174759 0.039485826289089226 -0.03830074634129468 -0.0011850799477945493 -0.012496440082235953 0.0 0.0
0.0 0.054732564070930044 0.0469645497988689 -0.04575877467311121 -0.0012057751257577034 -0.013262086502327176 0.0 0.0
0.0 0.06270677132152802 0.05406399503675997 -0.05286244375583545 -0.0012015512809244876 -0.012495557454980814 0.0 0.0
0.0 0.06930946083232581 0.059799762760228865 -0.05863375105112201 -0.001166011709106845 -0.0091465095567006 0.0 0.0
0.0 0.07279521392658704 0.0625149705742682 -0.061658294900213996 -0.0008566756740541731 1.2932363513407097e-14 0.0 0.0
0.0 0.06930946083231791 0.05979976276022041 -0.05863375105111326 -0.0011660117091072154 0.009146509556730447 0.0 0.0
0.0 0.06270677132151274 0.05406399503674532 -0.05286244375582066 -0.0012015512809246424 0.012495557455009736 0.0 0.0
0.0 0.054732564070911635 0.04696454979885215 -0.04575877467309465 -0.001205775125757485 0.01326208650234489 0.0 0.0
0.0 0.04616656514172486 0.03948582628906958 -0.038300746341275706 -0.001185079947793881 0.012496440082238906 0.0 0.0
0.0 0.03752932762426569 0.03231264501918632 -0.031165509042589197 -0.001147135976597131 0.011004387206698144 0.0 0.0
0.0 0.030118036371616804 0.02584297059224955 -0.024749923658552345 -0.0010930469336972097 0.009315948412172972 0.0 0.0
0.0 0.023661857269487656 0.020273316937638404 -0.019249019949896133 -0.0010242969877422782 0.007756069993747894 0.0 0.0
0.0 0.018113546956265065 0.015602788802665347 -0.01465923273916911 -0.0009435560634962288 0.00642145681544593 0.0 0.0
0.0 0.013539391065548257 0.011693459155567186 -0.010839697231060794 -0.0008537619245063817 0.00522632653993906 0.0 0.0
0.0 0.009674081035199227 0.008379803620528543 -0.007622824330066021 -0.0007569792904625252 0.004056165065515918 0.0 0.0
0.0 0.006399767813896693 0.005558555042846181 -0.0049178732791832595 -0.0006406817636629174 0.002882538475691639 0.0 0.0
0.0 0.003568073834043113 0.0032235838787259925 -0.002736084168230235 -0.00048749971049575887 0.0017391892350305514 0.0 0.0
0.0 0.0018943945174708572 0.0014085352105093884 -0.001129439093955955 -0.00027909611655343346 0.0007318202947018946 0.0 0.0
0.0 0.0004243112527046529 0.00036724748819069156 -0.0002775320402085128 -8.971544798217857e-05 0.00018353999761037723 0.0 0.0
0.0 -3.314357885667811e-06 -3.3857665529685627e-06 3.9884938370944895e-06 -6.027272841259412e-07 -2.0463584008137826e-05 0.0 0.0
0.0 -2.518142369794274e-06 -1.011596442366607e-06 8.152266096000687e-07 1.96369832766524e-07 -1.2019895419369598e-06 0.0 0.0
0.0 9.284367478450311e-09 -7.860409853173938e-10 5.99985332009828e-10 1.8605565330757216e-10 -1.1788236051675036e-09 0.0 0.0
0.0 0.0 0.0 0.0 0.0 0.0 0.0 0.0
0.0 0.0004441642158319942 0.00019398132014040819 -6.156556149937947e-05 -0.00013241575864102827 0.000825792101008259 0.0 0.0
0.0 0.002952734176659703 0.0019650232271825815 -0.002819962605425615 0.0008549393782430316 0.0015176267554381448 0.0 0.0
0.0 0.0018019121458547963 0.0012273393148249353 -0.0017738099495180142 0.0005464706346930787 -0.0010930472502471505 0.0 0.0
0.0 0.00021836379994266233 6.344811779747141e-05 9.856869238694622e-06 -7.330498703616606e-05 -0.0003934103211802508 0.0 0.0
0.0 0.0 0.0 0.0 0.0 0.0 0.0 0.0
0.0 0.0 0.0 0.0 0.0 0.0 0.0 0.0
0.0 -2.1893743351097813e-06 1.8837590469824194e-07 -1.489082436008002e-07 -3.946766109743056e-08 -4.875135864636461e-07 0.0 0.0
0.0 -1.767428505086175e-05 -1.5820954958769618e-05 1.268086621658102e-05 3.1400887421886883e-06 2.753235475392952e-05 0.0 0.0
0.0 0.00015844014031001646 0.00010077440637290541 -7.489009161881081e-05 -2.588431475409476e-05 -6.471718963971468e-05 0.0 0.0
0.0 0.000920585609615651 0.0007740757846238501 -0.0006057773815538963 -0.00016829840306995382 -0.0005589206949026155 0.0 0.0
0.0 0.0027489219102558578 0.0020497983152950334 -0.0016949319237200256 -0.00035486639157500665 -0.0014101459585005372 0.0 0.0
0.0 0.004510201078915014 0.0039274695408615945 -0.003398734288703045 -0.000528735252158553 -0.002624980421600716 0.0 0.0
0.0 0.0072779327941074265 0.0061795503565270065 -0.005525053790869813 -0.0006544965656571926 -0.003860121070675439 0.0 0.0
0.0 0.010380678917519712 0.0088139961089493 -0.008059299810589688 -0.0007546962983596124 -0.005078547157017398 0.0 0.0
0.0 0.014000879745577276 0.011901800037946072 -0.011059323337058984 -0.0008424767008870954 -0.006299145392743132 0.0 0.0
0.0 0.018338071066868297 0.015585996067127105 -0.014667047631753012 -0.0009189484353740912 -0.0076295602746671645 0.0 0.0
0.0 0.02348724920456978 0.019999168026280066 -0.01901589232776123 -0.0009832756985188231 -0.009146362260069065 0.0 0.0
0.0 0.029831001561619212 0.025186304367951676 -0.024152714594501454 -0.0010335897734502224 -0.010803387939879755 0.0 0.0
0.0 0.036344219786024305 0.031054396728276527 -0.029980521985302187 -0.0010738747429743481 -0.012310494907889272 0.0 0.0
0.0 0.04382504558653839 0.037321808106581596 -0.03621942061887978 -0.0011023874877017846 -0.013174076024678434 0.0 0.0
0.0 0.05113128839878571 0.043552444485396184 -0.042443120554886374 -0.0011093239305098234 -0.012669412067070224 0.0 0.0
0.0 0.05724456303191787 0.04898365483549238 -0.04790776540707916 -0.001075889428413207 -0.009616029069203214 0.0 0.0
0.0 0.0609963837956199 0.051811400587721185 -0.05113426556732092 -0.0006771350204003122 1.2176024077881209e-14 0.0 0.0
0.0 0.05724456303191203 0.048983654835485224 -0.04790776540707207 -0.001075889428413114 0.009616029069231194 0.0 0.0
0.0 0.051131288398772706 0.04355244448538326 -0.04244312055487317 -0.0011093239305101077 0.012669412067098203 0.0 0.0
0.0 0.0438250455865232 0.03732180810656744 -0.03621942061886581 -0.0011023874877016057 0.013174076024694942 0.0 0.0
0.0 0.036344219786004196 0.031054396728259326 -0.02998052198528555 -0.0010738747429737572 0.012310494907890806 0.0 0.0
0.0 0.029831001561596487 0.02518630436793242 -0.024152714594482046 -0.0010335897734503742 0.010803387939873715 0.0 0.0
0.0 0.02348724920455039 0.01999916802626288 -0.019015892327744484 -0.0009832756985183732 0.009146362260063729 0.0 0.0
0.0 0.01833807106684965 0.015585996067110516 -0.014667047631737136 -0.000918948435373384 0.007629560274662816 0.0 0.0
0.0 0.014000879745559604 0.011901800037930916 -0.011059323337044473 -0.0008424767008864381 0.006299145392737909 0.0 0.0
0.0 0.010380678917499973 0.008813996108932888 -0.008059299810573475 -0.0007546962983594226 0.005078547157008178 0.0 0.0
0.0 0.007277932794091121 0.006179550356513253 -0.0055250537908570225 -0.0006544965656562267 0.0038601210706651614 0.0 0.0
0.0 0.00451020107890184 0.0039274695408504185 -0.003398734288692559 -0.0005287352521578595 0.002624980421592165 0.0 0.0
0.0 0.002748921910245225 0.002049798315287072 -0.0016949319237130438 -0.0003548663915740286 0.0014101459584949984 0.0 0.0
0.0 0.0009205856096099943 0.0007740757846194734 -0.0006057773815503314 -0.00016829840306914105 0.0005589206948995215 0.0 0.0
0.0 0.0001584401403069112 0.00010077440637122475 -7.489009161753427e-05 -2.5884314753690534e-05 6.471718963833245e-05 0.0 0.0
0.0 -1.7674285051432684e-05 -1.5820954958446966e-05 1.2680866216330307e-05 3.1400887421165736e-06 -2.7532354753552055e-05 0.0 0.0
0.0 -2.1893743349304102e-06 1.8837590470255246e-07 -1.4890824360477526e-07 -3.9467661097773934e-08 4.875135864837118e-07 0.0 0.0
0.0 0.0 0.0 0.0 0.0 0.0 0.0 0.0
0.0 0.0 0.0 0.0 0.0 0.0 0.0 0.0
0.0 0.0002183637999397192 6.34481177964465e-05 9.856869239364117e-06 -7.330498703581085e-05 0.000393410321176725 0.0 0.0
0.0 0.0018019121458478558 0.0012273393148195995 -0.0017738099495104261 0.000546470634690827 0.0010930472502432482 0.0 0.0
0.0 0.0013608968424500814 0.0006245777526172483 -0.000905193659849085 0.00028061590723183665 -0.0006292841044670643 0.0 0.0
0.0 -1.642039736625336e-05 -3.6868011105625595e-06 3.740575269072754e-05 -3.371895158016502e-05 -0.00011814816421285814 0.0 0.0
0.0 1.501239477888374e-07 -8.943371455963241e-10 1.017711353153143e-09 -1.233742075570957e-10 2.99033348444305e-08 0.0 0.0
0.0 0.0 0.0 0.0 0.0 0.0 0.0 0.0
0.0 -8.122373263980303e-07 -8.330929875656167e-08 6.930556084099568e-08 1.4003737915571907e-08 1.854346023344105e-07 0.0 0.0
0.0 -8.289683930776062e-06 -5.22379163104429e-06 4.147577654115398e-06 1.0762139769288587e-06 1.4315830304115978e-05 0.0 0.0
0.0 7.853143017522767e-07 -8.425593545381477e-06 7.321724975401587e-06 1.1038685699797788e-06 2.1193118729186335e-05 0.0 0.0
0.0 0.00035767869095630926 0.00029056276782049367 -0.00022468470104302155 -6.587806677747211e-05 -0.0003294976460120929 0.0 0.0
0.0 0.0013697411044613507 0.0010783184532140886 -0.0008677451551766561 -0.00021057329803743214 -0.0010053934623414135 0.0 0.0
0.0 0.0031811182706606217 0.002359152799506478 -0.001986408109180266 -0.0003727446903262126 -0.0020185132733966282 0.0 0.0
0.0 0.004971473624839946 0.0040421203243024275 -0.0035283981407563947 -0.0005137221835460292 -0.00324988242734521 0.0 0.0
0.0 0.007254220896495034 0.0060070315830749905 -0.005383060820977417 -0.0006239707620975778 -0.004449987665254949 0.0 0.0
0.0 0.010000054040163107 0.008287094164909112 -0.007571675155739074 -0.0007154190091700349 -0.005635172263255321 0.0 0.0
0.0 0.01321697139749164 0.011001730801005055 -0.010210751771516723 -0.0007909790294883284 -0.006879485503164437 0.0 0.0
0.0 0.017182684316992648 0.014268179112464195 -0.013415111307618991 -0.0008530678048452038 -0.00826121059848452 0.0 0.0
0.0 0.021776088484468135 0.018170627623015627 -0.01726778684144204 -0.0009028407815735827 -0.009751891979702169 0.0 0.0
0.0 0.027287608566183553 0.02268021882947785 -0.021737377173818045 -0.0009428416556598049 -0.011166397104528037 0.0 0.0
0.0 0.03306206218299457 0.027670740894452203 -0.02669229616139198 -0.0009784447330602034 -0.012068032691743356 0.0 0.0
0.0 0.03894564692810646 0.032936168060470894 -0.03193262438788541 -0.0010035436725855198 -0.011899672911991411 0.0 0.0
0.0 0.044820900922291886 0.03800483731002487 -0.03702577004765809 -0.0009790672623667814 -0.009562677660065124 0.0 0.0
0.0 0.04899154633295691 0.040981565927572364 -0.04050868933651655 -0.00047287659105577377 9.515391946601781e-15 0.0 0.0
0.0 0.04482090092228856 0.038004837310019565 -0.03702577004765265 -0.0009790672623669124 0.009562677660089804 0.0 0.0
0.0 0.03894564692809826 0.0329361680604616 -0.03193262438787612 -0.0010035436725854905 0.011899672912017531 0.0 0.0
0.0 0.03306206218298237 0.027670740894440864 -0.02669229616138085 -0.0009784447330600443 0.012068032691757286 0.0 0.0
0.0 0.027287608566167576 0.02268021882946425 -0.021737377173805 -0.0009428416556592493 0.011166397104527928 0.0 0.0
0.0 0.021776088484450642 0.018170627623001253 -0.01726778684142773 -0.0009028407815735474 0.009751891979695622 0.0 0.0
0.0 0.017182684316978208 0.014268179112451715 -0.013415111307606746 -0.0008530678048449709 0.008261210598479498 0.0 0.0
0.0 0.013216971397476743 0.011001730800992253 -0.010210751771504411 -0.0007909790294878383 0.006879485503159916 0.0 0.0
0.0 0.010000054040149788 0.008287094164897927 -0.007571675155728583 -0.0007154190091693459 0.00563517226324977 0.0 0.0
0.0 0.007254220896481262 0.0060070315830634295 -0.005383060820966301 -0.0006239707620971246 0.004449987665246749 0.0 0.0
0.0 0.004971473624828166 0.004042120324292976 -0.003528398140747801 -0.0005137221835451718 0.003249882427335972 0.0 0.0
0.0 0.0031811182706499193 0.0023591527994982282 -0.0019864081091728247 -0.00037274469032540317 0.0020185132733890002 0.0 0.0
0.0 0.001369741104455075 0.0010783184532093043 -0.0008677451551727189 -0.00021057329803658495 0.001005393462337699 0.0 0.0
0.0 0.0003576786909529079 0.00029056276781816025 -0.00022468470104115815 -6.587806677700234e-05 0.000329497646009677 0.0 0.0
0.0 7.853143009757452e-07 -8.425593545629706e-06 7.321724975593223e-06 1.1038685700364038e-06 -2.119311872960535e-05 0.0 0.0
0.0 -8.289683931481536e-06 -5.223791630656467e-06 4.1475776538066465e-06 1.076213976849864e-06 -1.4315830303035329e-05 0.0 0.0
0.0 -8.12237326344323e-07 -8.330929883012658e-08 6.930556090011402e-08 1.4003737930007444e-08 -1.8543460255375947e-07 0.0 0.0
0.0 0.0 0.0 0.0 0.0 0.0 0.0 0.0
0.0 1.5012394747879627e-07 -8.94337143643398e-10 1.0177113510135556e-09 -1.2337420737023362e-10 -2.990333478189685e-08 0.0 0.0
0.0 -1.6420397367698972e-05 -3.6868011109864122e-06 3.740575269094877e-05 -3.37189515799625e-05 0.00011814816421099148 0.0 0.0
0.0 0.0013608968424436488 0.0006245777526137517 -0.0009051936598440315 0.0002806159072302805 0.0006292841044641298 0.0 0.0
0.0 0.0005191048235340299 0.0002678814811889925 -0.00039020536398679374 0.00012232388279780196 -0.0003366248032073771 0.0 0.0
0.0 -5.1230382774092596e-05 -2.7100606242341184e-05 4.216990935103355e-05 -1.506930310869243e-05 2.1143513898130234e-05 0.0 0.0
0.0 2.2756234019458266e-06 -3.622856323065417e-09 1.1119213435067454e-08 -7.496357112000574e-09 4.94855934509731e-07 0.0 0.0
0.0 7.008288629186086e-07 1.57318054483748e-09 -2.4788671397122456e-09 9.056865948736081e-10 1.455466505324995e-07 0.0 0.0
0.0 6.203853335845862e-07 -8.930124675451069e-09 4.142833436282042e-09 4.787291239169043e-09 1.4030307928199083e-07 0.0 0.0
0.0 -1.147274748864451e-05 -5.965802397277571e-07 4.85808700407909e-07 1.1077153931985317e-07 3.2728687936861257e-06 0.0 0.0
0.0 -7.5457984517119645e-06 -1.38254746260344e-05 1.1101819973839073e-05 2.723654652195292e-06 4.396328763632175e-05 0.0 0.0
0.0 0.00010793973981842234 1.6799215456637784e-05 -1.3565897700729929e-05 -3.233317755907822e-06 -6.0670646615091956e-05 0.0 0.0
0.0 0.0005173718624372292 0.0003283003557300198 -0.0002634391155877821 -6.486124014223746e-05 -0.0005389542808544727 0.0 0.0
0.0 0.001502896066463732 0.0010202738374533668 -0.0008411978194705253 -0.00017907601798284199 -0.0012668165707257967 0.0 0.0
0.0 0.0026836604697351484 0.0020533563556226833 -0.0017429227144024504 -0.0003104336412202331 -0.0022678463922822657 0.0 0.0
0.0 0.0042936828093381 0.003316786184951832 -0.002892770565844279 -0.0004240156191075533 -0.0033184862194303873 0.0 0.0
0.0 0.006125713536819717 0.004800886516894014 -0.004275466215284463 -0.0005254203016095469 -0.004398783446256517 0.0 0.0
0.0 0.00828413928976292 0.006568593203880528 -0.005960305658428591 -0.0006082875454519295 -0.005506417370111827 0.0 0.0
0.0 0.010939525929275037 0.008709433116246555 -0.008034055461110745 -0.000675377655135815 -0.00667067187130796 0.0 0.0
0.0 0.014190480674430362 0.011316524856663334 -0.010587831517363335 -0.0007286933393000011 -0.00791317439208331 0.0 0.0
0.0 0.01803483771987326 0.014444596883242298 -0.013669372937020181 -0.0007752239462221034 -0.009145908112584224 0.0 0.0
0.0 0.02225741030712099 0.01808493112207386 -0.017270092694273466 -0.0008148384278004075 -0.010044568402532796 0.0 0.0
0.0 0.027023332817771733 0.022221048706150544 -0.021363915653483858 -0.0008571330526666652 -0.010115197499370582 0.0 0.0
0.0 0.032458301819248685 0.02678082116081037 -0.025915229409920117 -0.0008655917508902351 -0.008774952647807439 0.0 0.0
0.0 0.036864767502569104 0.029931005086671972 -0.029690302355810164 -0.0002407027308618354 7.724289957655728e-15 0.0 0.0
0.0 0.03245830181924766 0.026780821160806698 -0.025915229409916203 -0.0008655917508905033 0.008774952647828547 0.0 0.0
0.0 0.027023332817766796 0.02222104870614413 -0.021363915653477703 -0.0008571330526664137 0.010115197499391803 0.0 0.0
0.0 0.02225741030711217 0.018084931122066043 -0.0172700926942658 -0.00081483842780023 0.010044568402542878 0.0 0.0
0.0 0.018034837719860537 0.01444459688323207 -0.01366937293701058 -0.0007752239462214851 0.00914590811258183 0.0 0.0
0.0 0.014190480674418797 0.01131652485665415 -0.010587831517354415 -0.0007286933392997167 0.007913174392077083 0.0 0.0
0.0 0.010939525929265493 0.008709433116238495 -0.008034055461102996 -0.0006753776551354947 0.006670671871303942 0.0 0.0
0.0 0.008284139289753932 0.006568593203873162 -0.005960305658421473 -0.0006082875454516916 0.005506417370108501 0.0 0.0
0.0 0.006125713536811723 0.004800886516887294 -0.004275466215278226 -0.0005254203016090666 0.0043987834462521054 0.0 0.0
0.0 0.004293682809328443 0.0033167861849448975 -0.0028927705658379067 -0.00042401561910699123 0.0033184862194232177 0.0 0.0
0.0 0.0026836604697279987 0.0020533563556170893 -0.0017429227143975071 -0.00031043364121958165 0.0022678463922753034 0.0 0.0
0.0 0.0015028960664568612 0.0010202738374486809 -0.000841197819466553 -0.00017907601798212736 0.001266816570720455 0.0 0.0
0.0 0.0005173718624334146 0.00032830035572756666 -0.0002634391155857749 -6.486124014179164e-05 0.0005389542808515117 0.0 0.0
0.0 0.00010793973981683355 1.679921545601174e-05 -1.3565897700237587e-05 -3.2333177557740502e-06 6.067064661373042e-05 0.0 0.0
0.0 -7.54579845279209e-06 -1.3825474625537574e-05 1.1101819973451998e-05 2.723654652085626e-06 -4.3963287635281355e-05 0.0 0.0
0.0 -1.1472747488662375e-05 -5.965802395981827e-07 4.8580870031205e-07 1.1077153928609856e-07 -3.2728687927766796e-06 0.0 0.0
0.0 6.203853333497017e-07 -8.930124706020098e-09 4.14283345960453e-09 4.787291246426059e-09 -1.4030307945441883e-07 0.0 0.0
0.0 7.008288627170988e-07 1.5731805444119602e-09 -2.4788671389033304e-09 9.05686594490751e-10 -1.455466504885613e-07 0.0 0.0
0.0 2.2756234013447927e-06 -3.6228563214464765e-09 1.1119213431972399e-08 -7.496357110524799e-09 -4.948559343785076e-07 0.0 0.0
0.0 -5.123038277436274e-05 -2.71006062421001e-05 4.216990935066816e-05 -1.5069303108568031e-05 -2.1143513897865394e-05 0.0 0.0
0.0 0.0005191048235297337 0.0002678814811869915 -0.00039020536398393194 0.0001223238827969403 0.0003366248032050717 0.0 0.0
0.0 0.00014730201411985002 4.1972123197853405e-05 -6.267529097648738e-05 2.0703167778634103e-05 -5.638759729278551e-05 0.0 0.0
0.0 -1.7957151375684392e-05 -7.417922326907274e-06 1.0347547293672971e-05 -2.9296249667656932e-06 1.3074881393851373e-05 0.0 0.0
0.0 4.904906534845601e-07 1.657863194345642e-10 1.243860812621173e-09 -1.409647132054926e-09 9.891225419119818e-08 0.0 0.0
0.0 4.096640072979324e-07 9.90752011270457e-09 -8.396156044114786e-09 -1.5113640685919163e-09 8.098632487915903e-08 0.0 0.0
0.0 1.367409133575924e-07 2.4225683242075954e-08 -1.921154701479498e-08 -5.0141362272726095e-09 2.009607738355318e-09 0.0 0.0
0.0 -1.7527228372108768e-06 -7.954509171813361e-07 6.132859358990335e-07 1.821649812822768e-07 7.831964671700587e-06 0.0 0.0
0.0 -3.494746349976962e-06 -3.783662458954972e-06 3.054774504972758e-06 7.288879539822349e-07 2.417118580459506e-05 0.0 0.0
0.0 4.843705020399575e-05 1.0061231479598848e-06 -6.114100687111341e-07 -3.947130792487457e-07 -4.954293956998281e-05 0.0 0.0
0.0 0.00013850563833953984 1.1777186980000228e-05 -1.0744093681742701e-05 -1.033093298257534e-06 -0.00020501621015646965 0.0 0.0
0.0 0.00039604772161222447 0.00012883268184903248 -0.00011286358240291244 -1.5969099446120205e-05 -0.00056372925024174 0.0 0.0
0.0 0.0010078207655186363 0.0004164233124143292 -0.0003713560781833048 -4.5067234231024334e-05 -0.001126212540347461 0.0 0.0
0.0 0.0016408673176706058 0.0009153282698859137 -0.0008157876993363833 -9.954057054953013e-05 -0.0019289142502646774 0.0 0.0
0.0 0.0026075886091010653 0.0015863411410614457 -0.001417258058988226 -0.0001690830820732187 -0.0027973868627524123 0.0 0.0
0.0 0.003818181239093554 0.0024241995645318815 -0.0021849043206759755 -0.0002392952438559082 -0.003731125316285931 0.0 0.0
0.0 0.005270817674827282 0.0034712471568813436 -0.0031585951486854348 -0.000312652008195904 -0.004723562793334384 0.0 0.0
0.0 0.007071255845978255 0.0047930933053524855 -0.004405395263167218 -0.00038769804218526555 -0.005786378497467632 0.0 0.0
0.0 0.009391988960150126 0.006506225118963357 -0.00604096258967551 -0.0004652625292878501 -0.006919621583388078 0.0 0.0
0.0 0.012366006772455694 0.008747941597260356 -0.008212169160483965 -0.0005357724367763859 -0.007880709967491224 0.0 0.0
0.0 0.015808015087243204 0.011613318706336234 -0.011019894755582802 -0.0005934239507534427 -0.008106458515092084 0.0 0.0
0.0 0.019913222585383642 0.0153380272026705 -0.014662528377478744 -0.0006754988251917477 -0.0072229651133175815 0.0 0.0
0.0 0.025436416841534974 0.018589264249136827 -0.01863041016459183 4.1145915454990486e-05 6.803151791912043e-15 0.0 0.0
0.0 0.019913222585386837 0.01533802720266982 -0.014662528377478003 -0.0006754988251918115 0.007222965113334923 0.0 0.0
0.0 0.015808015087240005 0.011613318706332117 -0.011019894755578878 -0.0005934239507532397 0.008106458515106621 0.0 0.0
0.0 0.012366006772449326 0.008747941597255409 -0.008212169160479043 -0.0005357724367763697 0.007880709967497235 0.0 0.0
0.0 0.009391988960140162 0.00650622511895719 -0.006040962589669636 -0.00046526252928755403 0.006919621583383245 0.0 0.0
0.0 0.00707125584597207 0.004793093305348239 -0.004405395263163188 -0.0003876980421850501 0.005786378497462216 0.0 0.0
0.0 0.005270817674822626 0.0034712471568776127 -0.003158595148681791 -0.0003126520081958219 0.004723562793331094 0.0 0.0
0.0 0.00381818123909063 0.0024241995645302534 -0.00218490432067477 -0.0002392952438554842 0.003731125316284634 0.0 0.0
0.0 0.0026075886090969236 0.0015863411410589755 -0.0014172580589859787 -0.00016908308207299642 0.002797386862748334 0.0 0.0
0.0 0.0016408673176658063 0.000915328269883353 -0.0008157876993340969 -9.954057054925597e-05 0.0019289142502591603 0.0 0.0
0.0 0.0010078207655143505 0.00041642331241226123 -0.0003713560781814904 -4.50672342307702e-05 0.0011262125403422682 0.0 0.0
0.0 0.00039604772160966857 0.00012883268184815723 -0.00011286358240210145 -1.5969099446055878e-05 0.0005637292502398375 0.0 0.0
0.0 0.00013850563833859672 1.1777186979792466e-05 -1.0744093681572219e-05 -1.0330932982202283e-06 0.00020501621015508775 0.0 0.0
0.0 4.843705020282646e-05 1.0061231479253295e-06 -6.114100686756029e-07 -3.9471307924975054e-07 4.954293956921039e-05 0.0 0.0
0.0 -3.494746350216519e-06 -3.783662458900996e-06 3.054774504928878e-06 7.288879539721321e-07 -2.417118580418691e-05 0.0 0.0
0.0 -1.7527228377647586e-06 -7.954509172038413e-07 6.132859359155524e-07 1.8216498128828991e-07 -7.831964671759877e-06 0.0 0.0
0.0 1.3674091297760765e-07 2.4225683250214316e-08 -1.9211547020173464e-08 -5.014136230044048e-09 -2.0096076000641993e-09 0.0 0.0
0.0 4.096640068308793e-07 9.90752010832275e-09 -8.39615604017302e-09 -1.5113640681489081e-09 -8.098632478345155e-08 0.0 0.0
0.0 4.904906531626781e-07 1.6578631977491283e-10 1.243860811084672e-09 -1.4096471308637654e-09 -9.891225412407074e-08 0.0 0.0
0.0 -1.795715137614883e-05 -7.41792232679819e-06 1.034754729352387e-05 -2.9296249667256743e-06 -1.307488139362993e-05 0.0 0.0
0.0 0.0001473020141179936 4.197212319734429e-05 -6.267529097573342e-05 2.0703167778389026e-05 5.638759729213258e-05 0.0 0.0
0.0 2.970923834540071e-06 2.9862953340218296e-06 -4.632473086315491e-06 1.6461777522936163e-06 -4.696562373786141e-06 0.0 0.0
0.0 -1.6983890439929914e-06 -3.8615753505432506e-07 6.00698380810395e-07 -2.1454084575605754e-07 3.6120410206042154e-07 0.0 0.0
0.0 3.6187657992177032e-06 1.0195274959671077e-08 7.11349756412122e-09 -1.7308772523796264e-08 7.81723116672718e-07 0.0 0.0
0.0 1.2405663355666563e-06 2.296314495505155e-08 -1.9338392250235115e-08 -3.624752704813151e-09 2.542797602654144e-07 0.0 0.0
0.0 7.821947515459587e-08 1.9553413154148733e-08 -1.741372149231297e-08 -2.139691661835925e-09 -6.284691891100786e-09 0.0 0.0
0.0 -2.981853363979679e-06 5.939530395324783e-08 -5.600943020409539e-08 -3.385873749149334e-09 7.710500591487639e-06 0.0 0.0
0.0 7.721967871549633e-07 -1.0528160385761677e-07 8.131694114236656e-08 2.3964662715239155e-08 2.2865025500433964e-05 0.0 0.0
0.0 3.9722450120030614e-05 -2.916241472466949e-07 2.9917573902460293e-07 -7.551591777900963e-09 -6.713787379876023e-05 0.0 0.0
0.0 0.00016352546765970234 -2.6844413853995943e-08 2.708599568299765e-08 -2.4158182896697714e-10 -0.00019649955949772678 0.0 0.0
0.0 0.0002587843188033441 1.4657057212151615e-07 -1.1164955135805836e-07 -3.492102076346677e-08 -0.0004356792100030398 0.0 0.0
0.0 0.0005078022324609669 -2.5539779812426776e-06 1.6405167082882356e-06 9.134612729543805e-07 -0.0007152607909878486 0.0 0.0
0.0 0.0006468732882741508 1.5016657910072545e-06 -1.1304109922164502e-06 -3.7125479879073986e-07 -0.0011992422192744706 0.0 0.0
0.0 0.000910097498518877 2.1604698761841377e-06 -1.4703461456552885e-06 -6.901237305288423e-07 -0.0018042247217939479 0.0 0.0
0.0 0.001259454879449394 4.670797857603357e-07 7.982442799320179e-07 -1.265324065692225e-06 -0.0025887544557912866 0.0 0.0
0.0 0.0017851951828033962 -1.1123523050398819e-05 1.1082831838257875e-05 4.06912121404823e-08 -0.003583102347265977 0.0 0.0
0.0 0.0025582527882665007 4.8519884763127685e-05 -6.270763050689453e-05 1.4187745743766332e-05 -0.004789736033648999 0.0 0.0
0.0 0.003570088412621509 0.0003116320714536032 -0.0003617918967662039 5.015982531260106e-05 -0.006117553898386322 0.0 0.0
0.0 0.004835729620166798 0.0009016671009156336 -0.0010355618338596694 0.00013389473294403634 -0.007443193118480547 0.0 0.0
0.0 0.006768005734833747 0.0018004828495581163 -0.0019973005814460983 0.0001968177318879815 -0.008481987606271123 0.0 0.0
0.0 0.009962209449653524 0.004085765716195975 -0.003978040535616429 -0.00010772518057954324 -0.008449442043605487 0.0 0.0
0.0 0.01724451835857642 0.007802761692056412 -0.008258471428332493 0.000455709736276086 7.419412306752804e-15 0.0 0.0
0.0 0.009962209449658546 0.004085765716196073 -0.0039780405356167736 -0.00010772518057929895 0.008449442043619708 0.0 0.0
0.0 0.0067680057348309935 0.0018004828495569569 -0.001997300581444869 0.0001968177318879139 0.00848198760627297 0.0 0.0
0.0 0.0048357296201622 0.0009016671009140489 -0.001035561833857355 0.00013389473294330632 0.007443193118477206 0.0 0.0
0.0 0.003570088412614812 0.0003116320714537707 -0.00036179189676650007 5.015982531272892e-05 0.006117553898379178 0.0 0.0
0.0 0.0025582527882629636 4.851988476399342e-05 -6.270763050791227e-05 1.4187745743919367e-05 0.004789736033644711 0.0 0.0
0.0 0.0017851951828008407 -1.1123523050552884e-05 1.1082831838547086e-05 4.0691212005648206e-08 0.003583102347262733 0.0 0.0
0.0 0.001259454879448292 4.670797859801848e-07 7.982442797081302e-07 -1.2653240656882337e-06 0.002588754455788839 0.0 0.0
0.0 0.0009100974985155856 2.160469876267201e-06 -1.4703461457756146e-06 -6.901237304916339e-07 0.001804224721787374 0.0 0.0
0.0 0.000646873288272414 1.5016657910581476e-06 -1.1304109922390863e-06 -3.7125479881908497e-07 0.0011992422192704448 0.0 0.0
0.0 0.00050780223245799 -2.5539779810401054e-06 1.640516708133106e-06 9.134612729070045e-07 0.0007152607909833423 0.0 0.0
0.0 0.000258784318803856 1.4657057219110925e-07 -1.1164955143203316e-07 -3.492102075904983e-08 0.00043567921000327054 0.0 0.0
0.0 0.00016352546765863478 -2.684441384237804e-08 2.7085995676018097e-08 -2.4158183365445747e-10 0.0001964995594962807 0.0 0.0
0.0 3.9722450119211974e-05 -2.916241472532403e-07 2.99175739041382e-07 -7.55159178812645e-09 6.71378737980381e-05 0.0 0.0
0.0 7.721967867941476e-07 -1.0528160386186279e-07 8.1316941145735e-08 2.396466271613603e-08 -2.286502549998132e-05 0.0 0.0
0.0 -2.9818533645514553e-06 5.93953039489982e-08 -5.600943020046856e-08 -3.3858737485359184e-09 -7.710500591343304e-06 0.0 0.0
0.0 7.821947466927294e-08 1.955341314824257e-08 -1.741372148698716e-08 -2.13969166125215e-09 6.284691988554587e-09 0.0 0.0
0.0 1.2405663350389034e-06 2.2963144945294832e-08 -1.9338392241929008e-08 -3.624752703366745e-09 -2.542797601527055e-07 0.0 0.0
0.0 3.618765798929172e-06 1.0195274960301875e-08 7.113497562151617e-09 -1.7308772522443827e-08 -7.817231166001966e-07 0.0 0.0
0.0 -1.6983890439189269e-06 -3.8615753509635594e-07 6.006983808688619e-07 -2.1454084577252333e-07 -3.61204102127614e-07 0.0 0.0
0.0 2.9709238336664055e-06 2.9862953343077723e-06 -4.632473086739637e-06 1.6461777524319692e-06 4.696562374330868e-06 0.0 0.0
0.0 1.2392568618169737e-06 -7.491151091484791e-08 1.1767598598030642e-07 -4.2764475065472074e-08 1.441325408975938e-07 0.0 0.0
0.0 -1.2804676808165333e-07 1.0642793818054779e-08 -1.6857995420580048e-08 6.215201602525346e-09 -8.261573953885582e-09 0.0 0.0
0.0 -8.848579253147267e-07 -1.2999190855600736e-08 9.294462519730756e-09 3.7047283358701572e-09 -1.9146948799262698e-07 0.0 0.0
0.0 1.490317100255079e-06 4.241911744592017e-08 -3.470315010590186e-08 -7.71596734001991e-09 3.1235457426870176e-07 0.0 0.0
0.0 -1.567161515307539e-06 1.3405454152687537e-07 -1.228693742665809e-07 -1.1185167260292359e-08 8.449375997483673e-07 0.0 0.0
0.0 -3.523070248322751e-06 -1.8605986654285701e-07 1.7757244641957444e-07 8.487420123315321e-09 1.029016959874362e-06 0.0 0.0
0.0 8.293801419536613e-06 5.430582036160642e-06 -4.2890033226928475e-06 -1.1415787134678764e-06 3.44192043719417e-05 0.0 0.0
0.0 5.3920023473318055e-05 -1.8331079537863894e-06 1.394880941241882e-06 4.382270125445239e-07 -5.156211950356752e-05 0.0 0.0
0.0 0.00013944452957635734 -1.2325305103171102e-05 1.1214044013011736e-05 1.1112610901591735e-06 -0.00020664566569919275 0.0 0.0
0.0 0.0003940321262169089 -0.00012809125425382252 0.00011217332944223866 1.5917924811584006e-05 -0.0005629790863090833 0.0 0.0
0.0 0.0010064863804667692 -0.00040521941245005237 0.00036351428208801484 4.1705130362037505e-05 -0.0011173704829724697 0.0 0.0
0.0 0.0016542605530416316 -0.0009206252301495563 0.0008197774259006669 0.000100847804248889 -0.0019292403508946068 0.0 0.0
0.0 0.0026245393438683075 -0.0015997178696758292 0.0014287182905856049 0.00017099957909022366 -0.002798424153073689 0.0 0.0
0.0 0.0038549058651643057 -0.0024529466487635417 0.0022113285458578856 0.00024161810290565454 -0.003727537281834023 0.0 0.0
0.0 0.005269865436696327 -0.0034797918909069527 0.003172323023064201 0.0003074688678427512 -0.0047322475382278505 0.0 0.0
0.0 0.006864647628564912 -0.004604200097613623 0.004256096436406637 0.0003481036612069835 -0.005878551836433685 0.0 0.0
0.0 0.008423356647949588 -0.005627817462966332 0.005279427954724742 0.0003483895082415897 -0.007255069921010927 0.0 0.0
0.0 0.009772798699506062 -0.006167272880540836 0.005883808802669454 0.00028346407787137665 -0.008889914611806356 0.0 0.0
0.0 0.010008438873667543 -0.005717637814528738 0.005553449740266879 0.00016418807426186712 -0.01077157051774264 0.0 0.0
0.0 0.008466493013192017 -0.0041473519033864625 0.004124658094021265 2.2693809365195505e-05 -0.01230627985246767 0.0 0.0
0.0 0.01634687804978912 -0.0022626254635383517 0.0008441591407110203 0.0014184663228273317 9.157605229681565e-15 0.0 0.0
0.0 0.008466493013197622 -0.004147351903387456 0.004124658094022565 2.269380936489098e-05 0.01230627985247675 0.0 0.0
0.0 0.0100084388736665 -0.005717637814527344 0.005553449740265394 0.00016418807426195884 0.010771570517749712 0.0 0.0
0.0 0.009772798699500313 -0.006167272880537153 0.005883808802665742 0.0002834640778714097 0.008889914611806864 0.0 0.0
0.0 0.008423356647940694 -0.005627817462959827 0.005279427954718581 0.00034838950824125014 0.00725506992100524 0.0 0.0
0.0 0.006864647628557781 -0.004604200097607817 0.004256096436401615 0.00034810366120620003 0.005878551836429491 0.0 0.0
0.0 0.005269865436690457 -0.0034797918909020217 0.003172323023059688 0.0003074688678423325 0.004732247538222361 0.0 0.0
0.0 0.0038549058651574826 -0.002452946648757825 0.0022113285458526836 0.00024161810290514142 0.0037275372818304244 0.0 0.0
0.0 0.002624539343860047 -0.0015997178696700628 0.0014287182905803413 0.00017099957908972164 0.0027984241530671257 0.0 0.0
0.0 0.0016542605530337066 -0.0009206252301445265 0.0008197774258962251 0.00010084780424830138 0.0019292403508874311 0.0 0.0
0.0 0.0010064863804601736 -0.0004052194124469553 0.00036351428208522454 4.1705130361730316e-05 0.00111737048296619 0.0 0.0
0.0 0.00039403212621286535 -0.00012809125425241956 0.00011217332944093547 1.5917924811484073e-05 0.0005629790863066603 0.0 0.0
0.0 0.00013944452957521966 -1.2325305102957135e-05 1.1214044012820848e-05 1.1112610901362748e-06 0.0002066456656978812 0.0 0.0
0.0 5.392002347234282e-05 -1.8331079537560699e-06 1.3948809412288499e-06 4.3822701252722003e-07 5.156211950291065e-05 0.0 0.0
0.0 8.293801418993522e-06 5.430582036136396e-06 -4.289003322675609e-06 -1.1415787134607726e-06 -3.4419204371792476e-05 0.0 0.0
0.0 -3.5230702485401604e-06 -1.860598666469621e-07 1.77572446509275e-07 8.487420137689792e-09 -1.029016959102129e-06 0.0 0.0
0.0 -1.5671615159149483e-06 1.3405454153512637e-07 -1.2286937427398e-07 -1.118516726115029e-08 -8.449375997915683e-07 0.0 0.0
0.0 1.4903170996868914e-06 4.241911743258753e-08 -3.470315009501489e-08 -7.715967337572316e-09 -3.123545741501756e-07 0.0 0.0
0.0 -8.848579255573359e-07 -1.299919085404969e-08 9.294462517139446e-09 3.7047283369072572e-09 1.91469488037071e-07 0.0 0.0
0.0 -1.2804676798055457e-07 1.0642793812113905e-08 -1.685799541225912e-08 6.215201600149092e-09 8.261573940558166e-09 0.0 0.0
0.0 1.2392568610875138e-06 -7.491151086901853e-08 1.1767598590977797e-07 -4.276447504077999e-08 -1.441325408055337e-07 0.0 0.0
0.0 0.0 0.0 0.0 0.0 0.0 0.0 0.0
0.0 -2.421719605901748e-07 -3.2468155202972983e-09 1.8808664176063756e-09 1.3659491026902043e-09 -4.880557232414907e-08 0.0 0.0
0.0 2.777239320380311e-07 -8.775193084063511e-09 1.0215675204000533e-08 -1.44048211993567e-09 5.257744074949842e-08 0.0 0.0
0.0 -9.073015980962664e-07 -5.68571413310864e-08 4.755545022616241e-08 9.301691104915119e-09 -2.3445117856962518e-07 0.0 0.0
0.0 7.5901442258821156e-06 5.101012708004352e-09 -1.4335688842335207e-08 9.234676134379632e-09 4.83027018779529e-07 0.0 0.0
0.0 4.973917095694893e-06 5.584161588445119e-06 -4.5122350021741494e-06 -1.0719265862709486e-06 2.4207783471486398e-05 0.0 0.0
0.0 -5.536801870034746e-06 4.6403647724000886e-06 -3.672556763846204e-06 -9.678080085538047e-07 6.791165256838598e-07 0.0 0.0
0.0 0.00011731185553782021 -1.993582659516803e-05 1.6236798352668142e-05 3.6990282424997844e-06 -6.81030594670489e-05 0.0 0.0
0.0 0.0005163099203082541 -0.00032773030213982535 0.000262906145383253 6.482415675657251e-05 -0.0005393814154487528 0.0 0.0
0.0 0.0014989416853472659 -0.0010182891938984228 0.0008393851608695634 0.0001789040330288589 -0.001263906888959717 0.0 0.0
0.0 0.0026821432750505107 -0.0020528739203035124 0.0017425013095809976 0.0003103726107225145 -0.002266523259419616 0.0 0.0
0.0 0.00429736869542206 -0.003319563735061152 0.0028952817676500798 0.000424281967411073 -0.003319326295423252 0.0 0.0
0.0 0.006138558080445471 -0.004812087432915156 0.004285807209923634 0.0005262802229915198 -0.004392703936128935 0.0 0.0
0.0 0.00831030521719129 -0.006595658685597243 0.00598667262665343 0.0006089860589438142 -0.0054802355600022485 0.0 0.0
0.0 0.010949493478043089 -0.008727205007220124 0.00805556743316745 0.0006716375740526736 -0.006650824101519849 0.0 0.0
0.0 0.01402051306960151 -0.011169365505958295 0.010460277115987111 0.0007090883899711905 -0.008066397806835343 0.0 0.0
0.0 0.017218704330496742 -0.013684167887777245 0.01296464299367864 0.00071952489409859 -0.009921066875313696 0.0 0.0
0.0 0.019846043807028646 -0.015795688687989556 0.01508726941015475 0.000708419277834811 -0.012308065835249935 0.0 0.0
0.0 0.021390609720532135 -0.016597124439030712 0.015933757517471416 0.0006633669215592811 -0.014747874356658284 0.0 0.0
0.0 0.01981493630537754 -0.014460530441706409 0.013847240188718166 0.0006132902529882455 -0.015242849839009417 0.0 0.0
0.0 0.020332710945912463 -0.011320906772287507 0.009129432002401008 0.002191474769886497 8.370474452457088e-15 0.0 0.0
0.0 0.019814936305380407 -0.014460530441705264 0.013847240188716619 0.0006132902529886468 0.015242849839025583 0.0 0.0
0.0 0.02139060972053212 -0.01659712443902776 0.01593375751746913 0.0006633669215586199 0.01474787435667472 0.0 0.0
0.0 0.01984604380701755 -0.01579568868798015 0.015087269410145293 0.0007084192778348547 0.012308065835254107 0.0 0.0
0.0 0.017218704330484284 -0.013684167887767093 0.012964642993668764 0.0007195248940983254 0.009921066875310483 0.0 0.0
0.0 0.014020513069588007 -0.011169365505947236 0.010460277115976198 0.0007090883899710413 0.00806639780682886 0.0 0.0
0.0 0.010949493478030113 -0.00872720500720957 0.008055567433157284 0.0006716375740522828 0.0066508241015129175 0.0 0.0
0.0 0.008310305217180012 -0.006595658685587238 0.005986672626643805 0.0006089860589434257 0.005480235559996462 0.0 0.0
0.0 0.0061385580804319195 -0.0048120874329041765 0.004285807209913232 0.000526280222990943 0.004392703936121704 0.0 0.0
0.0 0.00429736869540963 -0.003319563735051577 0.0028952817676412986 0.0004242819674102762 0.003319326295414432 0.0 0.0
0.0 0.0026821432750390732 -0.0020528739202945226 0.0017425013095727687 0.0003103726107217534 0.002266523259410309 0.0 0.0
0.0 0.0014989416853377516 -0.0010182891938916203 0.0008393851608637525 0.00017890403302786822 0.0012639068889530006 0.0 0.0
0.0 0.0005163099203040983 -0.0003277303021371004 0.0002629061453811128 6.482415675598761e-05 0.0005393814154457595 0.0 0.0
0.0 0.00011731185553613083 -1.993582659452975e-05 1.6236798352158855e-05 3.699028242370844e-06 6.810305946541046e-05 0.0 0.0
0.0 -5.5368018713898425e-06 4.640364772200319e-06 -3.6725567636875233e-06 -9.678080085128125e-07 -6.791165251597874e-07 0.0 0.0
0.0 4.9739170947947874e-06 5.584161588426237e-06 -4.512235002160223e-06 -1.0719265862660964e-06 -2.420778347146103e-05 0.0 0.0
0.0 7.590144225393071e-06 5.101012670294696e-09 -1.433568881072583e-08 9.234676140429257e-09 -4.830270185830838e-07 0.0 0.0
0.0 -9.073015986570772e-07 -5.6857141346010775e-08 4.755545023829637e-08 9.301691107725905e-09 2.3445117868003778e-07 0.0 0.0
0.0 2.777239315912247e-07 -8.775193086214722e-09 1.0215675203489026e-08 -1.4404821172741064e-09 -5.2577440658824605e-08 0.0 0.0
0.0 -2.421719603617441e-07 -3.246815517878595e-09 1.8808664168966315e-09 1.3659491009815945e-09 4.8805572277769595e-08 0.0 0.0
0.0 0.0 0.0 0.0 0.0 0.0 0.0 0.0
0.0 0.0 0.0 0.0 0.0 0.0 0.0 0.0
0.0 4.708975586266584e-08 6.631015335524161e-10 -4.066369113317879e-10 -2.56464622220512e-10 9.52065192162231e-09 0.0 0.0
0.0 -8.431200303313022e-07 -2.8996678881907022e-08 2.3017103404619397e-08 5.97957547729079e-09 -1.6687519249258124e-07 0.0 0.0
0.0 1.8682322036662964e-06 7.292438497842065e-08 -5.975073658410082e-08 -1.3173648394326133e-08 3.735910496881116e-07 0.0 0.0
0.0 -1.098430189946695e-06 1.378851967143754e-06 -1.1166160159815064e-06 -2.6223595116229064e-07 4.604599917600277e-06 0.0 0.0
0.0 -1.3222563633465538e-05 -1.6247987355101237e-07 1.0705916147114218e-07 5.5420712079930156e-08 -2.9246270812907015e-06 0.0 0.0
0.0 4.515720178589359e-05 7.763932359120387e-06 -6.638187883816772e-06 -1.1257444753038614e-06 2.438471559460877e-05 0.0 0.0
0.0 0.00037020825838555445 -0.00029334744204677766 0.0002273237568032709 6.602368524350681e-05 -0.0003360938825100026 0.0 0.0
0.0 0.0013667494702930022 -0.0010760937889907657 0.0008656791548364936 0.0002104146341542717 -0.001003074908793951 0.0 0.0
0.0 0.003178435521793321 -0.0023572131849466287 0.0019844432199501417 0.00037276996499648724 -0.0020144012548202754 0.0 0.0
0.0 0.004967350703474731 -0.004042805677790846 0.003529117552607282 0.0005136881251835652 -0.003249669297327471 0.0 0.0
0.0 0.007257350021176485 -0.006009029141884396 0.005385153593929688 0.0006238755479547092 -0.004450812479035661 0.0 0.0
0.0 0.01000558107718916 -0.008292405362518351 0.007576753157736817 0.0007156522047815343 -0.005623914419768379 0.0 0.0
0.0 0.013226745543802544 -0.01101682048100242 0.010225115517222225 0.0007917049637802013 -0.006825838882660606 0.0 0.0
0.0 0.017179879707150587 -0.014283499425839206 0.013431983714458525 0.000851515711380676 -0.008175569351470666 0.0 0.0
0.0 0.0216635722736079 -0.0180843825146816 0.017195743729778844 0.0008886387849027603 -0.009882878275610765 0.0 0.0
0.0 0.026753074449561577 -0.02214245771544121 0.021245369192963014 0.0008970885224782009 -0.012293522276995403 0.0 0.0
0.0 0.03124232373480746 -0.025759637759566793 0.024892345962046526 0.0008672917975202662 -0.015551992695434176 0.0 0.0
0.0 0.03379541139393084 -0.027554862701629556 0.02675238832103641 0.0008024743805931437 -0.01879419401229429 0.0 0.0
0.0 0.03158530360963364 -0.025235536168750575 0.024546465800863913 0.000689070367886666 -0.01981931614553583 0.0 0.0
0.0 0.0289504421741389 -0.020513806927556607 0.01760822975519569 0.0029055771723609175 1.023877163608411e-14 0.0 0.0
0.0 0.03158530360963614 -0.025235536168748532 0.024546465800861856 0.0006890703678866701 0.019819316145557285 0.0 0.0
0.0 0.03379541139392979 -0.027554862701625295 0.026752388321032487 0.0008024743805927824 0.018794194012316523 0.0 0.0
0.0 0.03124232373479252 -0.025759637759553013 0.024892345962033026 0.0008672917975199841 0.015551992695442262 0.0 0.0
0.0 0.02675307444954554 -0.02214245771542764 0.021245369192949688 0.000897088522477961 0.012293522276994446 0.0 0.0
0.0 0.021663572273588654 -0.018084382514665345 0.017195743729762653 0.0008886387849026796 0.009882878275603546 0.0 0.0
0.0 0.017179879707133403 -0.014283499425824797 0.013431983714444741 0.0008515157113800435 0.008175569351463465 0.0 0.0
0.0 0.013226745543785794 -0.011016820480988152 0.010225115517208354 0.0007917049637797938 0.006825838882654129 0.0 0.0
0.0 0.010005581077170058 -0.008292405362502468 0.00757675315772134 0.0007156522047811317 0.005623914419759915 0.0 0.0
0.0 0.0072573500211591015 -0.006009029141870365 0.005385153593916348 0.0006238755479540171 0.004450812479025514 0.0 0.0
0.0 0.004967350703457509 -0.004042805677777136 0.0035291175525941315 0.0005136881251830052 0.0032496692973156905 0.0 0.0
0.0 0.003178435521780071 -0.0023572131849361267 0.0019844432199407807 0.00037276996499534476 0.002014401254811534 0.0 0.0
0.0 0.0013667494702848653 -0.0010760937889847549 0.0008656791548314726 0.00021041463415328183 0.0010030749087890794 0.0 0.0
0.0 0.00037020825838136135 -0.0002933474420437761 0.00022732375680093977 6.60236852428363e-05 0.0003360938825070708 0.0 0.0
0.0 4.515720178507708e-05 7.763932358959342e-06 -6.638187883682455e-06 -1.1257444752767559e-06 -2.4384715594346066e-05 0.0 0.0
0.0 -1.3222563634266958e-05 -1.624798738729832e-07 1.0705916172720217e-07 5.542071214579596e-08 2.9246270822128133e-06 0.0 0.0
0.0 -1.0984301904362418e-06 1.3788519671757189e-06 -1.1166160160064352e-06 -2.6223595116927215e-07 -4.60459991766665e-06 0.0 0.0
0.0 1.8682322031391885e-06 7.292438495947189e-08 -5.975073656882235e-08 -1.3173648390657147e-08 -3.73591049577993e-07 0.0 0.0
0.0 -8.431200300362501e-07 -2.8996678872773777e-08 2.301710339753103e-08 5.979575475243381e-09 1.6687519243153147e-07 0.0 0.0
0.0 4.708975583477513e-08 6.631015331494612e-10 -4.066369110840808e-10 -2.5646462206536185e-10 -9.520651915847124e-09 0.0 0.0
0.0 0.0 0.0 0.0 0.0 0.0 0.0 0.0
0.0 0.0 0.0 0.0 0.0 0.0 0.0 0.0
0.0 0.0 0.0 0.0 0.0 0.0 0.0 0.0
0.0 -2.95889627028445e-07 -1.3592507698731995e-08 1.083743040721265e-08 2.7550772915178707e-09 -5.501979115714737e-08 0.0 0.0
0.0 -2.112291098398292e-06 -1.6324554829102846e-07 1.3285156833206997e-07 3.0393979958964755e-08 -4.379793777943576e-07 0.0 0.0
0.0 9.107541571836726e-06 6.906425672488203e-07 -5.463997536463936e-07 -1.4424281360242229e-07 1.8550362702801728e-06 0.0 0.0
0.0 2.8810172469403244e-06 2.6664990739156758e-05 -2.123261959641085e-05 -5.432371142745987e-06 4.579078351950483e-05 0.0 0.0
0.0 0.0001756647280762393 -0.0001269598379545263 9.61544036942909e-05 3.080543426023569e-05 -0.0001129580613969031 0.0 0.0
0.0 0.0009289648358979635 -0.0007750903799263197 0.0006070098742908929 0.00016808050563542608 -0.0005649028161723818 0.0 0.0
0.0 0.0027446732747025116 -0.0020468800446961214 0.0016919878758987691 0.0003548921687973513 -0.0014052958861854282 0.0 0.0
0.0 0.004507594318255321 -0.00392664515798782 0.003397727450002045 0.0005289177079857781 -0.002621041627618159 0.0 0.0
0.0 0.007280396012327961 -0.006181098915158439 0.005526704141427277 0.0006543947737311603 -0.0038600550899651137 0.0 0.0
0.0 0.01038232853968312 -0.008814958641376651 0.008060695728274374 0.0007542629131022728 -0.005079207341258073 0.0 0.0
0.0 0.013996867112288786 -0.01189818602723098 0.011056165464169296 0.0008420205630616839 -0.006285125169039778 0.0 0.0
0.0 0.01832265849464989 -0.015578270714093517 0.014658561265733616 0.0009197094483599032 -0.0075563559703206076 0.0 0.0
0.0 0.023462406128052976 -0.019998380184507236 0.019013324578939506 0.0009850556055677239 -0.008996963075397556 0.0 0.0
0.0 0.029791721736251588 -0.025176708074775126 0.024148645602768835 0.00102806247200627 -0.010862661834358397 0.0 0.0
0.0 0.036120880118407514 -0.030801528353541767 0.029767654939160792 0.0010338734143809265 -0.0135687776076636 0.0 0.0
0.0 0.042533908118984616 -0.035885750109721906 0.03490199455047315 0.0009837555592487658 -0.017314971905891364 0.0 0.0
0.0 0.04628041028587042 -0.038538846255845985 0.037663568018069776 0.0008752782377761593 -0.0213262864813664 0.0 0.0
0.0 0.043487291619025176 -0.035700400067555045 0.03500521024233577 0.0006951898252192832 -0.023190222964833227 0.0 0.0
0.0 0.03827599668501847 -0.02953822813291409 0.026025141590819027 0.0035130865420950415 1.1749282102790914e-14 0.0 0.0
0.0 0.04348729161902743 -0.0357004000675529 0.03500521024233414 0.0006951898252187767 0.023190222964857427 0.0 0.0
0.0 0.04628041028586581 -0.038538846255838644 0.03766356801806294 0.0008752782377757027 0.02132628648139143 0.0 0.0
0.0 0.042533908118968435 -0.03588575010970663 0.03490199455045832 0.0009837555592482647 0.01731497190590381 0.0 0.0
0.0 0.03612088011838608 -0.0308015283535232 0.02976765493914254 0.0010338734143806806 0.01356877760766321 0.0 0.0
0.0 0.029791721736230098 -0.025176708074756415 0.024148645602750807 0.0010280624720056116 0.010862661834352952 0.0 0.0
0.0 0.023462406128031715 -0.01999838018448873 0.01901332457892178 0.0009850556055669556 0.008996963075390229 0.0 0.0
0.0 0.018322658494627633 -0.015578270714074386 0.014658561265714682 0.00091970944835969 0.00755635597031331 0.0 0.0
0.0 0.013996867112264767 -0.011898186027210532 0.011056165464149363 0.0008420205630611607 0.006285125169031168 0.0 0.0
0.0 0.010382328539660502 -0.008814958641357286 0.008060695728255638 0.0007542629131016527 0.005079207341247298 0.0 0.0
0.0 0.007280396012307997 -0.006181098915141518 0.005526704141410875 0.000654394773730641 0.0038600550899530483 0.0 0.0
0.0 0.0045075943182398695 -0.003926645157974428 0.003397727449989522 0.0005289177079849034 0.0026210416276087342 0.0 0.0
0.0 0.0027446732746894296 -0.002046880044686095 0.0016919878758900947 0.0003548921687960016 0.0014052958861786938 0.0 0.0
0.0 0.0009289648358907282 -0.0007750903799208749 0.0006070098742864684 0.0001680805056344066 0.0005649028161685075 0.0 0.0
0.0 0.0001756647280731651 -0.00012695983795290333 9.615440369304719e-05 3.080543425985606e-05 0.00011295806139568382 0.0 0.0
0.0 2.8810172462530673e-06 2.6664990738847906e-05 -2.123261959616497e-05 -5.432371142682985e-06 -4.5790783519059326e-05 0.0 0.0
0.0 9.10754157052039e-06 6.90642567130986e-07 -5.463997535534088e-07 -1.44242813577557e-07 -1.8550362700115545e-06 0.0 0.0
0.0 -2.1122910987118115e-06 -1.6324554830016535e-07 1.3285156833938794e-07 3.039397996078572e-08 4.3797937784828425e-07 0.0 0.0
0.0 -2.9588962689353585e-07 -1.3592507692400482e-08 1.0837430402124616e-08 2.755077290274585e-09 5.50197911312241e-08 0.0 0.0
0.0 0.0 0.0 0.0 0.0 0.0 0.0 0.0
0.0 0.0 0.0 0.0 0.0 0.0 0.0 0.0
0.0 0.0 0.0 0.0 0.0 0.0 0.0 0.0
0.0 0.0 0.0 0.0 0.0 0.0 0.0 0.0
0.0 -1.336041538324973e-07 -7.0791082984345225e-09 5.607259907490537e-09 1.4718483909442396e-09 -2.3963176664436898e-08 0.0 0.0
0.0 -1.150862233485828e-06 -9.876059602605095e-08 7.855272765354809e-08 2.0207868372501855e-08 -2.0268686367933702e-07 0.0 0.0
0.0 -6.068350423286522e-06 -2.197628528121537e-06 1.7300785375846595e-06 4.6754999053687573e-07 -3.1032180752280092e-06 0.0 0.0
0.0 4.875480640589521e-05 1.0347647729612008e-05 -9.701424479119942e-06 -6.462232504918679e-07 3.4897470552801234e-05 0.0 0.0
0.0 0.00046184655036113896 -0.0003791520315906992 0.00028857959812688875 9.057243346381058e-05 -0.00020391560076763485 0.0 0.0
0.0 0.0018977740447766686 -0.0014074003427475158 0.0011285916403102462 0.00027880870243726966 -0.0007349667862283646 0.0 0.0
0.0 0.0035654846815355457 -0.0032211991071372063 0.002733551070218873 0.0004876480369183327 -0.001733065364302976 0.0 0.0
0.0 0.006399430605778474 -0.0055592393979547175 0.004918360782385377 0.0006408786155693422 -0.002879167080910066 0.0 0.0
0.0 0.00967651277893079 -0.008382136689486803 0.007625268549461127 0.0007568681400256732 -0.004056190465572285 0.0 0.0
0.0 0.013539285674373597 -0.011693037891365377 0.010839979172907632 0.0008530587184577355 -0.0052262028338683365 0.0 0.0
0.0 0.018098022447873587 -0.015588978100998976 0.014646677802287704 0.000942300298711256 -0.00640530999992403 0.0 0.0
0.0 0.023615508704748597 -0.02023722505928267 0.01921269086166855 0.0010245341976141322 -0.007677793829647039 0.0 0.0
0.0 0.030062810081267752 -0.02581349711389428 0.024715270236107124 0.0010982268777871395 -0.009141315860500052 0.0 0.0
0.0 0.037553931501392926 -0.03236082012647546 0.03121010796938356 0.0011507121570919021 -0.01097198826779969 0.0 0.0
0.0 0.046212209158970806 -0.03949961829086802 0.038346533233298105 0.0011530850575699374 -0.013582117116112062 0.0 0.0
0.0 0.05392030347296334 -0.046016824022439985 0.04493764149497438 0.0010791825274655464 -0.01740733509622158 0.0 0.0
0.0 0.05817520690563185 -0.04945502883584891 0.048533116448557935 0.0009219123872909894 -0.02202851600649581 0.0 0.0
0.0 0.055060380506289905 -0.046042926353359756 0.045360045697348174 0.0006828806560115597 -0.02546473195063956 0.0 0.0
0.0 0.04838967128031893 -0.03854951562430153 0.034481300187011815 0.004068215437289702 1.1222793527831953e-14 0.0 0.0
0.0 0.055060380506288115 -0.046042926353354205 0.045360045697343115 0.0006828806560110697 0.02546473195066555 0.0 0.0
0.0 0.05817520690562327 -0.04945502883583859 0.048533116448548144 0.0009219123872904835 0.022028516006521427 0.0 0.0
0.0 0.05392030347294252 -0.04601682402242095 0.04493764149495534 0.0010791825274656104 0.017407335096235647 0.0 0.0
0.0 0.04621220915894415 -0.03949961829084493 0.038346533233275186 0.0011530850575696948 0.013582117116112813 0.0 0.0
0.0 0.037553931501366745 -0.03236082012645261 0.031210107969361457 0.001150712157091186 0.01097198826779533 0.0 0.0
0.0 0.030062810081241037 -0.02581349711387103 0.02471527023608474 0.0010982268777862813 0.009141315860494055 0.0 0.0
0.0 0.02361550870472272 -0.02023722505925968 0.019212690861646356 0.0010245341976133262 0.007677793829640395 0.0 0.0
0.0 0.018098022447845315 -0.015588978100974482 0.014646677802263476 0.0009423002987110005 0.006405309999916178 0.0 0.0
0.0 0.013539285674345609 -0.011693037891341258 0.01083997917288411 0.0008530587184571314 0.005226202833858394 0.0 0.0
0.0 0.00967651277890656 -0.00838213668946608 0.007625268549441099 0.0007568681400249788 0.004056190465560312 0.0 0.0
0.0 0.006399430605759346 -0.005559239397938237 0.004918360782369759 0.0006408786155684793 0.002879167080900846 0.0 0.0
0.0 0.0035654846815218705 -0.003221199107124165 0.0027335510702070566 0.0004876480369171068 0.0017330653642958869 0.0 0.0
0.0 0.0018977740447667327 -0.0014074003427398628 0.0011285916403038316 0.0002788087024360306 0.0007349667862242302 0.0 0.0
0.0 0.0004618465503559886 -0.00037915203158686263 0.0002885795981239224 9.057243346294074e-05 0.00020391560076531707 0.0 0.0
0.0 4.8754806404536606e-05 1.0347647729658647e-05 -9.70142447913686e-06 -6.462232505220058e-07 -3.489747055257752e-05 0.0 0.0
0.0 -6.068350424199134e-06 -2.1976285282238273e-06 1.7300785376656389e-06 4.675499905581616e-07 3.1032180754005473e-06 0.0 0.0
0.0 -1.1508622335227065e-06 -9.876059602363591e-08 7.855272765149146e-08 2.02078683721454e-08 2.02686863685958e-07 0.0 0.0
0.0 -1.3360415377959937e-07 -7.079108295548217e-09 5.6072599052097004e-09 1.4718483903391005e-09 2.396317665472527e-08 0.0 0.0
0.0 0.0 0.0 0.0 0.0 0.0 0.0 0.0
0.0 0.0 0.0 0.0 0.0 0.0 0.0 0.0
0.0 0.0 0.0 0.0 0.0 0.0 0.0 0.0
0.0 0.0 0.0 0.0 0.0 0.0 0.0 0.0
0.0 0.0 0.0 0.0 0.0 0.0 0.0 0.0
0.0 -1.6735117385773643e-06 -1.486688602520987e-07 1.1851850166267913e-07 3.015035858939777e-08 -2.485069167399896e-07 0.0 0.0
0.0 4.9905830603421955e-06 1.1013847178823351e-05 -8.793361038810471e-06 -2.2204861400128307e-06 1.3265062472805194e-05 0.0 0.0
0.0 0.0001025539132128272 -0.00011003992870233385 8.140057786691935e-05 2.8639350835414226e-05 -4.5124524031457676e-05 0.0 0.0
0.0 0.001042551355293648 -0.0007301169194666897 0.0005648632306531776 0.00016525368881351165 -0.0002534202308003737 0.0 0.0
0.0 0.0024817148814904487 -0.002230232373056824 0.0018352081236502004 0.00039502424940662226 -0.000885030752291177 0.0 0.0
0.0 0.004984621999627377 -0.004430600872080312 0.0038439814788619594 0.000586619393218355 -0.0017934980262802988 0.0 0.0
0.0 0.008212899283118203 -0.007239863191736017 0.006511389914758369 0.0007284732769776447 -0.0028074998543168085 0.0 0.0
0.0 0.012146030776173737 -0.01062367870372343 0.00978570042568853 0.0008379782780348947 -0.0038699711734757006 0.0 0.0
0.0 0.01681628707440424 -0.014617614404517549 0.013682320708254207 0.0009352936962633387 -0.004925775493466329 0.0 0.0
0.0 0.022410367712007884 -0.019341012857744977 0.018312170229773245 0.0010288426279717378 -0.00600837391231392 0.0 0.0
0.0 0.02874601550827273 -0.02498203746385412 0.02386421150855822 0.001117825955295903 -0.0072123419245222285 0.0 0.0
0.0 0.036642432112799855 -0.03169977085040972 0.030502056309151804 0.0011977145412579316 -0.008611293848706701 0.0 0.0
0.0 0.04582372345112715 -0.03954355732481347 0.03828504643111072 0.0012585108937027128 -0.010257690832964532 0.0 0.0
0.0 0.05564149586576661 -0.048124973836454914 0.04685881899456634 0.0012661548418885452 -0.012417264081594437 0.0 0.0
0.0 0.06492280736370788 -0.056020068044339164 0.054849288347235056 0.0011707796971041342 -0.015801902313114805 0.0 0.0
0.0 0.07027425341445648 -0.06028437122663338 0.05932369924476228 0.0009606719818710599 -0.02088166210291395 0.0 0.0
0.0 0.06664904337336981 -0.056471809516166274 0.055818518890113904 0.0006532906260523513 -0.02683774546639012 0.0 0.0
0.0 0.05855999770144842 -0.04780115098762849 0.04321948217646743 0.0045816688111610425 1.105626007413818e-14 0.0 0.0
0.0 0.0666490433733656 -0.05647180951615926 0.05581851889010715 0.000653290626052088 0.026837745466415822 0.0 0.0
0.0 0.07027425341444153 -0.06028437122661832 0.0593236992447473 0.0009606719818709297 0.020881662102938132 0.0 0.0
0.0 0.06492280736368247 -0.05602006804431657 0.054849288347212435 0.0011707796971041056 0.015801902313128835 0.0 0.0
0.0 0.055641495865736745 -0.04812497383642873 0.04685881899454054 0.001266154841888235 0.012417264081597027 0.0 0.0
0.0 0.04582372345109602 -0.0395435573247861 0.038285046431084144 0.0012585108937019215 0.010257690832961765 0.0 0.0
0.0 0.03664243211276867 -0.03169977085038255 0.030502056309125204 0.0011977145412573418 0.0086112938487024 0.0 0.0
0.0 0.028746015508240914 -0.024982037463826417 0.023864211508531272 0.0011178259552951405 0.0072123419245161725 0.0 0.0
0.0 0.022410367711974875 -0.01934101285771603 0.01831217022974454 0.0010288426279714937 0.006008373912306155 0.0 0.0
0.0 0.016816287074373 -0.01461761440449022 0.013682320708227521 0.0009352936962627035 0.004925775493457345 0.0 0.0
0.0 0.012146030776145454 -0.010623678703698755 0.009785700425664528 0.0008379782780342241 0.0038699711734648664 0.0 0.0
0.0 0.008212899283095614 -0.007239863191716055 0.006511389914739131 0.0007284732769769253 0.002807499854307993 0.0 0.0
0.0 0.004984621999611031 -0.004430600872065275 0.0038439814788480595 0.0005866193932172179 0.0017934980262741713 0.0 0.0
0.0 0.002481714881479623 -0.0022302323730471205 0.0018352081236416831 0.0003950242494054368 0.0008850307522869862 0.0 0.0
0.0 0.0010425513552860585 -0.0007301169194610645 0.0005648632306486994 0.00016525368881236383 0.00025342023079804113 0.0 0.0
0.0 0.00010255391321103299 -0.0001100399287016351 8.140057786641642e-05 2.8639350835218327e-05 4.51245240314073e-05 0.0 0.0
0.0 4.990583059238926e-06 1.1013847178669225e-05 -8.793361038688218e-06 -2.2204861399808794e-06 -1.3265062472616116e-05 0.0 0.0
0.0 -1.6735117383526066e-06 -1.4866886023067133e-07 1.1851850164602343e-07 3.0150358584646966e-08 2.4850691670752575e-07 0.0 0.0
0.0 0.0 0.0 0.0 0.0 0.0 0.0 0.0
0.0 0.0 0.0 0.0 0.0 0.0 0.0 0.0
0.0 0.0 0.0 0.0 0.0 0.0 0.0 0.0
0.0 0.0 0.0 0.0 0.0 0.0 0.0 0.0
0.0 0.0 0.0 0.0 0.0 0.0 0.0 0.0
0.0 0.0 0.0 0.0 0.0 0.0 0.0 0.0
0.0 -7.271368565975625e-07 -7.461911083902623e-08 5.801422345676086e-08 1.6604887382274303e-08 -6.78783353621826e-08 0.0 0.0
0.0 5.503941347282172e-06 2.0230914956448758e-05 -1.6009498015224717e-05 -4.221416941223826e-06 1.4789630461719239e-05 0.0 0.0
0.0 0.0003380391529193824 -0.00023910582563276426 0.000176935020194304 6.217080543846032e-05 -3.39098464328956e-05 0.0 0.0
0.0 0.0014772424767891487 -0.001245976852381826 0.0009851449229114112 0.0002608319294704133 -0.000291207936965431 0.0 0.0
0.0 0.003405629089069307 -0.0031002035271276954 0.002611928711925181 0.0004882748152025121 -0.0008743025797185923 0.0 0.0
0.0 0.006326165175335957 -0.005677677380404785 0.005009936742941663 0.0006677406374631185 -0.0016007475162362118 0.0 0.0
0.0 0.01010600024154125 -0.008943337465845603 0.008144688126850501 0.0007986493389951037 -0.002438801295497436 0.0 0.0
0.0 0.014638769679778655 -0.01289030820374987 0.011984059209190542 0.0009062489945593184 -0.003319601434262761 0.0 0.0
0.0 0.020124683911719912 -0.017576351435881845 0.01656881164985423 0.001007539786027612 -0.004197784062387168 0.0 0.0
0.0 0.026424094441991782 -0.023148305940827014 0.02204031286962582 0.0011079930712011824 -0.005108512327167022 0.0 0.0
0.0 0.03432458653397229 -0.029783206086819596 0.02858138912508503 0.0012018169617345918 -0.006154045885250342 0.0 0.0
0.0 0.043296561789508234 -0.03763571576285953 0.03635020976405104 0.00128550599880845 -0.007406049330952522 0.0 0.0
0.0 0.05357682300649315 -0.046691046530999626 0.04533864472993236 0.0013524018010673319 -0.008797880658734344 0.0 0.0
0.0 0.06503320537619096 -0.05653478845599339 0.055161131404099686 0.0013736570518936204 -0.010266324933824076 0.0 0.0
0.0 0.07575185938363242 -0.06573902632761397 0.06446469915607818 0.001274327171535798 -0.012555344840799905 0.0 0.0
0.0 0.08219709623708639 -0.07104209832532327 0.07003333197986705 0.0010087663454562978 -0.017777508213346054 0.0 0.0
0.0 0.07867596751173621 -0.06720533296791133 0.06660307398330162 0.0006022589846097935 -0.02710352844327877 0.0 0.0
0.0 0.06979786946477992 -0.05756755380895368 0.05252171920344828 0.0050458346055054 1.065987575987748e-14 0.0 0.0
0.0 0.07867596751172944 -0.06720533296790288 0.06660307398329329 0.0006022589846096194 0.027103528443301328 0.0 0.0
0.0 0.08219709623706792 -0.071042098325306 0.07003333197984972 0.0010087663454562193 0.017777508213368497 0.0 0.0
0.0 0.07575185938360444 -0.0657390263275893 0.06446469915605389 0.0012743271715353513 0.012555344840812655 0.0 0.0
0.0 0.0650332053761589 -0.056534788455965296 0.05516113140407215 0.00137365705189308 0.010266324933827557 0.0 0.0
0.0 0.053576823006456484 -0.04669104653096768 0.045338644729901074 0.0013524018010665766 0.008797880658733048 0.0 0.0
0.0 0.0432965617894712 -0.0376357157628275 0.03635020976401929 0.0012855059988082116 0.0074060493309489545 0.0 0.0
0.0 0.03432458653393404 -0.029783206086786227 0.02858138912505218 0.001201816961734023 0.006154045885244977 0.0 0.0
0.0 0.026424094441954635 -0.023148305940794794 0.02204031286959404 0.0011079930712007667 0.005108512327161408 0.0 0.0
0.0 0.020124683911683525 -0.017576351435849697 0.016568811649822556 0.0010075397860271336 0.004197784062379607 0.0 0.0
0.0 0.014638769679747362 -0.012890308203722355 0.011984059209163535 0.0009062489945588101 0.003319601434253755 0.0 0.0
0.0 0.0101060002415153 -0.00894333746582272 0.008144688126828344 0.0007986493389943764 0.0024388012954900205 0.0 0.0
0.0 0.0063261651753163065 -0.0056776773803869154 0.00500993674292473 0.0006677406374621813 0.0016007475162308363 0.0 0.0
0.0 0.003405629089056235 -0.003100203527115265 0.002611928711913934 0.00048827481520133213 0.0008743025797146008 0.0 0.0
0.0 0.0014772424767799193 -0.0012459768523740448 0.0009851449229049422 0.0002608319294691038 0.00029120793696292357 0.0 0.0
0.0 0.00033803915291581233 -0.00023910582563049836 0.0001769350201925971 6.217080543790163e-05 3.390984643251587e-05 0.0 0.0
0.0 5.5039413466752096e-06 2.0230914956052933e-05 -1.6009498014911843e-05 -4.221416941141232e-06 -1.478963046142665e-05 0.0 0.0
0.0 -7.271368566768848e-07 -7.461911084530711e-08 5.801422346080834e-08 1.6604887384503704e-08 6.787833536890457e-08 0.0 0.0
0.0 0.0 0.0 0.0 0.0 0.0 0.0 0.0
0.0 0.0 0.0 0.0 0.0 0.0 0.0 0.0
0.0 0.0 0.0 0.0 0.0 0.0 0.0 0.0
0.0 0.0 0.0 0.0 0.0 0.0 0.0 0.0
0.0 0.0 0.0 0.0 0.0 0.0 0.0 0.0
0.0 0.0 0.0 0.0 0.0 0.0 0.0 0.0
0.0 7.187229598705419e-07 8.463335519122874e-08 -6.176879738647556e-08 -2.286455780476825e-08 5.165437736512387e-08 0.0 0.0
0.0 2.294673868187885e-05 -2.316368764080781e-05 1.552446747171675e-05 7.639220169091064e-06 4.567535075445794e-06 0.0 0.0
0.0 0.0006735546490915325 -0.00047258987057250085 0.0003555414424971954 0.00011704842807530529 -6.899414121569608e-06 0.0 0.0
0.0 0.0019324803360418095 -0.0018541501799976443 0.0015009647560035309 0.0003531854239941124 -0.0002662134113918712 0.0 0.0
0.0 0.00439403288672815 -0.0040011264202765824 0.0034327983249979417 0.0005683280952786438 -0.0006621135096212843 0.0 0.0
0.0 0.0076985100762322865 -0.006941662206125144 0.006208196652937616 0.0007334655531875255 -0.0011830007549960863 0.0 0.0
0.0 0.01200269897211807 -0.01065755150285563 0.009800515558026296 0.0008570359448293381 -0.0017854828998935181 0.0 0.0
0.0 0.017235533756305765 -0.015168002752080956 0.01420191902054208 0.0009660837315388621 -0.0024190025102646803 0.0 0.0
0.0 0.023380247646412604 -0.020557748447648017 0.01948464888722569 0.0010730995604223321 -0.0030487693478403167 0.0 0.0
0.0 0.030966898848843363 -0.02698133994288185 0.02580156694921708 0.0011797729936647568 -0.0037124520325908373 0.0 0.0
0.0 0.039521334904078234 -0.034636554035823997 0.033355957970323424 0.0012805960655005247 -0.004522240648902148 0.0 0.0
0.0 0.04988000833260433 -0.04360692676183847 0.0422402022719971 0.0013667244898414245 -0.0055095165772745605 0.0 0.0
0.0 0.06161819958574777 -0.05377066319125724 0.05234202282212396 0.0014286403691332458 -0.006554421142569321 0.0 0.0
0.0 0.07418108319642691 -0.06464285901856533 0.06318343507021881 0.0014594239483465895 -0.0073914378178797065 0.0 0.0
0.0 0.08611605830347868 -0.07498076323312038 0.07356835453986488 0.001412408693255519 -0.008281345806923208 0.0 0.0
0.0 0.09401175665203318 -0.08164419842545048 0.0805402793774963 0.001103919047954157 -0.012238706731551172 0.0 0.0
0.0 0.09129010043611911 -0.07849154317564701 0.07797662440459183 0.0005149187710550807 -0.02541944773911347 0.0 0.0
0.0 0.08215297671900058 -0.06826346385287707 0.06283540375052504 0.005428060102351977 8.53570686354388e-15 0.0 0.0
0.0 0.09129010043610825 -0.07849154317563606 0.07797662440458088 0.0005149187710552111 0.02541944773913094 0.0 0.0
0.0 0.09401175665201225 -0.08164419842543148 0.08054027937747779 0.0011039190479537647 0.012238706731569494 0.0 0.0
0.0 0.08611605830344517 -0.07498076323309134 0.07356835453983618 0.001412408693255182 0.008281345806932515 0.0 0.0
0.0 0.07418108319639048 -0.06464285901853364 0.06318343507018738 0.0014594239483462766 0.007391437817882151 0.0 0.0
0.0 0.06161819958570598 -0.053770663191220744 0.05234202282208825 0.0014286403691325495 0.006554421142568972 0.0 0.0
0.0 0.049880008332563286 -0.04360692676180283 0.04224020227196199 0.0013667244898408527 0.00550951657727304 0.0 0.0
0.0 0.039521334904036406 -0.03463655403578763 0.03335595797028777 0.0012805960654998306 0.004522240648897987 0.0 0.0
0.0 0.030966898848800935 -0.026981339942844917 0.02580156694918026 0.001179772993664648 0.003712452032587165 0.0 0.0
0.0 0.023380247646368424 -0.02055774844760994 0.01948464888718775 0.0010730995604221504 0.003048769347834971 0.0 0.0
0.0 0.017235533756273312 -0.015168002752051796 0.014201919020513674 0.000966083731538123 0.002419002510258064 0.0 0.0
0.0 0.01200269897209002 -0.010657551502830251 0.009800515558001778 0.0008570359448284764 0.001785482899888014 0.0 0.0
0.0 0.007698510076209752 -0.00694166220610446 0.006208196652917903 0.0007334655531865589 0.0011830007549919514 0.0 0.0
0.0 0.004394032886712636 -0.00400112642026202 0.003432798324984523 0.0005683280952774963 0.0006621135096180619 0.0 0.0
0.0 0.001932480336032528 -0.0018541501799886962 0.0015009647559958877 0.0003531854239928074 0.0002662134113900396 0.0 0.0
0.0 0.0006735546490862923 -0.0004725898705683273 0.00035554144249392845 0.00011704842807439862 6.899414120974213e-06 0.0 0.0
0.0 2.2946738680674293e-05 -2.3163687640634953e-05 1.5524467471610767e-05 7.63922016902408e-06 -4.567535075249389e-06 0.0 0.0
0.0 7.187229594391122e-07 8.463335514353968e-08 -6.176879735139436e-08 -2.2864557792165992e-08 -5.165437734438602e-08 0.0 0.0
0.0 0.0 0.0 0.0 0.0 0.0 0.0 0.0
0.0 0.0 0.0 0.0 0.0 0.0 0.0 0.0
0.0 0.0 0.0 0.0 0.0 0.0 0.0 0.0
0.0 0.0 0.0 0.0 0.0 0.0 0.0 0.0
0.0 0.0 0.0 0.0 0.0 0.0 0.0 0.0
0.0 0.0 0.0 0.0 0.0 0.0 0.0 0.0
0.0 -1.387936267926081e-06 6.553311853737398e-07 -5.357213699239928e-07 -1.1960981544974597e-07 2.839908340696284e-07 0.0 0.0
0.0 0.00014454075989036252 -7.202876841139655e-05 5.00296128787454e-05 2.1999155532650978e-05 2.2229082565710352e-05 0.0 0.0
0.0 0.0009778295644784756 -0.0008186501362475512 0.0006285455599353676 0.0001901045763121834 4.908709614181341e-05 0.0 0.0
0.0 0.0026560861583156364 -0.0024759245029680023 0.002047635794502288 0.00042828870846571446 -8.84537470516389e-05 0.0 0.0
0.0 0.005386121597468514 -0.004917986847425322 0.004282707610115014 0.0006352792373103036 -0.0002862868109181351 0.0 0.0
0.0 0.009149240923995806 -0.008206250536072546 0.007419225579795785 0.0007870249562767624 -0.0005467410587334441 0.0 0.0
0.0 0.01390994225120343 -0.012369431549385688 0.011461911406826147 0.0009075201425595352 -0.0008551518254625461 0.0 0.0
0.0 0.0197698942694434 -0.01744759666094138 0.016427764499425214 0.0010198321615161616 -0.0011710817048488505 0.0 0.0
0.0 0.026945056070398994 -0.023546354180637493 0.022413525306015973 0.0011328288746215113 -0.001480070023230616 0.0 0.0
0.0 0.03505619201425512 -0.030846759693054813 0.029600106966772136 0.0012466527262826766 -0.0018483228822582314 0.0 0.0
0.0 0.04502834690889807 -0.03950574612574845 0.038151709925111466 0.0013540362006369778 -0.0023096090591849775 0.0 0.0
0.0 0.05662033082094028 -0.04957135408269621 0.04812968825225159 0.001441665830444647 -0.0028704330173024793 0.0 0.0
0.0 0.06958164896769081 -0.060798731478052974 0.0593016002478117 0.0014971312302413146 -0.0034768792550718824 0.0 0.0
0.0 0.08313495025423089 -0.07250472608701736 0.07098926318556283 0.0015154629014544805 -0.0038966010326113676 0.0 0.0
0.0 0.0959003062180766 -0.08352795965629009 0.08201419430820703 0.0015137653480831795 -0.003947047465469359 0.0 0.0
0.0 0.10527729582448414 -0.09163547826360098 0.09024984933978623 0.0013856289238146587 -0.005277398856962071 0.0 0.0
0.0 0.10473501761850133 -0.09057851493670965 0.09011910031871422 0.0004594146179954463 -0.0177176906970671 0.0 0.0
0.0 0.09664350806203859 -0.08081274079538805 0.07534346790960042 0.005469272885787572 4.152060639750488e-15 0.0 0.0
0.0 0.10473501761848954 -0.09057851493669834 0.09011910031870332 0.0004594146179950051 0.017717690697077383 0.0 0.0
0.0 0.10527729582445805 -0.09163547826357815 0.09024984933976371 0.0013856289238142739 0.005277398856972461 0.0 0.0
0.0 0.0959003062180381 -0.08352795965625673 0.08201419430817397 0.0015137653480827953 0.003947047465474965 0.0 0.0
0.0 0.08313495025418723 -0.0725047260869795 0.07098926318552519 0.0015154629014543807 0.0038966010326125554 0.0 0.0
0.0 0.06958164896764485 -0.06079873147801288 0.059301600247772375 0.0014971312302404982 0.0034768792550717463 0.0 0.0
0.0 0.05662033082089571 -0.04957135408265725 0.04812968825221362 0.001441665830443648 0.0028704330173016388 0.0 0.0
0.0 0.04502834690885037 -0.039505746125707 0.038151709925070595 0.0013540362006363587 0.002309609059183317 0.0 0.0
0.0 0.03505619201420585 -0.030846759693011996 0.029600106966729718 0.0012466527262822722 0.001848322882256216 0.0 0.0
0.0 0.02694505607035304 -0.02354635418059728 0.022413525305976224 0.0011328288746210492 0.0014800700232277947 0.0 0.0
0.0 0.019769894269404314 -0.017447596660907325 0.016427764499391748 0.0010198321615155692 0.0011710817048451374 0.0 0.0
0.0 0.013909942251170869 -0.012369431549356652 0.011461911406797805 0.0009075201425588406 0.0008551518254596056 0.0 0.0
0.0 0.009149240923970616 -0.008206250536049462 0.007419225579773621 0.0007870249562758394 0.000546741058731245 0.0 0.0
0.0 0.0053861215974509834 -0.004917986847408861 0.004282707610099661 0.0006352792373091988 0.0002862868109165142 0.0 0.0
0.0 0.002656086158304762 -0.002475924502957432 0.0020476357944929358 0.0004282887084644958 8.845374705060457e-05 0.0 0.0
0.0 0.0009778295644722556 -0.0008186501362422408 0.0006285455599311077 0.00019010457631113257 -4.908709614200099e-05 0.0 0.0
0.0 0.00014454075988838265 -7.202876841049845e-05 5.002961287812835e-05 2.199915553237016e-05 -2.2229082565413023e-05 0.0 0.0
0.0 -1.387936268039739e-06 6.553311849941307e-07 -5.357213696426366e-07 -1.1960981535143528e-07 -2.839908340582655e-07 0.0 0.0
0.0 0.0 0.0 0.0 0.0 0.0 0.0 0.0
0.0 0.0 0.0 0.0 0.0 0.0 0.0 0.0
0.0 0.0 0.0 0.0 0.0 0.0 0.0 0.0
0.0 0.0 0.0 0.0 0.0 0.0 0.0 0.0
0.0 0.0 0.0 0.0 0.0 0.0 0.0 0.0
0.0 0.0 0.0 0.0 0.0 0.0 0.0 0.0
0.0 1.929169352631805e-06 -2.2931628530450217e-07 2.498732210152848e-07 -2.055693571065775e-08 -4.980749160383474e-07 0.0 0.0
0.0 0.00030904800642099343 -0.00015474642413358826 0.00010723249005534618 4.751393407824271e-05 5.656088830531674e-05 0.0 0.0
0.0 0.0013459516623817802 -0.0011389197852841048 0.0008667526100263436 0.0002721671752577601 0.0001501486674027236 0.0 0.0
0.0 0.0032239658579354662 -0.0030086721691590336 0.002463998259812331 0.0005446739093467025 0.00016876974245436246 0.0 0.0
0.0 0.006189865162194992 -0.005674194184334799 0.004885386879025451 0.0007888073053093473 0.00018555222218899123 0.0 0.0
0.0 0.01020540987930111 -0.009247890150170367 0.008255815387719743 0.0009920747624506245 0.0002003806066398384 0.0 0.0
0.0 0.015402428521704908 -0.013779992082121793 0.012594081060052682 0.0011859110220691063 0.00019191958460366802 0.0 0.0
0.0 0.021838663074385242 -0.019335356978248668 0.017938081292386186 0.0013972756858624748 0.00020780482449647285 0.0 0.0
0.0 0.02933185397830591 -0.0260467349134988 0.02441049932110478 0.001636235592394015 0.0002440759657452718 0.0 0.0
0.0 0.03842299638394396 -0.03407166333180775 0.03217477295062193 0.001896890381185792 0.00022215138427382703 0.0 0.0
0.0 0.049220240570221084 -0.043557329430956145 0.04138677839012721 0.002170551040828905 0.0001819937070628953 0.0 0.0
0.0 0.061746593211088247 -0.054518126656275624 0.052083861579777124 0.002434265076498439 4.0571979637775944e-05 0.0 0.0
0.0 0.07565511395872836 -0.06660996611382142 0.06395452964617594 0.0026554364676454867 -0.0002181670551257911 0.0 0.0
0.0 0.08991880976722408 -0.07896705623891671 0.07617195722199839 0.002795099016918238 -0.0005128959821395019 0.0 0.0
0.0 0.10294307826186094 -0.0902117450449769 0.08740193658913066 0.002809808455846057 -0.000663437327595085 0.0 0.0
0.0 0.11276493630508386 -0.09877958364831457 0.09601398372277883 0.0027655999255357788 -0.0009323309189937989 0.0 0.0
0.0 0.11505139243045123 -0.10118181712658708 0.09860267398895489 0.0025791431376322735 -0.012208972511163287 0.0 0.0
0.0 0.11096306591990976 -0.09411700169599797 0.085618401002709 0.008498600693288977 2.0122792321330962e-15 0.0 0.0
0.0 0.11505139243043971 -0.10118181712657637 0.09860267398894555 0.002579143137630759 0.01220897251116705 0.0 0.0
0.0 0.11276493630505263 -0.09877958364828741 0.09601398372275241 0.0027655999255351035 0.0009323309189964574 0.0 0.0
0.0 0.10294307826181859 -0.09021174504493946 0.08740193658909493 0.0028098084558445566 0.0006634373275978579 0.0 0.0
0.0 0.08991880976717581 -0.07896705623887454 0.07617195722195684 0.002795099016917486 0.0005128959821394594 0.0 0.0
0.0 0.07565511395867837 -0.06660996611377748 0.06395452964613343 0.0026554364676441124 0.00021816705512574947 0.0 0.0
0.0 0.061746593211040056 -0.05451812665623284 0.05208386157973646 0.0024342650764963966 -4.057197963838136e-05 0.0 0.0
0.0 0.049220240570168175 -0.04355732943090979 0.0413867783900822 0.0021705510408275824 -0.00018199370706320234 0.0 0.0
0.0 0.038422996383891184 -0.03407166333176135 0.032174772950576976 0.0018968903811843853 -0.00022215138427451354 0.0 0.0
0.0 0.02933185397825893 -0.02604673491345747 0.024410499321065038 0.0016362355923924266 -0.00024407596574727713 0.0 0.0
0.0 0.021838663074340212 -0.01933535697820913 0.017938081292347606 0.0013972756858615242 -0.00020780482449803432 0.0 0.0
0.0 0.015402428521668609 -0.013779992082090131 0.012594081060022097 0.0011859110220680427 -0.00019191958460426477 0.0 0.0
0.0 0.010205409879272655 -0.009247890150144905 0.008255815387695445 0.0009920747624494676 -0.00020038060664009623 0.0 0.0
0.0 0.006189865162175866 -0.005674194184316977 0.00488538687900892 0.0007888073053080582 -0.0001855522221888722 0.0 0.0
0.0 0.0032239658579228383 -0.0030086721691467994 0.0024639982598014805 0.0005446739093453196 -0.00016876974245429583 0.0 0.0
0.0 0.001345951662375464 -0.0011389197852778778 0.0008667526100213743 0.00027216717525650454 -0.00015014866740237543 0.0 0.0
0.0 0.0003090480064185131 -0.00015474642413213126 0.00010723249005434543 4.7513934077786985e-05 -5.65608883048209e-05 0.0 0.0
0.0 1.9291693522747486e-06 -2.2931628517051998e-07 2.4987322091487476e-07 -2.0556935744369503e-08 4.980749160351069e-07 0.0 0.0
0.0 0.0 0.0 0.0 0.0 0.0 0.0 0.0
0.0 0.0 0.0 0.0 0.0 0.0 0.0 0.0
0.0 0.0 0.0 0.0 0.0 0.0 0.0 0.0
SCALARS Wm float 4
LOOKUP_TABLE default
9.845198385699955 1.9141379001453362 3.8184431458756536 4.1126173396789545
4.369540110128141 2.1902498194740683 0.9376671632278107 1.2416231274262641
0.5022914194320001 0.5066482122162224 -0.004741761162256996 0.00038496837803460673
0.4338057684664053 0.43216131353109954 0.0006656464235055243 0.0009788085118002223
0.7476823519849523 0.6413242398155179 0.037635163083308706 0.06872294908612517
1.4234519952823717 0.8419543768359972 0.18892198553528283 0.392575632911091
2.7107951613672867 1.133049752358716 0.6162140369515317 0.9615313720570403
4.684875304898591 1.4572427476281091 1.3820656587429823 1.8455668985274942
7.480362223529921 1.8353186249125857 2.5909310142101885 3.0541125844071444
11.232307107684711 2.299344540723924 4.335472833547757 4.5974897334130365
16.086777082319845 2.892751096046307 6.701305204883806 6.492720781389728
22.146723760652662 3.649729821454076 9.711980379534811 8.785013559663787
29.73215135707494 4.576293034111622 13.623901513112784 11.531956809850527
39.04261487587634 5.678349467224035 18.575658378259973 14.788607030392306
50.143533536771976 6.879339477654852 24.69775916965545 18.566434889461668
62.79376881637517 8.027417290506577 31.975693066809 22.79065845905962
76.2575673351351 8.919766588432331 40.055433323721616 27.282367422981174
89.358554328291 9.379662601561945 48.29716530150872 31.68172642522029
100.6996826368993 9.397020087383178 55.76230177471586 35.54036077480026
108.59598026407612 9.007726784503665 61.21692107497946 38.371332404593026
111.2805044388261 8.402664333886095 63.360804899278065 39.51703520566196
108.59598026405976 9.00772678449646 61.216921074973115 38.371332404590184
100.69968263688114 9.3970200873927 55.762301774697406 35.54036077479102
89.35855432824609 9.37966260154945 48.297165301487624 31.681726425209032
76.2575673350949 8.919766588431974 40.055433323695716 27.28236742296716
62.793768816329205 8.02741729049976 31.975693066784125 22.790658459045357
50.143533536728015 6.879339477648598 24.697759169631944 18.56643488944745
39.042614875834154 5.6783494672195935 18.575658378236927 14.78860703037764
29.73215135703439 4.57629303410812 13.623901513090722 11.531956809835556
22.146723760615586 3.6497298214489713 9.711980379516307 8.78501355965031
16.08677708229035 2.892751096044471 6.701305204868293 6.492720781377575
11.232307107661608 2.2993445407221094 4.3354728335362465 4.59748973340326
7.480362223511321 1.8353186249079922 2.590931014203034 3.054112584400295
4.684875304885807 1.45724274762554 1.3820656587381461 1.8455668985221214
2.7107951613594743 1.1330497523574197 0.6162140369487521 0.9615313720533041
1.4234519952781692 0.8419543768342914 0.18892198553463146 0.39257563290924585
0.7476823519831709 0.6413242398145301 0.03763516308302497 0.06872294908561562
0.4338057684659492 0.4321613135305619 0.0006656464235232544 0.0009788085118638522
0.5022914194314121 0.5066482122156729 -0.004741761162250248 0.0003849683779892994
4.369540110124197 2.190249819474791 0.937667163225647 1.2416231274237584
9.845198385677428 1.9141379001342012 3.8184431458695536 4.112617339673679
11.392112094180078 5.172515221165377 2.895908849461349 3.3236880235533532
1.5520115024233065 0.352541865685598 0.47293533180246905 0.7265343049352398
0.22467023740414388 0.23690590595626643 -0.0028531689192877016 -0.009382499632834794
0.34794940545539044 0.3475395266963797 2.624170516245631e-05 0.00038363705384838174
0.5770859527920214 0.5277210304877769 0.013793424713427187 0.03557149759081756
1.1500400100221153 0.7425627335225793 0.13718786095456373 0.2702894155449724
2.2330066428986766 0.9542577205104129 0.48256175917692457 0.7961871632113395
3.9724949239067424 1.2004285299259243 1.163913795468976 1.6081525985118428
6.443651389579723 1.4599000866023908 2.256273456005546 2.727477846971787
9.718008351845613 1.7467216071339249 3.81582940403621 4.1554573406754765
13.905356553210133 2.077640099945893 5.924360268072729 5.903356185191505
19.195778992241955 2.473426859168162 8.716848692209219 8.005503440864572
25.627436949331834 2.946331624687271 12.152265581113378 10.528839743531195
33.64232004934408 3.488756480108449 16.62577022982876 13.527793339406868
43.250388330190624 4.065274205522579 22.154611836668508 17.03050228799955
54.28251128531133 4.582862558138172 28.731080512786715 20.968568214386437
66.16454538809 4.919508206259768 36.10554355700832 25.1394936248219
77.906724539993 4.9849846932222786 43.675918388918014 29.24582145785268
88.17353517393394 4.753321189263741 50.553067474509675 32.86714651016055
95.40554955443723 4.276445316171148 55.650952649288115 35.47815158897793
98.05224510193972 3.793152338480366 57.733867673021166 36.52522509043821
95.40554955443054 4.2764453161753 55.65095264928097 35.47815158897429
88.173535173911 4.753321189264034 50.55306747449439 32.86714651015262
77.90672453996208 4.984984693220752 43.67591838889884 29.24582145784248
66.16454538805294 4.91950820625763 36.105543556986 25.1394936248093
54.282511285272705 4.582862558134741 28.731080512764464 20.968568214373516
43.25038833015239 4.065274205518271 22.15461183664749 17.030502287986643
33.6423200493079 3.488756480106781 16.62577022980782 13.527793339393282
25.62743694929739 2.9463316246862803 12.152265581093626 10.528839743517468
19.19577899221078 2.473426859166039 8.716848692192585 8.005503440852156
13.90535655318326 2.0776400999436806 5.924360268059054 5.903356185180532
9.718008351825238 1.7467216071330014 3.8158294040259033 4.155457340666329
6.443651389564642 1.4599000866006748 2.256273455998885 2.7274778469650816
3.9724949238957183 1.2004285299240909 1.1639137954647163 1.6081525985069103
2.2330066428917275 0.9542577205092139 0.48256175917455263 0.7961871632079601
1.1500400100188504 0.742562733521629 0.13718786095366653 0.2702894155435549
0.5770859527909067 0.527721030486997 0.013793424713311358 0.03557149759059835
0.3479494054551225 0.3475395266960235 2.6241705175781986e-05 0.0003836370539232852
0.2246702374042141 0.23690590595622932 -0.0028531689192561605 -0.009382499632758978
1.5520115024187093 0.3525418656852115 0.47293533180053726 0.7265343049329612
11.392112094158437 5.172515221155369 2.8959088494553207 3.32368802354774
8.394126964033612 4.039526966495138 1.9324583972173288 2.4221416003211464
0.9280778494891252 0.12288101722951442 0.30391972076715784 0.5012771114924536
0.1410881238488949 0.14108856030655328 -1.80369121587346e-08 -4.1842074621861334e-07
0.2635666022743471 0.26337944837168226 4.9943720668069965e-05 0.00013721018199670462
0.4502950499723622 0.4405287543063904 0.0017863784276555459 0.007979917238316387
0.8976514574911595 0.6670075087442965 0.07540231249624738 0.15524163625061585
1.7985653238500485 0.8731358527982949 0.3298923252327066 0.5955371458190468
3.317660127677608 1.113018081755737 0.8968151850225713 1.3078268608992993
5.485233098826792 1.3571463185731807 1.820550962521299 2.307535817732313
8.373194092000295 1.617854100194659 3.1716682664858085 3.5836717253198254
12.034742277834312 1.9111827151892404 4.9859388280930785 5.137620734551991
16.56628762676872 2.2533579308207154 7.313240269883845 6.999689426064161
22.27474271820381 2.667473140456781 10.385926425332256 9.221343152414772
29.16066726720393 3.148206536549748 14.131158504450056 11.881302226204124
37.56970957767196 3.6581004165688458 18.912625830020513 14.998983331082586
47.28325639389137 4.132310420968251 24.621751695852844 18.529194277070275
57.82873883872463 4.474102378969721 31.037788180199495 22.316848279555405
68.3294365108335 4.5835447231296556 37.69301125401243 26.05288053369141
77.55759321932926 4.398626313302042 43.807058965741994 29.35190794028523
84.10322803095238 4.023078316472372 48.35374660372621 31.72640311075381
86.4506748627954 3.466808203676676 50.259390779329784 32.72447587978891
84.1032280309422 4.0230783164731125 48.35374660371916 31.72640311074992
77.55759321931166 4.398626313302951 43.80705896572993 29.351907940278753
68.32943651080755 4.5835447231300535 37.693011253995564 26.05288053368194
57.828738838695706 4.4741023789711605 31.037788180180236 22.31684827954431
47.283256393859645 4.132310420967652 24.62175169583341 18.52919427705856
37.569709577637305 3.6581004165631033 18.91262583000283 14.998983331071361
29.160667267172343 3.148206536548337 14.131158504432022 11.88130222619198
22.27474271817383 2.6674731404559267 10.3859264253153 9.221343152402605
16.566287626741612 2.2533579308199445 7.313240269868957 6.999689426052713
12.034742277811688 1.9111827151881846 4.985938828081409 5.137620734542099
8.37319409198222 1.6178541001932691 3.1716682664771736 3.583671725311779
5.485233098812908 1.3571463185714354 1.8205509625153613 2.307535817726112
3.3176601276682143 1.1130180817545192 0.8968151850188504 1.307826860894845
1.798565323844268 0.8731358527972031 0.3298923252309363 0.5955371458161283
0.8976514574884249 0.6670075087433314 0.07540231249560764 0.1552416362494858
0.4502950499716188 0.44052875430562505 0.0017863784276478502 0.00797991723834572
0.26356660227412054 0.26337944837146554 4.994372066592613e-05 0.00013721018198899296
0.14108812384890534 0.14108856030656336 -1.8036912141597065e-08 -4.184207459031903e-07
0.9280778494856756 0.12288101722953176 0.30391972076566953 0.5012771114904735
8.394126964013678 4.039526966486344 1.9324583972118006 2.422141600315536
6.238902465876128 3.133560336719689 1.3170899864917258 1.788252142664715
0.5981517894042924 0.07349608070938986 0.18291781296139062 0.3417378957335113
0.09976045846988513 0.09976045846988513 0.0 0.0
0.19869852809907762 0.19867666544944418 2.5961598344769833e-06 1.9266489798968194e-05
0.35451738012058254 0.3620562244729426 -0.001830516605923524 -0.005708327746436525
0.6750937281299969 0.5696997452660284 0.029029897606394413 0.07636408525757385
1.4145009259153085 0.8015447477916318 0.2126022183654786 0.4003539597581979
2.6876795982710346 1.01958281707414 0.652130096396539 1.0159666848003557
4.5653904759853505 1.2499370678843018 1.4215039904577431 1.8939494176433038
7.061513904040894 1.487292329503467 2.556286424219556 3.0179351503178706
10.192936670498293 1.7438040071242098 4.067338691749439 4.381793971624643
14.100615343740536 2.042628217369449 6.053709314860818 6.004277811510264
18.870294205455423 2.3967259773365917 8.535057043170799 7.938511184948042
24.890127126602007 2.811844752129745 11.83259136443994 10.245691010032326
32.07490837741698 3.264729294819112 15.832377792174409 12.977801290423454
40.42312979515673 3.6994613185371596 20.626702034942753 16.096966441676827
49.6830000956837 4.042436801620132 26.179422154314967 19.46114113974861
58.99453944489032 4.195613199360214 31.96356275606626 22.83536348946383
67.2650543605839 4.087641697079652 37.31691560260315 25.86049706090109
73.22601655366104 3.78540943436093 41.35543836664243 28.085168752657687
75.3704401912031 3.122874145074344 43.193500341267594 29.05406570486118
73.22601655365278 3.7854094343609384 41.35543836663702 28.085168752654813
67.26505436056881 4.087641697080978 37.3169156025926 25.860497060895238
58.994539444866575 4.195613199358746 31.963562756052042 22.83536348945577
49.68300009565683 4.042436801620032 26.1794221542982 19.461141139738608
40.423129795128695 3.6994613185362644 20.62670203492604 16.096966441666407
32.07490837738918 3.264729294816821 15.832377792159015 12.977801290413328
24.890127126575962 2.81184475212945 11.8325913644248 10.245691010021712
18.870294205428625 2.396725977333591 8.53505704315716 7.938511184937873
14.100615343717708 2.04262821736936 6.053709314848273 6.004277811500079
10.192936670477888 1.7438040071219565 4.067338691739805 4.381793971616126
7.061513904024949 1.4872923295012415 2.5562864242125656 3.0179351503111413
4.565390475973296 1.2499370678827468 1.4215039904527234 1.8939494176378235
2.687679598263008 1.0195828170729921 0.6521300963936774 1.0159666847963382
1.4145009259106025 0.8015447477908162 0.21260221836388507 0.40035395975590077
0.675093728128122 0.5696997452651013 0.02902989760607228 0.07636408525694857
0.35451738012001954 0.362056224472307 -0.00183051660590689 -0.005708327746380559
0.19869852809891236 0.19867666544927876 2.596159834702583e-06 1.9266489798907326e-05
0.09976045846979142 0.09976045846979142 0.0 0.0
0.5981517894013688 0.07349608070943842 0.1829178129601254 0.34173789573180474
6.238902465860213 3.1335603367128644 1.317089986487517 1.7882521426598317
4.5599780778581565 2.408450756635692 0.8595101902497715 1.2920171309726936
0.43992369096273864 0.10716252620598483 0.1224613253707806 0.2102998393859734
0.09049951305334235 0.09049951305334235 0.0 0.0
0.15685545331732986 0.15684802449881163 4.1024249203392503e-07 7.018576026238409e-06
0.2822651632396529 0.2826188016494023 -8.494501634513361e-05 -0.0002686933934041467
0.5077405719405829 0.49073457363533807 0.0031168369733303824 0.013889161331914398
1.0670960169822976 0.70866176746073 0.12395053570766029 0.23448371381390803
2.092764444620095 0.9212578443125843 0.4355688970000783 0.735937703307433
3.6764413624987875 1.1360552442140401 1.0517368676019285 1.4886492506828195
5.784214459665343 1.3520018567928078 1.9717543049089508 2.4604582979635845
8.432600565728546 1.5789436814386117 3.2184133958227075 3.6352434884672276
11.691851019597948 1.8341293371838714 4.8346380526398836 5.023083629774196
15.7296937485176 2.137318056505997 6.9242695239080385 6.668106168103563
20.61887849871258 2.4908571551264322 9.489642915760255 8.638378427825888
26.69688345579808 2.8787713009048046 12.844658946840022 10.973453208053272
33.85250153955201 3.2762481146902886 16.91292252051305 13.663330904348662
41.73157041448532 3.6223008760347004 21.49608478665802 16.61318475179261
49.856952773978406 3.8231655637850515 26.427673948050316 19.606113262143037
57.2412665952504 3.7990051063576855 31.103964617036965 22.338296871855732
62.739010246245506 3.5590587546046484 34.76177326861611 24.418178223024743
64.74559691075855 2.7756652811160882 36.55030208923715 25.419629540405325
62.739010246240255 3.559058754606472 34.76177326861158 24.418178223022196
57.24126659523702 3.7990051063583956 31.103964617027994 22.338296871850623
49.85695277395877 3.823165563783574 26.427673948038922 19.606113262136265
41.731570414460435 3.6223008760313804 21.49608478664469 16.613184751784352
33.85250153952718 3.2762481146871765 16.91292252049985 13.663330904340143
26.696883455773744 2.8787713009023648 12.844658946827032 10.973453208044342
20.61887849868934 2.490857155123768 9.489642915748364 8.638378427817205
15.729693748497699 2.137318056506072 6.924269523896876 6.668106168094747
11.691851019578074 1.8341293371825242 4.834638052629874 5.023083629765678
8.432600565712256 1.5789436814374134 3.2184133958148764 3.6352434884599685
5.784214459652563 1.3520018567921892 1.9717543049029118 2.460458297957462
3.6764413624884735 1.1360552442124747 1.051736867597954 1.4886492506780453
2.092764444613664 0.9212578443118381 0.43556889699770257 0.7359377033041218
1.0670960169785029 0.7086617674594208 0.12395053570668624 0.23448371381239588
0.5077405719392779 0.49073457363444295 0.0031168369732104888 0.013889161331624421
0.2822651632391722 0.28261880164888464 -8.494501633966628e-05 -0.0002686933933728631
0.15685545331713507 0.15684802449862106 4.1024249179030226e-07 7.018576022264267e-06
0.0904995130531991 0.0904995130531991 0.0 0.0
0.4399236909604005 0.10716252620594051 0.12246132536978674 0.21029983938467367
4.55997807784567 2.4084507566303004 0.8595101902466391 1.2920171309687318
3.266272665299948 1.8407946358027423 0.5401479078761727 0.8853301216210334
0.3127742101330239 0.14319489139713817 0.05098956847798058 0.118589750257905
0.1012285579101059 0.1012285579101059 0.0 0.0
0.13554665525951035 0.13554697472219063 -1.2239768657509634e-08 -3.072229116306911e-07
0.23122060170112177 0.23167803980698062 -7.031226537639471e-05 -0.0003871258404825125
0.3856378003459975 0.39119719362448035 -0.002752336064956355 -0.002807057213526496
0.7550970770651704 0.5911785775222661 0.04372745312775195 0.12019104641515228
1.575643857244232 0.8212072041063525 0.2834005796309367 0.47103607350694277
2.808299823794678 1.0098034859524143 0.7039295156124303 1.0945668222298333
4.562776518535258 1.211941427614446 1.438064197027598 1.9127708938932129
6.730637100090253 1.4110711327657146 2.420150132279007 2.899415835045531
9.372750602349115 1.6285677989157676 3.6871134620958066 4.057069341337542
12.606568408522822 1.8826412352210944 5.3046806045267765 5.419246568774951
16.62964504920529 2.1782284299293178 7.403373972399322 7.048042646876644
21.518764721634966 2.514851843863419 10.010823030177733 8.993089847593815
27.32122954958314 2.862867334796897 13.204503639247157 11.253858575539088
34.03372267705094 3.197483440801139 17.08209615249705 13.754143083752755
40.9575114409133 3.4550922884650035 21.138872222008082 16.36354693044021
47.41848726599762 3.5224244582690436 25.074879185714646 18.821183622013926
52.53393822051384 3.344777600215414 28.413251428090586 20.77590919220784
54.462063361743446 2.431319157204194 30.21093020247752 21.819814002061737
52.533938220509825 3.34477760021786 28.41325142808652 20.775909192205418
47.418487265989924 3.5224244582735746 25.074879185706994 18.821183622009368
40.95751144089642 3.4550922884625086 21.138872221999158 16.36354693043475
34.033722677032316 3.197483440799812 17.082096152486532 13.754143083745976
27.32122954956734 2.8628673347998044 13.20450363923606 11.253858575531487
21.5187647216154 2.514851843861065 10.010823030167717 8.993089847586617
16.62964504918797 2.178228429927914 7.403373972390375 7.048042646869682
12.60656840850478 1.8826412352194506 5.304680604517785 5.419246568767547
9.372750602334115 1.628567798916065 3.687113462087738 4.057069341330311
6.7306371000763265 1.4110711327646637 2.42015013227248 2.899415835039184
4.562776518524126 1.2119414276135998 1.438064197022715 1.912770893887808
2.808299823786919 1.0098034859514156 0.7039295156094935 1.0945668222260112
1.5756438572388347 0.821207204105179 0.28340057962914905 0.4710360735045063
0.7550970770626725 0.5911785775211191 0.043727453127289956 0.1201910464142635
0.3856378003453118 0.39119719362369104 -0.002752336064935175 -0.0028070572134439686
0.23122060170071718 0.23167803980658974 -7.031226537752799e-05 -0.00038712584049511295
0.135546655259317 0.13554697472199653 -1.2239768622387086e-08 -3.0722291093115194e-07
0.10122855790991798 0.10122855790991798 0.0 0.0
0.3127742101313624 0.14319489139702238 0.050989568477350214 0.11858975025699005
3.2662726652903875 1.8407946357985103 0.5401479078739575 0.8853301216179209
2.2506037456053454 1.385435088297754 0.29958985958677303 0.5655787977208186
0.24405644639569316 0.1819137065383366 0.015297816847448617 0.04684492300990786
0.12125381761218146 0.12125381761218146 0.0 0.0
0.13047730491618695 0.13047730491618695 0.0 0.0
0.196209222769003 0.196104067920565 9.803797726048209e-06 9.535105071192888e-05
0.30317323908986643 0.3122099046448218 -0.002083808577995709 -0.0069528569769595925
0.5339716688424305 0.4935023172354344 0.007099428535694721 0.03336992307130132
1.0665612692843134 0.6790377519487849 0.11995111403822903 0.2675724032972992
2.068019891674522 0.8914247482015367 0.46281364701041156 0.7137814964625732
3.371974363382228 1.058148192878892 0.9376866445573875 1.3761395259459486
5.104223653690252 1.2378261566710806 1.6895219345713417 2.1768755624478286
7.17023539043341 1.4227480406360151 2.64089800016217 3.1065893496352244
9.666030236241951 1.6328304013321504 3.8411666065866723 4.1920332283231305
12.745969782247762 1.876107958134603 5.384181120458921 5.485680703654239
16.536161385608512 2.1539377981298085 7.34293930086419 7.0392842866145084
21.205639760947818 2.4656325128512235 9.875979751692057 8.864027496404532
26.3891644655934 2.7773688904092206 12.683659688917016 10.92813588626717
32.18823314774846 3.0675258097977935 16.016597288313758 13.10411004963691
37.91054478334163 3.24069151309165 19.41042187495101 15.259431395298941
42.623211143454135 3.145569066492183 22.361096298202405 17.11654577875956
44.544129932745655 2.0979917846637473 24.209364798439836 18.23677334964206
42.6232111434494 3.1455690664920426 22.361096298199513 17.116545778757825
37.91054478333236 3.2406915130925134 19.410421874944802 15.259431395295039
32.18823314773804 3.0675258097988896 16.016597288306773 13.104110049632366
26.38916446557934 2.777368890409941 12.683659688908225 10.928135886261174
21.20563976093244 2.4656325128521215 9.875979751682593 8.86402749639772
16.53616138559419 2.1539377981290375 7.342939300856582 7.03928428660857
12.745969782233898 1.876107958133335 5.3841811204520305 5.485680703648535
9.666030236228638 1.6328304013302821 3.8411666065805776 4.192033228317779
7.170235390420614 1.422748040635509 2.640898000155851 3.106589349629254
5.104223653679236 1.237826156669877 1.6895219345665873 2.176875562442772
3.371974363373593 1.0581481928777026 0.9376866445539529 1.376139525941938
2.068019891667812 0.8914247481999474 0.46281364700811556 0.7137814964597496
1.06656126928076 0.6790377519477006 0.11995111403728222 0.26757240329577736
0.5339716688407222 0.49350231723459587 0.007099428535421201 0.03336992307070499
0.303173239089306 0.3122099046440975 -0.0020838085779492535 -0.006952856976842249
0.19620922276872246 0.19610406792028004 9.803797726126656e-06 9.535105071631407e-05
0.13047730491583653 0.13047730491583653 0.0 0.0
0.12125381761187873 0.12125381761187873 0.0 0.0
0.2440564463944387 0.1819137065380573 0.015297816847079582 0.04684492300930182
2.250603745598523 1.3854350882947624 0.2995898595853089 0.5655787977184519
1.5394147725769691 1.0770160505701918 0.16597972212910203 0.29641899987767534
0.19187710174063552 0.19333970182881868 -0.006963186222781598 0.005500586134598413
0.14344019337581104 0.14344537882166397 -2.1719582759986377e-07 -4.968250025342334e-06
0.13651620721796287 0.13651620721796287 0.0 0.0
0.17538146271653007 0.1754300043505552 -5.555021791330228e-06 -4.298661223373393e-05
0.24938345669275497 0.25322205052028884 -0.000843650825423131 -0.0029949430021107572
0.3790355510741362 0.3875447144441776 -0.004222640585851841 -0.004286522784189508
0.6884958855282873 0.5435990987690028 0.03420092095812821 0.11069586580115662
1.3164269904007269 0.7226779038911234 0.19827313249424391 0.3954759540153595
2.3281609027423826 0.9021072948865252 0.5671494298968985 0.8589041779589578
3.5582034635757265 1.05082788859833 1.0389243467638563 1.468451228213541
5.068467179664007 1.2059192021009761 1.6858125037282137 2.176735473834816
6.888323372197702 1.3795630045800564 2.5179147769297607 2.990845590687883
9.1041469750458 1.5740864726982688 3.5727415013431556 3.9573190010043744
11.880258597192334 1.8031144270772115 4.956274647607241 5.120869522507884
15.248269407497792 2.066481705862725 6.670345095149924 6.511442606485143
19.300551917039442 2.3550282736577737 8.839498817551004 8.106024825830666
23.76072601183462 2.6606175927288573 11.235017346902882 9.865091072202878
28.430718196322566 2.9245407656113445 13.820693426862926 11.685484003848295
32.83643436768193 2.950007032635475 16.472222643526933 13.414204691519526
34.83767163467968 1.7771068651526736 18.419572860689158 14.640991908837854
32.836434367680425 2.9500070326364694 16.47222264352537 13.414204691518586
28.430718196316803 2.924540765611768 13.820693426859215 11.685484003845833
23.760726011824687 2.6606175927278297 11.235017346897656 9.8650910721992
19.300551917027192 2.3550282736568935 8.839498817544467 8.106024825825836
15.248269407485896 2.0664817058627585 6.670345095143215 6.51144260647992
11.88025859718059 1.8031144270750996 4.956274647601983 5.12086952250351
9.10414697503764 1.5740864726996233 3.5727415013381183 3.957319000999897
6.8883233721885215 1.3795630045791338 2.5179147769255468 2.990845590683841
5.068467179655148 1.2059192021004776 1.6858125037241662 2.1767354738305045
3.5582034635669393 1.0508278885963016 1.0389243467607467 1.4684512282098898
2.328160902736271 0.9021072948859192 0.5671494298944217 0.8589041779559308
1.3164269903970385 0.7226779038902865 0.1982731324931002 0.3954759540136513
0.6884958855261992 0.5435990987682363 0.034200920957689694 0.11069586580027287
0.37903555107321324 0.38754471444338223 -0.004222640585866632 -0.004286522784302366
0.2493834566922658 0.2532220505195484 -0.0008436508253928542 -0.0029949430018899013
0.17538146271625205 0.17543000435032508 -5.555021795275834e-06 -4.2986612277745585e-05
0.13651620721757757 0.13651620721757757 0.0 0.0
0.14344019337548738 0.14344537882132943 -2.171958270000216e-07 -4.968250015090288e-06
0.19187710173982978 0.193339701828419 -0.0069631862228934326 0.005500586134304179
1.5394147725722338 1.0770160505680815 0.165979722128046 0.2964189998761063
0.9908834569558355 0.8025474824609247 0.05440498871785308 0.13393098577705784
0.17118249029623428 0.19054968921848936 -0.0067239264182670745 -0.01264327250398802
0.1633755544048371 0.16346162346143872 -7.296353753386552e-06 -7.877270284823133e-05
0.1490363996649584 0.1490615420313104 -1.658215759124957e-06 -2.3484150592871378e-05
0.1670973316541817 0.16712204061951041 -2.073908818376048e-06 -2.263505651034803e-05
0.21377986732626478 0.21464947752563604 -0.0002347714105331413 -0.0006348387888381336
0.2890132639992084 0.3012454464886027 -0.003527825035329543 -0.008704357454064704
0.43636700891786206 0.4226073771367581 0.0013643565090288808 0.012395275272074987
0.7507346317326948 0.5510563264999049 0.053416490783487154 0.14626181444930267
1.3248974439919607 0.6950645872863721 0.21793835719749688 0.41189449950809187
2.112782334498101 0.8255862655653806 0.48204732167863296 0.8051487472540878
3.105300628280786 0.9590898730827939 0.8670487268827577 1.2791620283152332
4.290037482931809 1.099667038320211 1.3601877393652178 1.8301827052463813
5.722127300877745 1.2518281965538058 1.9886661746287992 2.4816329296951403
7.513798137521961 1.4316912019102312 2.8155189961502955 3.266587939461435
9.76276510541571 1.6489515928949574 3.89530860948879 4.218504903031958
12.522331480617755 1.9127325939430666 5.255435723146332 5.354163163528357
15.708782285205778 2.1943006029497663 6.8598944091469845 6.654587273109029
19.367266701804613 2.5223148241304214 8.746966424494369 8.097985453179817
23.39159799183166 2.7450891415285477 10.982162788282087 9.664346062021018
25.49049271839735 1.4939734805255165 12.906398914528614 11.090120323343218
23.39159799183215 2.7450891415298098 10.982162788281629 9.664346062020712
19.36726670180142 2.5223148241307753 8.746966424492335 8.097985453178312
15.708782285198659 2.1943006029486476 6.859894409143565 6.654587273106448
12.522331480611854 1.9127325939456772 5.255435723141666 5.354163163524512
9.762765105406388 1.6489515928931051 3.89530860948478 4.218504903028501
7.513798137516137 1.4316912019102943 2.8155189961472376 3.2665879394586033
5.722127300869718 1.251828196551192 1.988666174626059 2.481632929692471
4.290037482926233 1.0996670383195344 1.360187739362928 1.8301827052437716
3.1053006282745312 0.95908987308177 0.867048726880311 1.2791620283124499
2.1127823344930703 0.8255862655643464 0.48204732167694786 0.8051487472517765
1.3248974439884795 0.6950645872859806 0.2179383571962224 0.4118944995062765
0.7507346317306658 0.5510563264993746 0.05341649078296826 0.14626181444832284
0.43636700891685565 0.42260737713617846 0.0013643565089197052 0.012395275271757506
0.28901326399862526 0.3012454464877423 -0.0035278250352855857 -0.008704357453831513
0.21377986732592794 0.21464947752511382 -0.00023477141050809225 -0.0006348387886777688
0.16709733165368781 0.16712204061905275 -2.0739088230941046e-06 -2.2635056541816418e-05
0.14903639966461027 0.14906154203095465 -1.6582157584634692e-06 -2.3484150585914405e-05
0.16337555440438992 0.1634616234609687 -7.2963537516321735e-06 -7.877270282710897e-05
0.1711824902958164 0.19054968921791138 -0.006723926418226372 -0.012643272503868668
0.9908834569528729 0.8025474824594792 0.05440498871731378 0.13393098577608012
0.6466987391892283 0.6172983235337645 0.0075067919100376525 0.021893623745426086
0.16511466935569952 0.1704300115765164 -0.0012399398184338368 -0.004075402402383023
0.17856805990410257 0.17858478892924418 -8.919510161962231e-07 -1.5837074125381083e-05
0.16428159564646685 0.16429567909759987 -6.269657850398564e-07 -1.3456485347957748e-05
0.1688583511400978 0.168857882776883 1.7589889957041008e-06 -1.2906257808345925e-06
0.1957841022519341 0.19749614533221413 -0.00033631336648938645 -0.0013757297137905818
0.2402101071562942 0.246259226649857 -0.0017538687074572235 -0.004295250786105583
0.3017360172298118 0.2919214581833772 0.001453982196836907 0.008360576849597557
0.3985883720696795 0.35513993877121947 0.009999315357251369 0.033449117941208695
0.5867327275180387 0.43764717163906486 0.04078282843906058 0.10830272743991345
0.9349471048834215 0.5480058496185845 0.1348567244003843 0.2520845308644523
1.3853988215862967 0.63899866880693 0.2637542116253763 0.4826459411539903
1.9727697162431697 0.7284726248605401 0.46959069499603934 0.7747063963865903
2.7139882935289354 0.828984435888367 0.7534352256468989 1.13156863199367
3.6465309536998194 0.9508399354202943 1.127861491610943 1.5678295266685816
4.856691286539041 1.1135899398326807 1.6313170481314931 2.1117842985748645
6.459077728156448 1.3339065590386743 2.323638111973131 2.8015330571446433
8.543096288329913 1.6070215381328332 3.276160602433011 3.659914147764073
11.009218735021898 1.8814692640844939 4.449971288479489 4.677778182457915
14.248596429678095 2.3535076209580197 5.955926373539583 5.939162435180491
16.98732351886758 1.2827974484511082 8.105473615866085 7.599052454550381
14.248596429677699 2.3535076209555204 5.955926373540757 5.939162435181418
11.00921873502139 1.881469264086066 4.449971288478335 4.677778182456985
8.543096288326169 1.6070215381331394 3.2761606024308665 3.6599141477621657
6.459077728150012 1.3339065590382557 2.3236381119700034 2.8015330571417527
4.856691286535524 1.1135899398328812 1.6313170481296988 2.111784298572945
3.6465309536965536 0.9508399354197943 1.1278614916096799 1.5678295266670799
2.713988293527474 0.828984435888255 0.7534352256462614 1.131568631992956
1.9727697162407547 0.7284726248604491 0.4695906949950287 0.7747063963852768
1.3853988215839164 0.6389986688069305 0.2637542116244057 0.48264594115258036
0.9349471048814784 0.5480058496186215 0.13485672439961494 0.2520845308632419
0.586732727516579 0.43764717163830763 0.040782828438825115 0.1083027274394463
0.39858837206903913 0.35513993877092265 0.009999315357147837 0.0334491179409687
0.3017360172291593 0.2919214581829177 0.0014539821967764978 0.00836057684946525
0.24021010715579716 0.24625922664926794 -0.0017538687074353516 -0.0042952507860354976
0.19578410225163448 0.197496145331927 -0.0003363133664887585 -0.0013757297138037227
0.16885835113969797 0.16885788277645755 1.75898899811853e-06 -1.290625757698555e-06
0.16428159564614694 0.16429567909726334 -6.269657839693201e-07 -1.3456485332418166e-05
0.17856805990372376 0.17858478892885382 -8.919510153906456e-07 -1.5837074114645903e-05
0.1651146693553843 0.17043001157611942 -0.0012399398184126823 -0.004075402402322391
0.6466987391876394 0.6172983235325529 0.00750679190992278 0.02189362374516372
0.42796697754064644 0.4262492621528463 0.00011431871552432483 0.0016033966722758216
0.16217911205059748 0.1623606334448414 -1.1328308049829329e-05 -0.0001701930861940791
0.18842958214647942 0.18856547290342712 -1.1143274495061744e-05 -0.00012474748245261706
0.17934804690078684 0.1793926517720458 -3.0090264717618683e-06 -4.159584478721377e-05
0.1780034532473799 0.17800299695185337 1.2746668436716983e-06 -8.183713171120655e-07
0.19455842883216698 0.19622547719510522 -0.0003317057371523675 -0.0013353426257858279
0.2254855001411828 0.23087264409043423 -0.0014960146742166742 -0.003891129275034726
0.2618773098925503 0.2481759589293 0.002066358053176699 0.011634992910073657
0.2944467523850951 0.2470511498779252 0.013197138508118586 0.034198463999051375
0.3267790335936059 0.22159307863907257 0.029818543200340955 0.0753674117541924
0.38935625000737983 0.20217806859865806 0.06389629363505941 0.1232818877736626
0.4880284540923848 0.1937897969664975 0.10093657244135686 0.19330208468453014
0.6423869420393553 0.21147713869221468 0.1583533233843423 0.2725564799627985
0.8600830885464605 0.2519102754515428 0.2368744906918025 0.37129832240311506
1.1703514861522035 0.28533203616300745 0.35694702725756994 0.5280724227316258
1.5866261149129142 0.2909460230509885 0.5291377017385956 0.76654239012333
2.1515821486590507 0.3025806114636383 0.7839261789758042 1.0650753582196086
2.919024310312054 0.3330724674982453 1.1412002429128503 1.444751599900958
4.169982645670925 0.4918421062092404 1.6776921271240082 2.000448412337678
6.745649949865053 1.2799476669072414 2.508290843537628 2.957411439420185
11.100495381887722 1.1054405801087124 4.864008017274073 5.131046784504941
6.745649949870835 1.279947666909799 2.5082908435393696 2.9574114394216684
4.1699826456682425 0.49184210620833807 1.677692127123123 2.0004484123367825
2.9190243103095748 0.3330724674980365 1.141200242911614 1.4447515998999245
2.1515821486535187 0.30258061146158133 0.783926178974176 1.06507535821776
1.5866261149096608 0.2909460230497455 0.529137701737829 0.7665423901220862
1.1703514861517728 0.2853320361635792 0.356947027257065 0.5280724227311286
0.8600830885456634 0.25191027545105893 0.23687449069166902 0.37129832240293614
0.6423869420374795 0.21147713869206186 0.15835332338359714 0.2725564799618202
0.4880284540912628 0.1937897969663272 0.10093657244100995 0.1933020846839261
0.38935625000576707 0.20217806859830123 0.06389629363454224 0.12328188777292334
0.3267790335938965 0.2215930786392879 0.02981854320037959 0.07536741175422922
0.2944467523847962 0.2470511498780053 0.013197138507991656 0.0341984639987992
0.26187730989215846 0.24817595892909458 0.002066358053117722 0.011634992909946205
0.22548550014082552 0.23087264408997962 -0.0014960146741951855 -0.0038911292749588956
0.19455842883167246 0.19622547719458286 -0.00033170573714729244 -0.001335342625763125
0.17800345324702366 0.17800299695148014 1.2746668447383521e-06 -8.183713012188865e-07
0.1793480469003762 0.17939265177161537 -3.009026470089872e-06 -4.1595844769073125e-05
0.18842958214612482 0.18856547290305983 -1.1143274493439908e-05 -0.00012474748244152296
0.16217911205028535 0.16236063344455115 -1.132830805140456e-05 -0.00017019308621435804
0.42796697753964075 0.42624926215167397 0.00011431871553342396 0.0016033966724333124
0.286405211459654 0.28644864016804916 -2.4699665670363174e-06 -4.095874182818501e-05
0.15381641282523906 0.15381251509601299 -3.4131865495895853e-08 3.931861091567636e-06
0.19220450724593036 0.19217085664752948 3.0371884760397377e-06 3.061340992484827e-05
0.19217711646793312 0.19223293289411977 -4.477284794431172e-06 -5.13391413922115e-05
0.1922358687985043 0.19241945273545796 -2.4887401022387532e-05 -0.00015869653593127516
0.20890303228209772 0.20923928272653083 -0.00016178219353639927 -0.0001744682508966769
0.24672288911768064 0.2548496432572046 -0.0020511682451786538 -0.006075585894345411
0.3038026676016751 0.2932411201005601 0.0017738899120769362 0.008787657589038019
0.3987667529291704 0.3547841453748032 0.010184569626549445 0.03379803792781767
0.5858456701716603 0.4371787636936687 0.040613527294122403 0.10805337918386929
0.933743960820072 0.55183459805627 0.13337707061944465 0.24853229214435707
1.3894577104903731 0.6392851202188308 0.2665077302995226 0.4836648599720196
1.9821494024024746 0.7303399275609288 0.4727276770232715 0.779081797818274
2.7325988342027463 0.8320785398284859 0.7607111544233216 1.13980913995094
3.6431123334620725 0.9472911596313406 1.128548030496292 1.56727314333444
4.697152869942439 1.0764378336547784 1.574961416914528 2.0457536193731305
5.770980692897949 1.2098829368515611 2.0427394811103414 2.5183582749360465
6.672263395434395 1.3311300815097167 2.474582021354822 2.8665512925698575
6.997105600226917 1.3966479281411017 2.638051367248508 2.962406304837308
5.626285069317977 0.709337288670876 2.370428122264424 2.5465196583826764
11.227938368392437 2.0113220951389565 4.387725820815322 4.828890452438165
5.626285069321914 0.7093372886711815 2.370428122266373 2.546519658384354
6.997105600223132 1.3966479281379252 2.6380513672481363 2.962406304837073
6.6722633954294865 1.331130081508529 2.474582021352877 2.86655129256808
5.770980692893335 1.209882936852536 2.0427394811075343 2.5183582749332687
4.697152869939858 1.0764378336563907 1.5749614169125243 2.045753619370943
3.6431123334562217 0.9472911596292781 1.1285480304945648 1.5672731433323785
2.73259883419892 0.8320785398283677 0.760711154421636 1.1398091399489165
1.9821494023974568 0.7303399275602511 0.47272767702138485 0.7790817978158207
1.3894577104853751 0.6392851202175978 0.2665077302979744 0.48366485996980285
0.9337439608163052 0.5518345980551882 0.13337707061834556 0.24853229214277173
0.5858456701695044 0.4371787636924803 0.040613527293806365 0.10805337918321795
0.3987667529283387 0.35478414537429503 0.01018456962645285 0.033798037927590514
0.3038026676011272 0.29324112010017545 0.001773889912026295 0.008787657588925288
0.24672288911703158 0.25484964325652093 -0.0020511682451681387 -0.006075585894321205
0.2089030322815439 0.20923928272582107 -0.0001617821935161009 -0.0001744682507610405
0.19223586879822593 0.19241945273519084 -2.488740102436045e-05 -0.00015869653594059263
0.19217711646748434 0.19223293289365 -4.477284792821856e-06 -5.1339141372841755e-05
0.19220450724556223 0.19217085664715386 3.0371884760535384e-06 3.061340993232721e-05
0.15381641282506126 0.15381251509583896 -3.413186595497461e-08 3.93186108829185e-06
0.28640521145889725 0.2864486401672657 -2.4699665649585164e-06 -4.095874180351584e-05
0.18457670566025877 0.18457670566025877 0.0 0.0
0.13990795982409202 0.13989945237295792 4.6505239045753023e-07 8.042398743661904e-06
0.18919018131784082 0.18919845705981936 1.5770094924408603e-07 -8.433442927753298e-06
0.20149534288521487 0.2014498092467979 6.741537791692081e-06 3.8792100625377955e-05
0.2098484708746557 0.2098930214092743 1.0578584173538545e-05 -5.51291187921557e-05
0.23849333709552498 0.24401013903234323 -0.0010342919046324095 -0.00448251003218586
0.29970596957242956 0.3022678597963633 -0.0017447855635947338 -0.0008171046603389574
0.4400341669918191 0.4237799576571264 0.0022114449095910404 0.014042764425101686
0.7502994218844182 0.5507701434356074 0.053352971816891484 0.1461763066319193
1.323164289744313 0.6948547954146095 0.21723109300216661 0.4110784013275368
2.112039734850936 0.8253979307330725 0.4817339030584106 0.8049079010594521
3.107564721660956 0.9593515720502463 0.8679636102115095 1.2802495393992006
4.298235443192136 1.1007503888207517 1.363695578574911 1.8337894757964728
5.738336965849593 1.2531426302524102 1.9963924558171986 2.488801879779982
7.512164105619969 1.425823014165789 2.8185025029636135 3.267838588490569
9.61313096009468 1.6102710556754858 3.8373234161854373 4.165536488233758
11.874013254572914 1.7958867766399567 4.9638360045157555 5.114290473417202
13.920157739331568 1.988486355792758 5.964518005692606 5.967153377846211
15.03569220132032 2.048144634049671 6.565153745569473 6.422393821701176
13.918841739729238 2.05717735461982 6.018318989099941 5.843345396009476
16.708193911850273 4.490021561062559 6.108439300959695 6.109733049828019
13.918841739724714 2.0571773546133603 6.018318989101053 5.843345396010304
15.035692201324938 2.048144634054235 6.565153745569508 6.422393821701197
13.92015773932235 1.9884863557910548 5.964518005688372 5.967153377842923
11.87401325456479 1.7958867766400632 4.96383600451124 5.114290473413486
9.613130960083014 1.6102710556725652 3.83732341618076 4.165536488229689
7.5121641056116015 1.4258230141655543 2.818502502959398 3.26783858848665
5.738336965841504 1.253142630251313 1.996392455813741 2.488801879776448
4.2982354431835255 1.100750388820035 1.3636955785711091 1.8337894757923827
3.1075647216529263 0.959351572049045 0.8679636102083516 1.2802495393955298
2.1120397348436515 0.8253979307319612 0.48173390305575703 0.8049079010559326
1.3231642897393625 0.6948547954139919 0.21723109300038412 0.4110784013249877
0.7502994218820556 0.5507701434348258 0.05335297181635254 0.1461763066308769
0.4400341669904873 0.42377995765629367 0.0022114449094492034 0.014042764424744345
0.2997059695717045 0.3022678597955146 -0.0017447855635731207 -0.0008171046602372532
0.2384933370950247 0.24401013903183041 -0.0010342919046227128 -0.004482510032182919
0.20984847087430475 0.20989302140888488 1.0578584178067256e-05 -5.512911875826424e-05
0.20149534288480758 0.20144980924637104 6.74153779291067e-06 3.879210064361902e-05
0.18919018131754256 0.1891984570595055 1.5770095013821888e-07 -8.433442913072214e-06
0.13990795982386228 0.13989945237273624 4.6505239000204435e-07 8.042398736028437e-06
0.18457670565984027 0.18457670565984027 0.0 0.0
0.11356565959422821 0.11356565959422821 0.0 0.0
0.12097891098054844 0.12098057190201725 -9.533615641300818e-08 -1.565585312364224e-06
0.17977295183209657 0.179742490617296 2.1056555596612594e-06 2.83555592408956e-05
0.2068162312121259 0.20688576199632336 -5.218320297586886e-06 -6.431246389986003e-05
0.23026398312880927 0.23134246013394194 -0.00017417626742837484 -0.0009043007377043131
0.2787878862325211 0.2788257353135856 -0.0004185039963586646 0.00038065491529430315
0.39508941117727026 0.4027615076741232 -0.0033115465926009946 -0.004360549904251991
0.6925804601810923 0.5447794184642178 0.035583570345284074 0.11221747137159047
1.3149769521854657 0.7226100112320138 0.1976929509023708 0.39467399005108095
2.326769500120949 0.9021798520220612 0.5667589004831849 0.8578307476157035
3.5573702174786677 1.0505284903053487 1.0375043024891648 1.4693374246841555
5.070064867941665 1.2057868314707734 1.6867066023002704 2.177571434170622
6.892158141574541 1.3799349896379516 2.5197139452256656 2.9925092067109236
9.111179938907458 1.5749191069877961 3.5761196350727533 3.9601411968469096
11.872891770311687 1.7980908791208816 4.95520894855619 5.119591942634615
15.135427623491523 2.0319587551956593 6.6269277080512445 6.476541160244617
18.829064025046822 2.2609267848787153 8.623506222855184 7.9446310173129255
22.202431292528995 2.406808844777743 10.472769109348373 9.322853338402876
24.077578288364577 2.385420155044537 11.584858232749637 10.107299900570403
22.30081932584515 2.134656654935893 10.699434604130342 9.466728066778908
25.045445406385127 6.862763771875882 9.530054818094042 8.652626816415205
22.30081932585623 2.134656654945065 10.699434604131483 9.466728066779684
24.07757828835837 2.385420155039127 11.584858232749136 10.107299900570105
22.202431292520828 2.4068088447803513 10.472769109342089 9.3228533383984
18.829064025032928 2.2609267848760477 8.623506222848702 7.9446310173081764
15.135427623478769 2.0319587551961056 6.6269277080438505 6.476541160238812
11.872891770300845 1.7980908791213952 4.955208948549986 5.119591942629468
9.111179938895846 1.574919106986872 3.576119635067076 3.9601411968418994
6.892158141561891 1.379934989637104 2.5197139452196105 2.992509206705177
5.07006486792942 1.2057868314687852 1.686706602295207 2.1775714341654266
3.5573702174681197 1.0505284903044976 1.037504302484613 1.4693374246790099
2.326769500113361 0.9021798520213041 0.5667589004801274 0.8578307476119296
1.3149769521803858 0.7226100112305922 0.19769295090088046 0.39467399004891324
0.6925804601784711 0.544779418463234 0.03558357034475461 0.11221747137048206
0.39508941117617785 0.40276150767294044 -0.003311546592575575 -0.004360549904187166
0.27878788623190554 0.27882573531275445 -0.0004185039963286954 0.00038065491547984684
0.230263983128318 0.2313424601334694 -0.00017417626743057785 -0.0009043007377207576
0.20681623121174392 0.20688576199592124 -5.218320295818337e-06 -6.431246388149186e-05
0.17977295183183523 0.17974249061704575 2.1056555587426653e-06 2.835555923076314e-05
0.12097891098029791 0.12098057190176568 -9.533615634106578e-08 -1.565585311427026e-06
0.11356565959395813 0.11356565959395813 0.0 0.0
0.06628710239474477 0.06628710239474477 0.0 0.0
0.09933922326269976 0.09933922326269976 0.0 0.0
0.16508291517112347 0.16507247434567449 6.169848764971448e-07 9.823840572470336e-06
0.2085367875782128 0.20844426671939248 1.1433964402413846e-05 8.108689441796222e-05
0.25257451716245777 0.2529916049389869 -4.598987552493203e-05 -0.00037109790100420476
0.333196239152334 0.34796317288895 -0.0032559573771036893 -0.011510976359512431
0.5472344609429172 0.4908323951482145 0.011194474569289898 0.04520759122541279
1.069111871538221 0.6795456821079726 0.12106818343394359 0.2684980059963051
2.066104657565849 0.8916497832740076 0.4618488863080501 0.7126059879837919
3.3710015931666106 1.0583344854080448 0.9369771776021739 1.3756899301563925
5.105111030612734 1.2375904231079855 1.6903070993419442 2.1772135081628052
7.17057082794606 1.4220564020680906 2.641440346409142 3.107074079468828
9.662202566993315 1.6315992947492084 3.8398481799310025 4.190755092313104
12.734887308881015 1.8754060838421232 5.378611274843106 5.480869950195786
16.518429502109 2.1534282757628938 7.333243911373343 7.031757314972765
21.167849439006478 2.455320623825978 9.85973909352207 8.852789721658434
26.147561642457454 2.700836043319644 12.585569182391602 10.861156416746207
30.91904851293146 2.7715017734696437 15.429592356043882 12.717954383417942
33.50677248664859 2.5592696043276115 17.1495394415913 13.79796344072968
31.10271188371392 2.2032358427580596 15.903017877837799 12.99645816311806
34.14441142349993 9.14239070819872 13.526039607904936 11.47598110739626
31.10271188371102 2.2032358427534593 15.903017877838842 12.996458163118724
33.506772486645694 2.559269604328266 17.149539441589123 13.797963440728301
30.919048512922316 2.7715017734726786 15.4295923560365 12.717954383413137
26.147561642438696 2.7008360433167304 12.585569182382246 10.861156416739718
21.16784943899083 2.455320623825718 9.859739093513136 8.852789721651975
16.518429502090715 2.153428275759479 7.333243911364975 7.031757314966252
12.734887308864016 1.875406083840046 5.3786112748348955 5.480869950189073
9.662202566977918 1.6315992947493116 3.839848179922739 4.190755092305865
7.1705708279307 1.422056402066965 2.6414403464018847 3.1070740794618508
5.105111030599342 1.2375904231066355 1.6903070993361158 2.177213508156588
3.371001593156263 1.0583344854065122 0.9369771775981306 1.3756899301516203
2.0661046575586264 0.8916497832731142 0.46184888630522003 0.7126059879802918
1.0691118715337842 0.6795456821066433 0.12106818343274689 0.2684980059943945
0.5472344609408053 0.4908323951469357 0.011194474569020252 0.04520759122484911
0.3331962391515518 0.3479631728879941 -0.0032559573770506445 -0.011510976359391644
0.25257451716197926 0.25299160493844614 -4.5989875517813775e-05 -0.00037109790094901356
0.20853678757769678 0.20844426671886698 1.143396440262814e-05 8.108689442716989e-05
0.16508291517088536 0.16507247434544128 6.169848761276928e-07 9.823840567913113e-06
0.09933922326254474 0.09933922326254474 0.0 0.0
0.06628710239455576 0.06628710239455576 0.0 0.0
0.036435692935601234 0.036435692935601234 0.0 0.0
0.07744789554176 0.07744789554176 0.0 0.0
0.14688705144740655 0.14688233776227796 2.7264122338958563e-07 4.441043905202767e-06
0.2078307073853685 0.2077842123692155 5.023327296910349e-06 4.1471688856069486e-05
0.27650345366689155 0.27548430177950434 0.0001965039237771974 0.0008226479636098929
0.4108570297986887 0.4197396841382205 -0.0030580943961084645 -0.005824559943423271
0.7669034403893158 0.5937705503283276 0.04760639951420542 0.1255264905467828
1.5762914551581333 0.8216649440223903 0.28358109122014763 0.4710454199155957
2.8070835985683074 1.0102910213695258 0.7032938896332889 1.0934986875654924
4.562911961361791 1.2121177204879072 1.437985104438348 1.912809136435536
6.7319294188744525 1.4108197357341785 2.420923224571469 2.900186458568805
9.37135610370688 1.627201349321699 3.687098290283295 4.057056464101886
12.59236279273599 1.8788135735306106 5.299028014740028 5.414521204465353
16.59335150571588 2.1740317920997496 7.385288800435845 7.034030913180285
21.487260172848988 2.522466788417568 9.988110051169922 8.976683333261494
27.36121519049393 2.8843330369989166 13.215160989294624 11.261721164200395
34.01999380856807 3.1487180219989295 17.10276771127099 13.768508075298143
39.969890874547346 3.1057057344065537 20.745393126108738 16.118792014032074
42.953747038955726 2.6485590166635804 22.83550518716447 17.46968283512768
40.10892469048147 2.293590933917241 21.34257296917682 16.47276078738741
44.071169273883484 11.51573529187516 18.125681834567626 14.429752147440702
40.10892469047802 2.2935909339151865 21.342572969175947 16.47276078738688
42.95374703894363 2.6485590166582917 22.83550518716025 17.469682835125074
39.9698908745285 3.105705734404026 20.74539312609865 16.118792014025825
34.019993808547895 3.1487180219990236 17.102767711258615 13.768508075290253
27.36121519047088 2.8843330369953266 13.21516098928307 11.261721164192492
21.487260172828897 2.5224667884166556 9.988110051158792 8.976683333253447
16.593351505696518 2.1740317920984844 7.385288800425654 7.034030913172381
12.592362792715631 1.878813573529275 5.2990280147296325 5.414521204456719
9.37135610368856 1.6272013493214694 3.68709829027373 4.057056464093365
6.731929418857469 1.4108197357322207 2.4209232245638623 2.9001864585613846
4.562911961348848 1.2121177204861169 1.4379851044329797 1.9128091364297526
2.807083598559515 1.0102910213686735 0.7032938896298714 1.0934986875609694
1.5762914551520713 0.8216649440208466 0.283581091218219 0.4710454199130055
0.7669034403864301 0.5937705503274324 0.047606399513524064 0.12552649054547396
0.41085702979753796 0.41973968413706225 -0.0030580943961045024 -0.005824559943419861
0.27650345366642104 0.27548430177898836 0.00019650392378151642 0.0008226479636511344
0.20783070738489415 0.20778421236874073 5.0233272966949e-06 4.147168885674738e-05
0.14688705144714176 0.1468823377620151 2.726412232514537e-07 4.441043903424872e-06
0.07744789554172693 0.07744789554172693 0.0 0.0
0.03643569293548938 0.03643569293548938 0.0 0.0
0.01880842990308622 0.01880842990308622 0.0 0.0
0.05732186008619828 0.05732186008619828 0.0 0.0
0.12739159200580774 0.12739159200580774 0.0 0.0
0.20632499501066554 0.20626110896838237 5.6619831816180165e-06 5.822405910155784e-05
0.30700714180217414 0.3121405971535759 -0.0009889239903322022 -0.0041445313610695336
0.5173521267083073 0.4742763001948248 0.0078797123368489 0.035196114176633625
1.0726591020228442 0.7100982280163374 0.12639073894286762 0.236170135063639
2.092676883214479 0.921788042152436 0.43513704627628713 0.7357517947857556
3.6766904645958194 1.1365439762664242 1.0518450051583021 1.4883014831710946
5.785579320476246 1.352174268553981 1.9723712547432835 2.461033797178982
8.43408691996279 1.5785977987252346 3.219376498475185 3.6361126227623703
11.687915911220403 1.8319906318216426 4.833674129782846 5.022251149615913
15.704716843366048 2.1307544687784805 6.913933793203457 6.660028581384108
20.558297798100078 2.482393583549523 9.459554300344934 8.616349914205617
26.64201429161359 2.8897837773327186 12.805555716150002 10.946674798130871
33.925940393282886 3.3257187589812296 16.927069831979544 13.673151802322119
41.87011922773953 3.608769404754022 21.58948208089291 16.67186774209261
49.05901190799459 3.4182934570532706 26.180610366114983 19.46010808482635
52.68095872770698 2.7140638683817224 28.903691815813772 21.06320304351149
49.443275486881824 2.374392002751203 27.082581561907034 19.986301922223575
54.57415584415154 13.979404849019149 23.023267252353218 17.571483742779172
49.443275486877226 2.3743920027500183 27.08258156190489 19.9863019222223
52.68095872769373 2.7140638683807303 28.90369181580602 21.06320304350699
49.05901190797887 3.4182934570579007 26.180610366102172 19.460108084818803
41.87011922771575 3.6087694047537857 21.589482080878383 16.671867742083585
33.92594039325837 3.3257187589805133 16.92706983196511 13.673151802312741
26.64201429158799 2.8897837773301323 12.805555716136354 10.94667479812149
20.55829779807359 2.4823935835457163 9.459554300331837 8.616349914196034
15.704716843342347 2.1307544687777216 6.91393379319061 6.660028581374011
11.687915911198298 1.831990631820419 4.833674129771555 5.022251149606326
8.434086919943045 1.5785977987235993 3.2193764984657673 3.6361126227536795
5.785579320460662 1.352174268552173 1.9723712547364662 2.461033797172021
3.6766904645849423 1.136543976265048 1.0518450051540311 1.4883014831658639
2.092676883206717 0.9217880421503589 0.435137046273846 0.7357517947825123
1.0726591020185758 0.710098228015099 0.12639073894167513 0.23617013506180107
0.5173521267067234 0.47427630019358324 0.007879712336729114 0.03519611417641141
0.307007141801609 0.31214059715293974 -0.0009889239903163175 -0.004144531361014433
0.20632499501035445 0.20626110896808017 5.661983180797035e-06 5.8224059093480506e-05
0.12739159200549263 0.12739159200549263 0.0 0.0
0.05732186008611518 0.05732186008611518 0.0 0.0
0.018808429903005155 0.018808429903005155 0.0 0.0
0.009248369437849043 0.009248369437849043 0.0 0.0
0.04043995040469856 0.04043995040469856 0.0 0.0
0.10884467007167008 0.10884467007167008 0.0 0.0
0.20684778326220493 0.2068215543322257 1.8944649569218257e-06 2.4334465022325518e-05
0.349104649491906 0.3580813105487588 -0.002116070020422362 -0.006860591036430389
0.6709871598315547 0.566884205222847 0.029072306446341692 0.07503064816236618
1.4137480615167188 0.8007075683749962 0.2126452827031384 0.40039521043858406
2.6893588748631823 1.0200037031974871 0.6529322106834476 1.0164229609822468
4.567806130443439 1.2503406081460153 1.4225773276142295 1.8948881946831952
7.063912373919534 1.487450279214205 2.5574849368988346 3.0189771578064937
10.193904029075332 1.7432125595326284 4.0681986306542 4.382492838888507
14.093033304710248 2.0396267040795806 6.051179545420698 6.0022270552099695
18.836571531160203 2.3884352262284154 8.520492763618847 7.9276435413129365
24.813457503985266 2.800269138798936 11.79421199249639 10.218976372689946
31.98620927831685 3.2687929080027196 15.776378127587506 12.941038242726622
40.441019182905 3.747589904081139 20.608264460104657 16.08516481871922
49.800646983892726 4.059212237370519 26.242838409415054 19.498596337107156
58.22179583701508 3.766851480179062 31.744667471793147 22.71027688504289
62.580882709388945 2.793615602301622 35.13507947137977 24.652187635707556
59.29211159307883 2.406028554279235 33.30077421495892 23.585308823840673
66.07728863172142 16.487083907923957 28.670351880844866 20.91985284295258
59.29211159307228 2.4060285542782562 33.300774214955325 23.5853088238387
62.58088270937514 2.7936156023031966 35.13507947136987 24.65218763570207
58.22179583699191 3.7668514801788993 31.744667471778477 22.710276885034524
49.80064698386455 4.059212237368122 26.24283840939889 19.498596337097545
40.441019182873006 3.7475899040776723 20.608264460087028 16.085164818708297
31.986209278287536 3.26879290800144 15.776378127570615 12.941038242715477
24.81345750395748 2.8002691387991607 11.794211992479887 10.218976372678421
18.836571531132996 2.3884352262273394 8.520492763603897 7.927643541301758
14.093033304682793 2.039626704077152 6.051179545406896 6.002227055198745
10.193904029053234 1.7432125595310457 4.068198630643291 4.382492838878899
7.063912373902202 1.4874502792130224 2.5574849368905888 3.01897715779859
4.567806130429649 1.2503406081439123 1.4225773276086513 1.8948881946770826
2.6893588748540482 1.0200037031957085 0.6529322106804579 1.0164229609778812
1.4137480615112665 0.8007075683738003 0.21264528270141403 0.40039521043605253
0.6709871598292113 0.5668842052215881 0.02907230644597154 0.07503064816165163
0.3491046494912532 0.35808131054792924 -0.0021160700203798496 -0.00686059103629612
0.20684778326185552 0.20682155433187416 1.8944649567165648e-06 2.4334465024698837e-05
0.10884467007144763 0.10884467007144763 0.0 0.0
0.04043995040466199 0.04043995040466199 0.0 0.0
0.009248369437794652 0.009248369437794652 0.0 0.0
0.0045236974416277154 0.0045236974416277154 0.0 0.0
0.027611079938010905 0.027611079938010905 0.0 0.0
0.09366520483515473 0.09366520483515473 0.0 0.0
0.2132982393075927 0.21332619873358438 -2.1449399111980753e-06 -2.5814486080462045e-05
0.40999492537757243 0.4023547457477652 0.00086118122807184 0.006778998401735414
0.8765261802500346 0.658092122978014 0.0710427331213014 0.14739132415071915
1.7952854492906662 0.8724938039971273 0.32805853733662715 0.5947331079569118
3.3239266266019105 1.1131805157507815 0.9009392982566219 1.3098068125945082
5.48968646729585 1.3574330775945471 1.8225859834987785 2.309667406202524
8.376331057141892 1.6179633168097631 3.1733381169394317 3.5850296233926993
12.03440948742234 1.9101515959994457 4.986364155978364 5.137893735444531
16.55427341894978 2.249538345560106 7.308629938709962 6.996105134679711
22.23519134056449 2.658848881712367 10.36791420881639 9.208428250035727
29.07823837804905 3.1356176238718882 14.089417039718523 11.853203714458644
37.44637823239316 3.6482438247759044 18.843264952680443 14.954869454936805
47.14136218158231 4.130207613587327 24.534818743804557 18.476335824190436
57.62460724022411 4.449729741912352 30.927718603892412 22.24715889441935
67.31356129124437 4.228711100137424 37.259093178365596 25.825757012741363
72.6802779890522 2.9382491386961025 41.589103866942736 28.152924983413364
69.75497742740345 2.314989514282165 40.108877939368575 27.331109973752696
78.656622840261 18.892327716357652 35.12874037426757 24.635554749635762
69.75497742739267 2.3149895142806276 40.10887793936262 27.33110997374943
72.6802779890326 2.9382491386944287 41.589103866931126 28.15292498340703
67.3135612912158 4.228711100136976 37.25909317834748 25.825757012731348
57.62460724018728 4.449729741905455 30.927718603873387 22.247158894408443
47.141362181549496 4.130207613587871 24.534818743783738 18.476335824177877
37.44637823236089 3.6482438247753 18.843264952661055 14.954869454924525
29.078238378016255 3.1356176238702895 14.089417039699892 11.853203714446083
22.235191340531035 2.658848881709554 10.36791420879856 9.208428250022916
16.55427341892025 2.249538345561114 7.308629938692693 6.9961051346664425
12.034409487397413 1.9101515959964388 4.98636415596652 5.137893735434451
8.37633105712122 1.6179633168071426 3.173338116930081 3.585029623383995
5.489686467280776 1.3574330775932388 1.8225859834920874 2.3096674061954507
3.3239266265910845 1.1131805157488825 0.9009392982526199 1.309806812589583
1.795285449284301 0.8724938039956406 0.3280585373348716 0.5947331079537875
0.8765261802469683 0.6580921229770135 0.07104273312056311 0.1473913241493915
0.4099949253766947 0.40235474574696745 0.0008611812280447813 0.006778998401682519
0.2132982393072583 0.21332619873323472 -2.1449399102669095e-06 -2.581448606613111e-05
0.09366520483496647 0.09366520483496647 0.0 0.0
0.027611079937968592 0.027611079937968592 0.0 0.0
0.004523697441630431 0.004523697441630431 0.0 0.0
0.002147305302581602 0.002147305302581602 0.0 0.0
0.01878260640394589 0.01878260640394589 0.0 0.0
0.08501319938131863 0.08501319938131863 0.0 0.0
0.23203285040712499 0.2322935847847628 -4.4801357651080396e-05 -0.0002159330199867096
0.506783811501655 0.4764830755757018 0.008144442543227569 0.022156293382725623
1.1150957413985936 0.7323049834043261 0.12608766556892315 0.2567030924253444
2.2290538818922965 0.9529257462932186 0.4804931667643309 0.7956349688347472
3.977840159209019 1.1998295141889048 1.1651893051383477 1.6128213398817648
6.45158088130894 1.4602440606763383 2.260820125903219 2.7305166947293826
9.721564565504348 1.7467011767897627 3.817839723211301 4.157023665503282
13.903114794466289 2.076036979310002 5.924056912950089 5.9030209022061975
19.17911406533448 2.4689314780279172 8.709889886030867 8.000292701275688
25.58445808469253 2.9384132566172565 12.131556804096004 10.514488023979277
33.55990744424874 3.4764223386859365 16.58333744084005 13.500147664722766
43.093560156890874 4.03831653256055 22.07454558039347 16.98069804393686
53.92740628283234 4.503298027192848 28.556833869331463 20.867274386308026
65.30508573503855 4.7178206022881 35.67889829147057 24.908366841279864
75.97640182835737 4.615550626334458 42.65639222205157 28.704458979971346
82.9327304570109 3.520426944981353 47.91866052096391 31.49364299106562
80.86944485933354 1.9610482145946957 47.612041448086416 31.296355196652478
92.24347606691188 20.23649480562664 43.074518929803716 28.93246233148153
80.86944485932496 1.961048214596432 47.61204144807964 31.296355196648868
82.9327304569846 3.5204269449777486 47.91866052094907 31.49364299105781
75.9764018283261 4.6155506263361 42.65639222203018 28.704458979959867
65.30508573499964 4.717820602285851 35.67889829144715 24.90836684126664
53.92740628279368 4.503298027191574 28.55683386930785 20.867274386294266
43.093560156852156 4.038316532556898 22.074545580371726 16.98069804392353
33.559907444209685 3.476422338683159 16.58333744081806 13.500147664708454
25.584458084655644 2.93841325661647 12.13155680407467 10.51448802396451
19.17911406530205 2.4689314780280935 8.709889886012206 8.000292701261758
13.903114794436812 2.0760369793069384 5.924056912935425 5.903020902194455
9.721564565480904 1.7467011767875107 3.8178397232000756 4.157023665493318
6.451580881291501 1.4602440606746308 2.260820125895365 2.7305166947215023
3.9778401591968553 1.199829514187031 1.165189305133608 1.612821339876217
2.2290538818844876 0.952925746291336 0.4804931667619171 0.7956349688312343
1.1150957413948512 0.7323049834032691 0.12608766556789078 0.2567030924236913
0.5067838115003952 0.47648307557485436 0.00814444254308786 0.022156293382453073
0.23203285040672245 0.23229358478423284 -4.480135764061387e-05 -0.0002159330198697788
0.08501319938120962 0.08501319938120962 0.0 0.0
0.01878260640390374 0.01878260640390374 0.0 0.0
0.0021473053025745734 0.0021473053025745734 0.0 0.0
0.0005694146567199706 0.0005694146567199706 0.0 0.0
0.01340310015122758 0.01340310015122758 0.0 0.0
0.0873015271431968 0.0873015271431968 0.0 0.0
0.27421860501937434 0.2741075595771061 3.089292163283178e-05 8.015252063549902e-05
0.6510496989866561 0.5805868378704899 0.022773517153356994 0.04768934396280906
1.4106221328599182 0.8641504218508138 0.1898070044182361 0.3566647065908684
2.7079484788288974 1.1308692038521901 0.6133625630142214 0.9637167119624862
4.697604335962958 1.4578882825699453 1.3885778317848962 1.8511382216081156
7.48895881812077 1.8358109585711935 2.5952932645697078 3.057854594979875
11.235805565074312 2.298948713845454 4.337681930001445 4.59917492122741
16.081623745977023 2.8894892834923986 6.700292093289597 6.491842369195025
22.124406538398297 3.642533027616155 9.703215894962788 8.778657615819354
29.684964480633212 4.566780155020783 13.601432766022846 11.51675155958958
38.952744329756605 5.659095414498334 18.532525419370167 14.761123495888112
49.91004591993497 6.79353574636222 24.604098187458657 18.512411986114085
62.081734961081665 7.708690127516798 31.723567665654816 22.64947716791004
74.32781159510172 8.06641043325757 39.35676227458021 26.904638887263964
85.0504264994318 7.661505569738882 46.597974940456254 30.790945989236693
92.93418404220785 6.9953600613401665 52.21357877376405 33.72524520710364
89.99300148438807 1.9754203158481594 53.53243309243513 34.48514807610477
132.86670491004003 48.61860161789525 51.15619611517573 33.091907176969045
89.99300148436822 1.9754203158384245 53.532433092428406 34.48514807610139
92.93418404218092 6.995360061340561 52.21357877374604 33.725245207094304
85.05042649939271 7.661505569736846 46.597974940432245 30.790945989223673
74.32781159505755 8.066410433254266 39.35676227455376 26.904638887249526
62.08173496103879 7.708690127515105 31.723567665628625 22.649477167895025
49.910045919888525 6.793535746354449 24.604098187434587 18.51241198609948
38.952744329713944 5.659095414496529 18.53252541934521 14.761123495872235
29.68496448059264 4.5667801550194875 13.601432765999473 11.51675155957367
22.12440653835913 3.642533027610547 9.703215894943327 8.77865761580525
16.08162374594654 2.8894892834928143 6.700292093272267 6.491842369181457
11.235805565048267 2.2989487138429494 4.337681929988712 4.599174921216603
7.488958818101253 1.8358109585693794 2.5952932645606506 3.057854594971225
4.6976043359488795 1.4578882825672186 1.3885778317795183 1.851138221602142
2.7079484788201302 1.1308692038504167 0.6133625630112518 0.963716711958462
1.4106221328553858 0.864150421849407 0.18980700441716927 0.35666470658881
0.6510496989847208 0.5805868378692364 0.022773517153119066 0.04768934396236503
0.27421860501878875 0.27410755957656613 3.089292163005706e-05 8.015252059257171e-05
0.08730152714293456 0.08730152714293456 0.0 0.0
0.013403100151210762 0.013403100151210762 0.0 0.0
0.0005694146567282173 0.0005694146567282173 0.0 0.0
CELL_DATA 800
SCALARS Stress float 6
LOOKUP_TABLE default
145.7465592450482 -502.67972247981527 -183.98786562389978 -105.49262728214575 0.0 0.0
393.3178358325588 -19.3744076170599 119.08900309447482 60.80980189687799 0.0 0.0
378.32019864807313 4.985398172018682 114.79549304112282 -5.742100253644438 0.0 0.0
440.09784543061676 -6.236254557471468 131.4827977608951 -12.68068012294952 0.0 0.0
511.45349245664687 -11.560292996756093 169.7341667865798 -10.968919303937906 0.0 0.0
579.0206837751059 -2.5786836319392297 233.74785294763095 -9.301619372388837 0.0 0.0
643.930967086707 6.010369576996872 295.1285377856031 -9.284164661679114 0.0 0.0
708.5683831963713 22.898567459228815 351.3323749708842 -10.131286055949113 0.0 0.0
773.8222171910622 45.90417104703587 402.74777233505415 -11.207817470722441 0.0 0.0
840.0686321781869 73.78047084621448 452.7265875808696 -11.987212345212084 0.0 0.0
907.0206863926594 104.82701086936356 502.8182391784743 -12.346844184171143 0.0 0.0
974.3854670686206 138.82530010429934 553.9636814544573 -12.285834975841677 0.0 0.0
1042.433953586847 174.07962482884574 605.8456638742766 -12.101227429888379 0.0 0.0
1111.784515257325 211.18725084789475 659.1939516592807 -11.897383474869342 0.0 0.0
1183.162196364132 251.43158659001006 715.0759884481273 -11.60633228616478 0.0 0.0
1256.0508588907433 295.03814601235877 773.3750643170882 -11.067714201122074 0.0 0.0
1328.10409692275 340.8705236230492 832.3564956663125 -10.08679680101542 0.0 0.0
1395.4707278823214 386.3467285660185 888.7788380444515 -8.547751646488182 0.0 0.0
1453.8088574492879 428.381511834542 938.8963637224016 -6.971427528537593 0.0 0.0
1512.4620122239212 478.2074252619871 992.6459877878572 -7.788532126188492 0.0 0.0
1512.4620122235485 478.20742526162053 992.6459877875765 7.788532126169143 0.0 0.0
1453.8088574492356 428.3815118345236 938.8963637223629 6.97142752862563 0.0 0.0
1395.4707278815833 386.3467285653263 888.7788380438678 8.547751646566027 0.0 0.0
1328.104096922328 340.87052362269986 832.3564956659511 10.086796801031568 0.0 0.0
1256.0508588900482 295.03814601174713 773.3750643165171 11.067714201096436 0.0 0.0
1183.162196363847 251.43158658982838 715.075988447868 11.606332286178759 0.0 0.0
1111.7845152568032 211.1872508474947 659.1939516588752 11.897383474915456 0.0 0.0
1042.4339535862807 174.07962482842436 605.8456638738688 12.101227429897435 0.0 0.0
974.3854670683138 138.82530010416747 553.9636814541735 12.285834975845543 0.0 0.0
907.0206863924593 104.82701086936436 502.8182391782769 12.346844184239512 0.0 0.0
840.0686321780053 73.78047084624528 452.7265875806767 11.987212345226585 0.0 0.0
773.822217190341 45.9041710465114 402.7477723345245 11.207817470700693 0.0 0.0
708.5683831956514 22.89856745872055 351.3323749703586 10.131286055963447 0.0 0.0
643.9309670863242 6.010369576867149 295.1285377852728 9.284164661678277 0.0 0.0
579.0206837747819 -2.578683632019434 233.74785294732465 9.30161937233316 0.0 0.0
511.4534924562114 -11.560292996971508 169.73416678628598 10.96891930396504 0.0 0.0
440.0978454303946 -6.236254557392717 131.48279776085465 12.680680122900288 0.0 0.0
378.32019864794887 4.985398171992429 114.79549304108077 5.742100253645843 0.0 0.0
393.31783583259823 -19.374407616853432 119.0890030945109 -60.80980189680085 0.0 0.0
145.7465592456052 -502.6797224792631 -183.9878656233649 105.49262728179554 0.0 0.0
51.38901861138763 -531.997942315325 -238.07540617896206 -146.31242126096436 0.0 0.0
239.67195585206275 -6.3338471081435905 70.00143262317575 13.62951857876758 0.0 0.0
332.320458358466 21.02848751804885 106.00419363662652 -10.368499403532976 0.0 0.0
398.5513499962242 -3.723268016085871 118.49029489069534 -32.16674051913731 0.0 0.0
481.0033969617647 -13.068249408392724 150.16551063604226 -31.453051408380475 0.0 0.0
553.559205840218 -4.245655976204862 211.6303607551414 -27.779130121031717 0.0 0.0
622.9890495869349 4.045444386089805 276.3356832837057 -28.07201332571418 0.0 0.0
688.6227447358209 19.88088576648043 335.38448360742296 -29.358463543059926 0.0 0.0
752.714367788232 41.25340832726459 387.5493296051068 -30.92866861574846 0.0 0.0
816.4110713071533 66.7994262525564 436.22564607380747 -31.893089246620914 0.0 0.0
879.8311396688027 94.98266289651121 483.6754615793101 -31.95400129781467 0.0 0.0
943.1009988400549 124.51991423543967 530.7955988446128 -31.339647116481576 0.0 0.0
1006.3707568362179 155.86933055687535 578.4429054952122 -30.49022066534008 0.0 0.0
1070.9855125849901 188.94361045672315 627.4660715062217 -29.688499445352196 0.0 0.0
1137.3802302179379 224.57865120633943 678.5931498389448 -28.778981321209475 0.0 0.0
1204.9602151744177 263.1756030582966 731.7639903739508 -27.351345107976428 0.0 0.0
1271.863712170568 303.9361107246271 785.6521639482651 -25.046089285147684 0.0 0.0
1335.3343685914354 345.369036742799 838.1033784648929 -21.799088300432253 0.0 0.0
1395.1190157439778 388.7525782776048 889.52019818969 -18.224990386176426 0.0 0.0
1437.207889397003 421.5117378989247 926.7425486135571 -13.411297442040446 0.0 0.0
1437.2078893974083 421.51173789934353 926.7425486138885 13.411297442017663 0.0 0.0
1395.1190157441208 388.75257827778404 889.5201981898368 18.224990386293086 0.0 0.0
1335.3343685904915 345.36903674190205 838.103378464163 21.799088300489338 0.0 0.0
1271.8637121699344 303.936110724056 785.6521639477027 25.04608928511889 0.0 0.0
1204.9602151736576 263.1756030576097 731.763990373337 27.351345107934613 0.0 0.0
1137.380230217167 224.5786512056689 678.5931498383512 28.7789813212274 0.0 0.0
1070.9855125845354 188.94361045638394 627.4660715058423 29.68849944534879 0.0 0.0
1006.3707568361001 155.869330556912 578.4429054950041 30.490220665378914 0.0 0.0
943.1009988397434 124.51991423530275 530.795598844325 31.339647116474225 0.0 0.0
879.8311396682809 94.98266289615819 483.6754615789003 31.954001297718413 0.0 0.0
816.4110713069331 66.79942625252137 436.2256460736012 31.893089246490185 0.0 0.0
752.7143677882214 41.25340832747339 387.54932960506153 30.928668615713796 0.0 0.0
688.6227447354265 19.880885766312815 335.38448360708645 29.358463543000845 0.0 0.0
622.9890495864358 4.045444385843425 276.33568328326396 28.07201332569432 0.0 0.0
553.5592058399393 -4.24565597618037 211.6303607548768 27.779130120987006 0.0 0.0
481.00339696166134 -13.068249408175152 150.1655106359992 31.453051408387275 0.0 0.0
398.55134999616325 -3.7232680157043667 118.49029489079605 32.16674051913501 0.0 0.0
332.3204583585018 21.02848751827299 106.00419363670488 10.368499403547707 0.0 0.0
239.6719558522948 -6.3338471077818435 70.00143262335388 -13.62951857880174 0.0 0.0
51.38901861167882 -531.9979423149648 -238.07540617859496 146.3124212607512 0.0 0.0
7.858162746339957 -531.8990380843942 -250.22425154565894 -160.1300694193482 0.0 0.0
140.12501641256898 -8.663863410551496 39.438345900605235 -38.21594607831782 0.0 0.0
270.6953311580331 26.687803384838197 89.21494036286138 -30.756062886127232 0.0 0.0
352.9390648382579 2.2530822879878896 106.55149161773075 -50.39782188286043 0.0 0.0
440.56706570313816 -10.593111749089747 132.5899160123128 -53.87569729354326 0.0 0.0
525.4988937043825 -8.928399490360995 185.93669521303175 -48.76548941461668 0.0 0.0
597.5848913420198 3.073698359696479 254.35666634599164 -47.15596422448645 0.0 0.0
664.1317132149017 16.816056605421075 315.69128116117514 -48.57338374238246 0.0 0.0
727.8424868491755 36.64567526823957 369.54833366039657 -50.2988889449543 0.0 0.0
789.174035063231 59.68531863082859 417.37815694787025 -51.210248589581084 0.0 0.0
849.0842698744598 84.50739035499592 462.18007807199115 -50.93018379671767 0.0 0.0
907.9328265266156 110.51950226049588 505.696848944889 -49.737811492753444 0.0 0.0
967.0846910769735 137.39871831465624 549.2234174953865 -48.40516477673719 0.0 0.0
1026.9165561038546 166.37404600826665 593.9028299387891 -47.07458456914 0.0 0.0
1088.0837992769264 197.28493047724234 640.1053152819487 -45.58992060452844 0.0 0.0
1150.2594970950422 230.57109144543568 687.9525369288086 -43.41799037954974 0.0 0.0
1212.0628703207349 266.0987325704443 736.6919534361886 -40.07559348870784 0.0 0.0
1272.7473192366626 304.4478827955564 786.1945962050113 -35.43454501094835 0.0 0.0
1327.5875516762383 342.29754978683246 832.4238337539397 -29.008979430980702 0.0 0.0
1364.4719679215068 368.8862967276125 864.0168052840639 -18.551766327180466 0.0 0.0
1364.4719679214684 368.88629672758714 864.0168052840229 18.55176632721412 0.0 0.0
1327.587551675941 342.29754978656547 832.4238337537095 29.008979431047482 0.0 0.0
1272.7473192365392 304.4478827954998 786.1945962048935 35.43454501108206 0.0 0.0
1212.0628703208606 266.09873257064066 736.6919534362314 40.075593488733944 0.0 0.0
1150.2594970948915 230.57109144537134 687.9525369286056 43.41799037957907 0.0 0.0
1088.0837992764077 197.28493047682926 640.1053152814906 45.58992060456296 0.0 0.0
1026.9165561034624 166.37404600799238 593.9028299384474 47.07458456915475 0.0 0.0
967.0846910767077 137.39871831453766 549.2234174951358 48.405164776772395 0.0 0.0
907.9328265265235 110.51950226058091 505.69684894476836 49.737811492766305 0.0 0.0
849.0842698746086 84.50739035536614 462.1800780720297 50.93018379680799 0.0 0.0
789.1740350632095 59.685318631011775 417.3781569478089 51.21024858955042 0.0 0.0
727.8424868484245 36.64567526768553 369.5483336598425 50.29888894490696 0.0 0.0
664.1317132146162 16.816056605383793 315.69128116087984 48.57338374235901 0.0 0.0
597.584891341668 3.073698359641817 254.35666634565155 47.15596422451141 0.0 0.0
525.4988937040323 -8.92839949041733 185.93669521275305 48.76548941462173 0.0 0.0
440.5670657028384 -10.593111749059807 132.58991601219748 53.87569729348134 0.0 0.0
352.9390648380474 2.2530822879884056 106.55149161767538 50.397821882746 0.0 0.0
270.69533115809804 26.68780338500019 89.21494036292944 30.756062885986324 0.0 0.0
140.12501641280755 -8.663863410186945 39.438345900786175 38.215946078068015 0.0 0.0
7.858162746514111 -531.8990380841299 -250.22425154535765 160.13006941918644 0.0 0.0
-7.439232308353681 -514.3332113499775 -238.5608644553193 -162.79883913692422 0.0 0.0
82.95618732856927 -16.967947577398707 19.796471925351167 -82.16592414631445 0.0 0.0
211.6660680621908 26.751248862139278 71.525195077299 -57.91694400600986 0.0 0.0
303.43411937477765 6.754611707365144 93.04855450802395 -70.02693275742006 0.0 0.0
390.5366016282639 -7.206954283167336 115.83897216723138 -77.3015371782405 0.0 0.0
484.2839276116468 -10.89313130188545 159.67571121133813 -71.97034364959696 0.0 0.0
564.5925272185245 0.21433640920357355 226.50035857515059 -67.2380744960926 0.0 0.0
634.7993584805488 14.402814998835623 292.12388060774185 -68.00154535541301 0.0 0.0
698.1732582830303 31.854979403539243 347.66165904900436 -69.32326057192061 0.0 0.0
757.4748823095626 52.275636297626974 395.31542249308745 -69.96999419452057 0.0 0.0
814.1356498271946 73.86692725355914 438.06960717033894 -69.28051931175551 0.0 0.0
869.278252962036 96.16547636876712 478.4536278469599 -67.59427914004009 0.0 0.0
923.6987538961964 119.07059990333633 517.8955842472571 -65.78145390237233 0.0 0.0
979.1955477644065 143.6467966315832 558.3587895520382 -64.07711329766083 0.0 0.0
1035.3198767192553 169.58708120057145 599.6396582670116 -62.10206151653775 0.0 0.0
1091.5536858127912 197.50892775802504 641.869858219932 -59.29105781656259 0.0 0.0
1148.5391581403032 227.93587509719615 685.6712363645906 -55.22007892466636 0.0 0.0
1204.8373652338441 261.2059806521449 730.4692963069152 -49.24915454465513 0.0 0.0
1255.6680809109916 293.83662290257183 772.1186918324597 -39.837952634995176 0.0 0.0
1290.556693444837 316.7847312886887 800.9107276920089 -24.031639325147086 0.0 0.0
1290.5566934445883 316.7847312884426 800.910727691856 24.031639325166886 0.0 0.0
1255.668080910824 293.8366229024513 772.1186918322858 39.83795263515901 0.0 0.0
1204.8373652336104 261.2059806520003 730.4692963067262 49.24915454486815 0.0 0.0
1148.5391581398471 227.93587509681873 685.6712363642096 55.22007892472409 0.0 0.0
1091.5536858127598 197.50892775807287 641.869858219864 59.29105781655893 0.0 0.0
1035.3198767189524 169.58708120037375 599.6396582667976 62.10206151655329 0.0 0.0
979.1955477645254 143.64679663185092 558.3587895521528 64.07711329774682 0.0 0.0
923.6987538956749 119.07059990295726 517.895584246855 65.78145390240687 0.0 0.0
869.2782529616272 96.16547636851668 478.4536278465993 67.59427914004175 0.0 0.0
814.1356498265995 73.86692725313294 438.06960716988505 69.28051931173833 0.0 0.0
757.4748823086621 52.27563629687846 395.31542249243955 69.9699941944234 0.0 0.0
698.1732582823206 31.854979403004364 347.6616590484648 69.32326057182829 0.0 0.0
634.7993584803398 14.402814998878348 292.123880607508 68.00154535535432 0.0 0.0
564.5925272183575 0.21433640938182563 226.5003585749381 67.23807449609582 0.0 0.0
484.2839276115493 -10.893131301583207 159.67571121126866 71.97034364949424 0.0 0.0
390.5366016281258 -7.206954282815405 115.83897216729169 77.30153717811001 0.0 0.0
303.43411937456835 6.754611707293167 93.04855450794093 70.0269327573557 0.0 0.0
211.66606806216942 26.75124886211792 71.52519507728618 57.916944005892425 0.0 0.0
82.95618732876302 -16.967947577053366 19.796471925512893 82.16592414605185 0.0 0.0
-7.439232308180394 -514.3332113496521 -238.56086445499926 162.79883913678458 0.0 0.0
-9.404173459980484 -486.66638134326485 -214.48399089180165 -161.26114262688267 0.0 0.0
48.80488792820189 -25.44547221400589 7.007824714258799 -116.19495022878563 0.0 0.0
159.9447097003209 23.46932443461997 55.02421024048226 -85.7212246221757 0.0 0.0
251.3333177473246 9.83605732277723 78.35053477336943 -90.80835865115347 0.0 0.0
334.76785920745976 -2.903178682438079 99.62556933836477 -99.36107803635507 0.0 0.0
431.6386942424234 -10.979368978873286 134.12416176261883 -97.69044867295264 0.0 0.0
523.5384780844943 -3.7242460981134826 194.22865943982086 -90.04772020936433 0.0 0.0
598.9496147935995 11.615056115380389 262.9064041646832 -87.54252628701393 0.0 0.0
662.7272808683456 27.106878056995782 320.8990450957592 -88.15360100696036 0.0 0.0
720.5801844213056 44.62139850683481 369.1872158553425 -88.24962144547379 0.0 0.0
774.4758494183307 62.97334764082688 410.6725191875682 -87.07710946815972 0.0 0.0
825.7471151192744 81.56029554351943 448.19807753513555 -84.89167201730073 0.0 0.0
876.207359840606 100.636066849891 484.23722711211656 -82.74583939185436 0.0 0.0
926.4913293632062 120.84491151931468 520.150333304163 -80.6409361183623 0.0 0.0
977.4486706525356 141.93637846411787 556.5448912147333 -78.28194362864988 0.0 0.0
1029.0006006609651 164.4162442821167 593.7865915727335 -75.08842746754682 0.0 0.0
1080.0694975171416 188.99915534130992 631.751868808771 -70.41146176641668 0.0 0.0
1131.1549503911228 216.24225922605183 670.9688424782564 -63.28894908200147 0.0 0.0
1178.6213252280006 243.63479342804882 708.348239528165 -51.14859948381617 0.0 0.0
1213.3915691658626 263.96068129428727 735.7666697615487 -30.281527854123812 0.0 0.0
1213.3915691663228 263.9606812947814 735.766669761887 30.28152785424598 0.0 0.0
1178.6213252280595 243.63479342817027 708.3482395282102 51.148599484043665 0.0 0.0
1131.1549503906729 216.24225922570008 670.9688424779886 63.28894908219199 0.0 0.0
1080.069497516603 188.99915534083542 631.7518688084112 70.41146176646032 0.0 0.0
1029.0006006603212 164.4162442815324 593.7865915722558 75.08842746751787 0.0 0.0
977.4486706517212 141.93637846336483 556.5448912141156 78.2819436286045 0.0 0.0
926.4913293625092 120.84491151874745 520.1503333036388 80.64093611841488 0.0 0.0
876.2073598402945 100.63606684971913 484.2372271119019 82.7458393919055 0.0 0.0
825.7471151189806 81.5602955434028 448.19807753490824 84.89167201732488 0.0 0.0
774.4758494181592 62.97334764082104 410.67251918738026 87.0771094681279 0.0 0.0
720.5801844214967 44.62139850724036 369.18721585538407 88.24962144542738 0.0 0.0
662.7272808682422 27.106878057149657 320.8990450956145 88.15360100696262 0.0 0.0
598.9496147932268 11.615056115280034 262.9064041643165 87.54252628700918 0.0 0.0
523.5384780840183 -3.7242460982424994 194.22865943946135 90.04772020940948 0.0 0.0
431.638694241834 -10.979368979231383 134.12416176227924 97.69044867284325 0.0 0.0
334.7678592072337 -2.9031786824094663 99.6255693383124 99.36107803622976 0.0 0.0
251.33331774726034 9.836057322971765 78.35053477340914 90.80835865103661 0.0 0.0
159.9447097003033 23.469324434685618 55.02421024049668 85.72122462207749 0.0 0.0
48.804887928389505 -25.445472213657077 7.007824714419732 116.19495022861268 0.0 0.0
-9.404173459886607 -486.6663813429219 -214.48399089149714 161.26114262682535 0.0 0.0
-5.534686094284723 -452.3770914018905 -184.52436601756682 -158.22820194940394 0.0 0.0
26.40737060776689 -32.61417924036479 -1.8620425897793709 -141.22603076793163 0.0 0.0
115.1288706367714 18.651346712284543 40.13406520471678 -110.84860563504311 0.0 0.0
198.70905871432814 12.12036839027347 63.24882813138048 -111.04189229320916 0.0 0.0
275.8872253186018 0.015822841314073743 82.7283562706303 -120.01731395428942 0.0 0.0
363.49178591201047 -8.79285458021902 109.45229408517767 -123.12488713068905 0.0 0.0
464.233319767027 -5.858514033880224 159.2933808083418 -116.10298101366922 0.0 0.0
550.6435989488168 6.930814902030749 225.31334889246136 -109.06830136059467 0.0 0.0
619.714789883592 22.05912004506335 287.44384055764914 -107.06761624787273 0.0 0.0
677.0704063783302 36.87908686501553 337.42944182281207 -106.14906873224075 0.0 0.0
728.3034772624984 51.66523247476473 378.31669598178405 -104.35263154462757 0.0 0.0
776.3629918242992 66.76895267283183 414.0451925357559 -101.75064726287947 0.0 0.0
822.6733739564402 82.20574952293492 447.0555860721066 -99.21937773223776 0.0 0.0
868.394216216665 97.99274041167969 478.95535584722484 -96.90104758826473 0.0 0.0
914.2938473493855 114.20806432220463 510.6162342229644 -94.29608826364682 0.0 0.0
959.9690171015692 131.68971787682852 542.5224301034893 -90.66517627448944 0.0 0.0
1005.6687805093318 149.85282144608064 574.6763211046396 -85.62032673484057 0.0 0.0
1050.850188888345 169.7675924213916 607.3449668214104 -77.68657801685038 0.0 0.0
1094.6447645019948 191.38197953783026 640.0384254765139 -63.29251642748396 0.0 0.0
1130.7844236145602 209.4658208907291 667.0040537592618 -37.76008908963217 0.0 0.0
1130.7844236148974 209.46582089109947 667.0040537595102 37.76008908977238 0.0 0.0
1094.6447645024814 191.38197953840162 640.0384254768724 63.29251642769931 0.0 0.0
1050.8501888881565 169.7675924213003 607.3449668212934 77.68657801702719 0.0 0.0
1005.6687805087076 149.8528214455489 574.6763211041549 85.62032673494635 0.0 0.0
959.9690171020605 131.68971787742865 542.5224301037247 90.66517627453996 0.0 0.0
914.2938473491855 114.20806432215745 510.6162342227704 94.29608826374829 0.0 0.0
868.3942162162568 97.99274041140914 478.95535584690623 96.90104758834502 0.0 0.0
822.6733739561107 82.2057495227806 447.05558607185145 99.21937773233279 0.0 0.0
776.3629918243312 66.76895267306953 414.045192535746 101.7506472629637 0.0 0.0
728.3034772623616 51.665232474853354 378.3166959816265 104.35263154467997 0.0 0.0
677.0704063779519 36.87908686480786 337.42944182245753 106.14906873217133 0.0 0.0
619.7147898832429 22.05912004495356 287.44384055732036 107.06761624784886 0.0 0.0
550.643598948408 6.930814901901815 225.31334889211067 109.06830136056679 0.0 0.0
464.2333197665122 -5.858514034032291 159.2933808080062 116.10298101365305 0.0 0.0
363.49178591179077 -8.79285457993196 109.45229408517628 123.12488713059403 0.0 0.0
275.88722531841876 0.015822841364903972 82.72835627059244 120.01731395419598 0.0 0.0
198.70905871438578 12.120368390578786 63.248828131489375 111.04189229306397 0.0 0.0
115.12887063677272 18.65134671241932 40.13406520475761 110.84860563483817 0.0 0.0
26.407370607826138 -32.614179240205196 -1.8620425897137158 141.22603076772882 0.0 0.0
-5.534686094177928 -452.3770914015503 -184.5243660172703 158.22820194930824 0.0 0.0
0.10675027125179071 -412.6970328109278 -152.43310918583828 -154.56888944852489 0.0 0.0
9.11109853351837 -39.35742262426439 -9.073897227223807 -158.65937934231513 0.0 0.0
75.47373816632778 13.763611417721432 26.771204875214764 -131.83863206222682 0.0 0.0
147.0670409316989 14.00491597917619 48.32158707326252 -129.52274643122823 0.0 0.0
214.10668147583007 2.0506680706304383 64.84449486979109 -138.65217963283473 0.0 0.0
289.95599364006216 -5.397994924117978 86.13852512623743 -146.16104863957366 0.0 0.0
387.10176176766515 -5.975184540745339 123.59355972277831 -143.595692821598 0.0 0.0
483.49918530078367 2.5961577298015794 180.85341892109716 -133.9893484875606 0.0 0.0
562.0683740233665 15.630491080340917 243.24903756231646 -127.28281428515514 0.0 0.0
623.4771185323351 28.899513545698152 296.93646084174605 -124.00735151228413 0.0 0.0
673.0410291339493 40.00826485380072 338.35876356856045 -121.25994435741683 0.0 0.0
718.4034684931282 51.799434222771495 373.55216535131433 -118.21028749348687 0.0 0.0
760.9346790708842 63.503253520376475 404.44116416969865 -115.37243848262848 0.0 0.0
802.003442604078 75.3688632162017 433.056918953369 -112.8202100925812 0.0 0.0
842.2040637187101 86.61478210267427 459.9216527649847 -110.11501404438535 0.0 0.0
883.3220888024498 99.0274288045077 487.26158948418947 -106.3216156103876 0.0 0.0
923.0459168126525 111.13146073538125 513.5270165592303 -100.70816865718304 0.0 0.0
961.137711259834 122.76207961554265 538.6311803618412 -92.33638908884585 0.0 0.0
1000.8263959054896 136.3859210591612 565.3624032712441 -76.67720239416877 0.0 0.0
1039.9672127762608 152.10289144341982 592.627037385274 -47.168309819962495 0.0 0.0
1039.9672127762308 152.1028914434273 592.6270373852687 47.168309820131384 0.0 0.0
1000.8263959058689 136.38592105966418 565.3624032715005 76.67720239439147 0.0 0.0
961.1377112600946 122.76207961589432 538.6311803620287 92.33638908900689 0.0 0.0
923.0459168125857 111.131460735482 513.5270165592073 100.70816865742464 0.0 0.0
883.322088802437 99.02742880460718 487.26158948415537 106.3216156104392 0.0 0.0
842.2040637188504 86.61478210292225 459.9216527650726 110.1150140444075 0.0 0.0
802.0034426038949 75.36886321615934 433.0569189532367 112.82021009265713 0.0 0.0
760.9346790704517 63.50325352007832 404.4411641693416 115.37243848266756 0.0 0.0
718.4034684927321 51.79943422251795 373.5521653509857 118.21028749348062 0.0 0.0
673.0410291335437 40.00826485351764 338.3587635682277 121.25994435735709 0.0 0.0
623.4771185319104 28.89951354541064 296.9364608413722 124.00735151216016 0.0 0.0
562.0683740226997 15.630491079854295 243.24903756182158 127.28281428508446 0.0 0.0
483.4991853001891 2.5961577294840517 180.85341892067058 133.9893484875551 0.0 0.0
387.10176176737616 -5.975184540441873 123.59355972270473 143.59569282162525 0.0 0.0
289.9559936398274 -5.397994924059072 86.13852512617733 146.16104863941152 0.0 0.0
214.10668147566824 2.0506680706405147 64.84449486975201 138.65217963265565 0.0 0.0
147.06704093162847 14.004915979182591 48.3215870732433 129.52274643110653 0.0 0.0
75.47373816628668 13.763611417703824 26.77120487519715 131.8386320620176 0.0 0.0
9.111098533543723 -39.35742262409492 -9.073897227165359 158.6593793421187 0.0 0.0
0.1067502712685311 -412.69703281061857 -152.43310918561087 154.56888944843766 0.0 0.0
2.8662537514881876 -369.25521488948505 -123.3641829844627 -150.74644747480554 0.0 0.0
-7.358074178686928 -45.83249425717549 -15.95714183651871 -169.04471281391733 0.0 0.0
39.637151351727574 9.851405127102625 14.846566943649057 -148.61111680668762 0.0 0.0
96.8658126297743 15.260541499438606 33.63790623876387 -145.23950871881706 0.0 0.0
150.8785582368506 4.74843874261576 46.68137994135975 -154.16260363394468 0.0 0.0
209.46014137080113 -2.811904764584015 62.342305130337955 -165.05745582990585 0.0 0.0
288.69622166617467 -3.6624664528636943 88.57496017048726 -169.11304702399397 0.0 0.0
389.0992984106812 0.3265859449539805 131.68685044667814 -162.26293374563758 0.0 0.0
479.5337186538869 8.53224000884433 186.38332570209243 -151.21491600812203 0.0 0.0
548.9721591474795 19.864756254045208 241.09486328221732 -142.9026253681311 0.0 0.0
602.2268520787868 27.938294267783466 285.10317781992484 -138.51874191283483 0.0 0.0
645.3083630794982 36.235066748092365 320.77152132952455 -134.4713156572132 0.0 0.0
684.708625266338 44.8221352221032 351.4369562516639 -131.27049223754614 0.0 0.0
721.4832652462572 52.66637907067739 378.04798179163794 -128.5422085005391 0.0 0.0
756.9492871679187 59.65615094528099 401.8678936801818 -125.8760584959509 0.0 0.0
791.9841551311918 66.22623179333368 424.001148442493 -122.0603636271387 0.0 0.0
827.7199608310067 73.05529112746493 445.92873457710033 -115.9695364397762 0.0 0.0
859.3642251297642 76.65632722103304 464.085527316105 -106.96543816985564 0.0 0.0
890.5874542386448 78.40259929016369 480.90697238779313 -91.21718461489792 0.0 0.0
933.0838883263395 89.80546545471664 507.6571335887949 -59.44304385436411 0.0 0.0
933.0838883266736 89.80546545510174 507.6571335890623 59.4430438545449 0.0 0.0
890.5874542388887 78.40259929056413 480.90697238802125 91.21718461522747 0.0 0.0
859.3642251292647 76.65632722068358 464.08552731576196 106.96543817011352 0.0 0.0
827.7199608308568 73.0552911275175 445.92873457694975 115.96953644002048 0.0 0.0
791.984155131431 66.22623179377723 424.0011484425997 122.06036362728409 0.0 0.0
756.9492871674652 59.656150944887656 401.8678936798268 125.87605849589676 0.0 0.0
721.4832652463546 52.666379070944174 378.04798179170115 128.5422085006494 0.0 0.0
684.7086252665973 44.82213522258151 351.4369562518298 131.27049223765076 0.0 0.0
645.3083630794956 36.23506674832472 320.7715213294689 134.47131565729967 0.0 0.0
602.2268520781486 27.938294267255195 285.1031778194123 138.51874191272108 0.0 0.0
548.972159147108 19.864756253736708 241.0948632818285 142.902625367973 0.0 0.0
479.53371865375857 8.53224000923041 186.38332570200845 151.21491600824302 0.0 0.0
389.09929841046096 0.3265859453387492 131.68685044663843 162.26293374573936 0.0 0.0
288.6962216656491 -3.662466452992504 88.57496017028124 169.11304702391928 0.0 0.0
209.46014137060496 -2.8119047646267363 62.34230513026457 165.05745582974316 0.0 0.0
150.8785582367701 4.7484387426100385 46.68137994133494 154.162603633755 0.0 0.0
96.86581262962217 15.260541499275808 33.63790623866939 145.23950871863985 0.0 0.0
39.63715135175746 9.851405127200836 14.846566943687487 148.61111680648264 0.0 0.0
-7.35807417872524 -45.832494257057014 -15.957141836494792 169.04471281373458 0.0 0.0
2.8662537514571795 -369.25521488915496 -123.3641829842898 150.74644747468054 0.0 0.0
-2.966901673514478 -323.13941594024527 -102.2046622354084 -144.33478162383594 0.0 0.0
-24.474052064018245 -52.196544049837314 -22.999938544638603 -175.62358894570238 0.0 0.0
6.747243828561569 7.317445185291725 4.219110862299008 -161.0309392125755 0.0 0.0
48.238477148017935 15.974196967995146 19.262688511303487 -157.55627471346492 0.0 0.0
86.92705310067558 8.030100854901518 28.48415517531927 -165.62672951857058 0.0 0.0
126.00945138554584 0.12474372219598351 37.95366430130233 -179.1657756972644 0.0 0.0
175.98127920951632 -2.031589339904909 53.40065162413963 -188.4950099460747 0.0 0.0
250.02893686159553 0.9458400027370031 79.67866633835052 -188.20909912346116 0.0 0.0
345.26747960630837 4.543615072499001 117.83064843305397 -180.01816148230472 0.0 0.0
429.33315807593146 9.449866156189145 162.57760081013555 -166.59973057466863 0.0 0.0
491.6487007873418 16.044731303852885 206.05816211759665 -157.2274409171984 0.0 0.0
537.1071715395076 20.09782150355725 241.68326913140203 -151.66436791583 0.0 0.0
575.6003089764569 25.655397890901376 273.429556531818 -147.55613403074017 0.0 0.0
609.3030069383944 30.145714692973897 300.645308531512 -144.28987989369548 0.0 0.0
639.8281947954611 32.9453034698201 323.4738481363125 -141.4502410752834 0.0 0.0
669.213082880857 33.990911933577806 342.7630241275479 -137.90620395556897 0.0 0.0
700.4252942534117 34.097237579972145 360.53486836535774 -131.75560067001982 0.0 0.0
733.0864803166974 33.61046681768704 377.90728460157504 -121.49347804502762 0.0 0.0
754.45537614003 19.451852170725672 383.0481017383831 -106.11969941272346 0.0 0.0
796.4501038789965 17.841917631021346 403.03733835075354 -75.85963103294043 0.0 0.0
796.4501038791739 17.84191763121055 403.0373383508358 75.8596310330877 0.0 0.0
754.4553761399568 19.45185217086879 383.0481017383554 106.119699413137 0.0 0.0
733.0864803166647 33.61046681791598 377.90728460157027 121.49347804533409 0.0 0.0
700.4252942537769 34.097237580478605 360.53486836559114 131.7556006701863 0.0 0.0
669.2130828809339 33.99091193389748 342.7630241276137 137.9062039556685 0.0 0.0
639.8281947952947 32.94530346958396 323.4738481361236 141.45024107517952 0.0 0.0
609.3030069379834 30.14571469271597 300.6453085312516 144.2898798938105 0.0 0.0
575.6003089759635 25.65539789039579 273.4295565314305 147.55613403073784 0.0 0.0
537.1071715390794 20.097821503193146 241.6832691310427 151.66436791580256 0.0 0.0
491.64870078687073 16.044731303471828 206.05816211722748 157.22744091716012 0.0 0.0
429.3331580757708 9.449866156322656 162.5776008100166 166.5997305746047 0.0 0.0
345.2674796060303 4.543615072698984 117.83064843296555 180.01816148236173 0.0 0.0
250.02893686142218 0.945840003131158 79.67866633839333 188.2090991234479 0.0 0.0
175.98127920940058 -2.0315893397028866 53.40065162415745 188.49500994597918 0.0 0.0
126.00945138557478 0.12474372249825816 37.95366430140133 179.16577569709128 0.0 0.0
86.92705310070191 8.03010085509641 28.484155175389496 165.62672951832616 0.0 0.0
48.23847714801214 15.974196968005957 19.262688511305406 157.5562747132433 0.0 0.0
6.747243828538604 7.317445185245207 4.219110862278284 161.03093921237186 0.0 0.0
-24.47405206411407 -52.19654404993857 -22.99993854469825 175.6235889455435 0.0 0.0
-2.966901673625461 -323.1394159399671 -102.20466223532408 144.3347816237015 0.0 0.0
-12.232716346121057 -276.2795396279534 -86.90591045053114 -134.81933141287053 0.0 0.0
-40.11781553863504 -56.68421365127037 -29.03819467364238 -178.97882345001037 0.0 0.0
-24.005179304226758 5.4661135868626705 -5.561567090302403 -169.38898617891445 0.0 0.0
1.2369430232371732 16.457204113147426 5.308014435046375 -165.8923000894209 0.0 0.0
22.938888381747944 11.194606026103596 10.238173751920407 -172.78098194231563 0.0 0.0
40.423284402695664 4.013100961976047 13.37287570111426 -186.5073710349834 0.0 0.0
58.73977789574073 0.18246869148389733 18.052855058952904 -198.9357865971948 0.0 0.0
84.44186355987053 0.08954708431881109 26.454110901604214 -205.21955484070807 0.0 0.0
121.59986401545883 1.862280836252486 39.61081737560061 -200.5876357247356 0.0 0.0
169.44383433283934 3.4612432200208776 56.813006039582014 -191.38978547554714 0.0 0.0
224.5210581932928 5.892368987503676 78.16701739610235 -179.35171219791417 0.0 0.0
271.54880608081197 6.264031790086236 99.52895275569686 -171.19146553312652 0.0 0.0
312.8899067198244 8.601892515487599 123.07088362241913 -165.5769007153185 0.0 0.0
353.4616657712358 9.608482813537663 147.8408257549913 -161.50995513317764 0.0 0.0
389.70860528097035 7.415569662953885 171.17079139018244 -157.37304201551635 0.0 0.0
422.515365513972 2.5380025757095552 191.91127890580015 -153.33984606973422 0.0 0.0
459.089286281264 -5.130272669292239 211.50995363923204 -147.6408510546032 0.0 0.0
505.08631557103456 -12.31651231882637 235.13523960786165 -137.91062937414642 0.0 0.0
551.6093411831979 -26.56472529561887 256.39510868103554 -119.33046076936012 0.0 0.0
575.6549128551327 -77.65133371038986 245.6909204817919 -94.6759131249691 0.0 0.0
575.6549128549561 -77.65133371065696 245.69092048165388 94.67591312510544 0.0 0.0
551.6093411828365 -26.564725296074357 256.39510868075496 119.33046076970946 0.0 0.0
505.08631557137335 -12.316512318154551 235.13523960816786 137.91062937449442 0.0 0.0
459.08928628138295 -5.1302726690533405 211.50995363930505 147.64085105478043 0.0 0.0
422.51536551423146 2.5380025761854483 191.91127890600157 153.33984606977583 0.0 0.0
389.7086052810975 7.415569663148894 171.17079139024167 157.3730420155213 0.0 0.0
353.46166577115423 9.608482813431657 147.84082575490157 161.50995513327013 0.0 0.0
312.8899067198911 8.601892515533493 123.07088362241741 165.576900715491 0.0 0.0
271.5488060809764 6.264031790384099 99.52895275580363 171.19146553312936 0.0 0.0
224.5210581935304 5.892368988135569 78.16701739633613 179.35171219794353 0.0 0.0
169.44383433299518 3.4612432205809274 56.81300603978895 191.38978547548558 0.0 0.0
121.59986401513031 1.8622808356588276 39.610817375315364 200.5876357247605 0.0 0.0
84.44186355969448 0.08954708405033429 26.454110901465878 205.21955484064787 0.0 0.0
58.73977789561691 0.18246869119827025 18.052855058828047 198.9357865970594 0.0 0.0
40.42328440263018 4.013100961801316 13.372875701042235 186.5073710347795 0.0 0.0
22.93888838185387 11.194606026344458 10.238173752024643 172.7809819421248 0.0 0.0
1.2369430234521328 16.45720411351957 5.308014435222546 165.89230008925446 0.0 0.0
-24.00517930417314 5.466113587006626 -5.56156709024324 169.38898617875353 0.0 0.0
-40.11781553857261 -56.68421365110272 -29.03819467357409 178.97882344984498 0.0 0.0
-12.232716346154199 -276.27953962759 -86.90591045043982 134.8193314127351 0.0 0.0
-20.86451597813801 -231.0519018028022 -75.56451805099752 -123.45638710970232 0.0 0.0
-52.94566641121979 -57.475528707708214 -33.12443938518282 -178.38432722005115 0.0 0.0
-52.85568810674687 3.711651958039405 -14.742683031007413 -173.79407691248502 0.0 0.0
-44.17203869242436 16.739256078183853 -8.229257150553915 -170.03912130650934 0.0 0.0
-40.413878064176835 14.025497321238698 -7.912228889462964 -175.14681138894676 0.0 0.0
-45.4070920878509 7.949226079665381 -11.27535688153029 -187.493995816161 0.0 0.0
-59.79664844968678 2.939036346238427 -17.4368490445073 -199.03094672462362 0.0 0.0
-84.34083846557704 0.36263404919264985 -26.288113274736716 -205.31387279272826 0.0 0.0
-121.3067949934837 -1.8886501319156928 -39.52308107605717 -200.5867205376679 0.0 0.0
-169.3056682406106 -3.6804824196136856 -56.82867814758458 -191.35757374802594 0.0 0.0
-225.06659126977522 -5.13383815057761 -77.71265199052503 -179.49967749541415 0.0 0.0
-272.28392613666455 -5.435494749919563 -99.50031660580738 -170.94871614270707 0.0 0.0
-315.5791970918193 -7.591288232425484 -123.78373142641342 -165.15620003836605 0.0 0.0
-358.6195092304026 -9.853737085924344 -150.17756804865348 -161.13701330422845 0.0 0.0
-394.125371360853 -15.152784040355357 -176.29956561305715 -158.291683539779 0.0 0.0
-416.10697460189044 -24.966137540125743 -199.09558744283453 -157.84982914200464 0.0 0.0
-414.29471719227564 -36.60478279212414 -212.2150584828574 -159.63838504813012 0.0 0.0
-362.07842198643993 -41.59386506570638 -205.0415892173168 -162.01374046082336 0.0 0.0
-192.58326156451022 -36.347538524430604 -131.73774276312224 -162.79099899749235 0.0 0.0
29.937121942700074 -165.94150768988874 -58.58294776401196 -123.82475159299227 0.0 0.0
29.93712194284177 -165.94150768971934 -58.58294776393433 123.82475159333306 0.0 0.0
-192.58326156436888 -36.34753852397799 -131.73774276297348 162.7909989979243 0.0 0.0
-362.0784219860521 -41.59386506514065 -205.04158921696558 162.0137404611221 0.0 0.0
-414.294717192594 -36.60478279271911 -212.2150584830687 159.63838504820654 0.0 0.0
-416.10697460233644 -24.966137540993003 -199.09558744317337 157.84982914199452 0.0 0.0
-394.1253713606109 -15.15278404051142 -176.29956561295572 158.29168353981828 0.0 0.0
-358.6195092299887 -9.853737085809584 -150.17756804838427 161.13701330426284 0.0 0.0
-315.5791970912588 -7.591288232309459 -123.78373142612554 165.15620003853178 0.0 0.0
-272.28392613600136 -5.4354947497239365 -99.50031660547971 170.94871614267328 0.0 0.0
-225.06659126918183 -5.133838150586886 -77.7126519903043 179.49967749541077 0.0 0.0
-169.30566823970443 -3.6804824187831464 -56.82867814704534 191.35757374793258 0.0 0.0
-121.30679499314954 -1.8886501319598459 -39.52308107595858 200.58672053773228 0.0 0.0
-84.34083846536626 0.3626340491215556 -26.28811327468909 205.31387279270564 0.0 0.0
-59.79664844943358 2.9390363463817715 -17.436849044383436 199.03094672448952 0.0 0.0
-45.407092087755856 7.9492260795592085 -11.275356881533046 187.4939958159242 0.0 0.0
-40.41387806416223 14.025497321096273 -7.9122288895016775 175.14681138871083 0.0 0.0
-44.17203869231557 16.73925607824073 -8.229257150504475 170.03912130633063 0.0 0.0
-52.85568810664679 3.711651958238523 -14.742683030918034 173.794076912281 0.0 0.0
-52.94566641120403 -57.47552870770727 -33.124439385178704 178.38432721986402 0.0 0.0
-20.86451597814092 -231.05190180260388 -75.56451805094223 123.45638710950878 0.0 0.0
-23.8865574822267 -188.04926524925304 -63.58074681944392 -110.97240610784586 0.0 0.0
-63.566711253443486 -55.49960376979164 -35.719539791543845 -173.9394892584643 0.0 0.0
-79.73472002778779 2.2825942195694457 -23.234680841059387 -174.01052325792563 0.0 0.0
-88.0331702845022 16.619420567852412 -21.41839188454725 -169.93204322820642 0.0 0.0
-102.46268782328349 16.31987160874133 -25.841334606447937 -172.46144756646504 0.0 0.0
-130.0244152779017 11.172987145534398 -35.89625093629873 -181.5316285242741 0.0 0.0
-176.87913205423874 5.0288742389799275 -52.79134603551368 -189.39305305581638 0.0 0.0
-249.8590008315524 -0.527868797000254 -79.50864579250401 -188.3844280369982 0.0 0.0
-344.97500521561767 -4.6524678808175 -117.76150990720761 -180.0154973491564 0.0 0.0
-429.1623661154872 -9.427097711593358 -162.48260013892633 -166.55179748091837 0.0 0.0
-491.3930384721825 -15.676365120543338 -205.8370297536596 -157.11352748911534 0.0 0.0
-537.0378363090583 -19.33562181466145 -241.39428450099635 -151.3100755901337 0.0 0.0
-575.9200627403956 -24.54868311336999 -273.17116634143724 -146.73803520817435 0.0 0.0
-611.4267809923889 -30.75561530460965 -301.9067013293478 -143.46712028832297 0.0 0.0
-645.5483813240464 -39.90945960821968 -329.2473223855268 -142.45163368650614 0.0 0.0
-677.2108524809784 -52.85542282129532 -355.28640496964425 -144.51691997994354 0.0 0.0
-703.8112621753263 -70.01154065190137 -379.77286782142716 -150.74479216594818 0.0 0.0
-720.2160519833344 -89.20311614065926 -399.8516579633222 -161.1002053210532 0.0 0.0
-755.8636768537765 -143.9345472055265 -444.1030691653975 -170.7159362919655 0.0 0.0
-727.9275919877823 -206.447729134979 -457.9015550684528 -178.94878800845635 0.0 0.0
-727.9275919877462 -206.44772913516454 -457.9015550685115 178.9487880087254 0.0 0.0
-755.8636768539922 -143.93454720575286 -444.10306916553077 170.71593629219916 0.0 0.0
-720.2160519833974 -89.2031161410851 -399.8516579634343 161.1002053214071 0.0 0.0
-703.8112621751653 -70.01154065176719 -379.7728678212716 150.74479216597211 0.0 0.0
-677.2108524804343 -52.855422820858564 -355.2864049692397 144.51691997999802 0.0 0.0
-645.5483813237796 -39.909459608077796 -329.24732238531936 142.45163368658476 0.0 0.0
-611.426780992243 -30.755615304695162 -301.90670132924157 143.4671202883749 0.0 0.0
-575.9200627400085 -24.548683113165026 -273.1711663411544 146.73803520825697 0.0 0.0
-537.0378363087432 -19.335621814622066 -241.3942845007402 151.3100755901188 0.0 0.0
-491.3930384716325 -15.67636512028962 -205.83702975324223 157.11352748909752 0.0 0.0
-429.1623661149114 -9.42709771149298 -162.48260013854096 166.5517974808984 0.0 0.0
-344.97500521532703 -4.652467881371445 -117.76150990720103 180.01549734927733 0.0 0.0
-249.85900083111915 -0.5278687972072937 -79.50864579241099 188.3844280370683 0.0 0.0
-176.87913205397814 5.028874238721868 -52.79134603550234 189.3930530556994 0.0 0.0
-130.02441527781036 11.172987145239075 -35.896250936358456 181.53162852408124 0.0 0.0
-102.46268782317782 16.3198716085303 -25.841334606481325 172.46144756626464 0.0 0.0
-88.03317028446067 16.619420567720574 -21.41839188457492 169.9320432280638 0.0 0.0
-79.73472002775105 2.2825942195704187 -23.234680841048544 174.0105232577406 0.0 0.0
-63.566711253411995 -55.499603769790625 -35.719539791534736 173.93948925834854 0.0 0.0
-23.886557482204488 -188.04926524907313 -63.58074681938327 110.97240610774124 0.0 0.0
-24.804049570042565 -148.2422701603805 -51.913895919126915 -98.14527295558368 0.0 0.0
-72.48771488578844 -51.05780173463708 -37.063272130527466 -165.49075714257765 0.0 0.0
-104.85478561376831 1.163785297395136 -31.104349954293493 -170.00175118943866 0.0 0.0
-130.18732232307497 16.142974923162754 -34.202532635768684 -165.4267378830527 0.0 0.0
-162.90764027418672 17.528126500962927 -43.66349626170724 -164.93257252484932 0.0 0.0
-212.30580998174906 13.081007191708029 -60.24986477177981 -169.04107358085392 0.0 0.0
-288.8083285759101 6.448805306582128 -87.91346181263027 -170.1491550210254 0.0 0.0
-388.73358358901606 -0.0798301786769322 -131.51078668638638 -162.54956137554456 0.0 0.0
-479.44069653544886 -8.615228877255024 -186.3349704947591 -151.16195323824556 0.0 0.0
-548.9316809214621 -19.85618665155331 -241.07122108415894 -142.84093190157785 0.0 0.0
-602.0981288662783 -27.694749034347137 -284.98240159000653 -138.41375342935228 0.0 0.0
-645.1093458330449 -35.59721441097351 -320.4359275508933 -134.09909824448414 0.0 0.0
-684.6607913408102 -43.79944669512184 -350.93740425056376 -130.32107055466435 0.0 0.0
-722.8437457570719 -52.84055802000756 -378.69040866279084 -127.29102380140192 0.0 0.0
-761.5816295470593 -64.77535393263977 -406.4105988730181 -126.26775920288364 0.0 0.0
-800.2605141012777 -81.22137931641966 -435.2318729287922 -128.60928692072488 0.0 0.0
-837.0096883970996 -102.28647392518374 -464.99313114419044 -135.37250250305226 0.0 0.0
-879.0576334323719 -137.28304424313936 -504.1430066939753 -143.78621886465356 0.0 0.0
-924.7287103952583 -189.80894734523625 -553.537596236851 -152.03398388407263 0.0 0.0
-987.9811166990146 -299.09336135361224 -635.550967784595 -162.174948081738 0.0 0.0
-987.9811166994502 -299.09336135425013 -635.550967785056 162.17494808205916 0.0 0.0
-924.7287103954657 -189.80894734584595 -553.5375962371153 152.03398388450077 0.0 0.0
-879.0576334323729 -137.28304424335843 -504.1430066939824 143.78621886495603 0.0 0.0
-837.0096883967605 -102.28647392496381 -464.9931311439322 135.37250250311115 0.0 0.0
-800.2605141010188 -81.22137931624243 -435.2318729286443 128.60928692072602 0.0 0.0
-761.5816295474117 -64.77535393310643 -406.41059887327873 126.26775920288281 0.0 0.0
-722.8437457571604 -52.84055802026818 -378.69040866283586 127.29102380145346 0.0 0.0
-684.6607913405236 -43.79944669506833 -350.9374042503489 130.32107055474 0.0 0.0
-645.1093458324073 -35.597214410452885 -320.4359275504128 134.09909824439654 0.0 0.0
-602.098128865958 -27.694749034305882 -284.9824015897357 138.41375342933864 0.0 0.0
-548.9316809213319 -19.856186651768866 -241.07122108399102 142.84093190151145 0.0 0.0
-479.4406965349552 -8.615228877109832 -186.33497049440575 151.1619532382379 0.0 0.0
-388.73358358830694 -0.0798301784731894 -131.51078668600866 162.5495613756083 0.0 0.0
-288.8083285753685 6.448805306573978 -87.91346181244904 170.14915502097386 0.0 0.0
-212.30580998131094 13.081007191973606 -60.24986477156758 169.04107358069405 0.0 0.0
-162.90764027373856 17.528126501382257 -43.66349626145059 164.93257252466864 0.0 0.0
-130.1873223228826 16.142974923312785 -34.202532635666984 165.42673788292103 0.0 0.0
-104.85478561373557 1.1637852972829865 -31.10434995431814 170.00175118927504 0.0 0.0
-72.48771488575541 -51.05780173465392 -37.06327213052283 165.490757142395 0.0 0.0
-24.804049570003198 -148.24227016023173 -51.91389591907047 98.14527295545986 0.0 0.0
-25.3245193859308 -112.18557992565792 -41.25302979347661 -85.12766888048199 0.0 0.0
-80.48438493196215 -44.74280629712827 -37.56815736872712 -153.30135587803315 0.0 0.0
-128.3746554158825 0.47100200555902205 -38.36830409066032 -161.72718880765885 0.0 0.0
-170.71754837806688 15.01261987062361 -46.700261518741684 -156.62195783374452 0.0 0.0
-221.31901021179658 17.670653754364693 -61.11805716456546 -152.51954773887667 0.0 0.0
-290.5542833613819 13.861255277752143 -84.23990283245175 -150.8161459576266 0.0 0.0
-386.46164930871987 8.488130409306745 -122.75805112502849 -145.17502199633452 0.0 0.0
-483.2071950329655 -2.45930924311752 -180.66610236582576 -134.13727924046316 0.0 0.0
-562.1139556655302 -15.742109975803107 -243.27371856074177 -127.18525868306952 0.0 0.0
-623.4781703384697 -28.91770380323131 -296.9628664965204 -123.95126811957363 0.0 0.0
-672.9620907431527 -39.83973841938786 -338.27886358698566 -121.17908295554057 0.0 0.0
-718.2646274927808 -51.37871935780923 -373.3210462297376 -117.86167338750046 0.0 0.0
-760.7772363023078 -62.661956264253405 -403.95293485733066 -114.3741338681447 0.0 0.0
-802.4726883156352 -74.90661330122637 -432.9882624904343 -111.29902655099349 0.0 0.0
-844.718376241373 -89.23670200050199 -462.3360305500052 -110.04273421138716 0.0 0.0
-889.4529798003164 -109.25142348387071 -495.19472431677775 -112.22276855557017 0.0 0.0
-938.423720483119 -138.9506311463368 -534.7199004724409 -118.05771042153476 0.0 0.0
-994.2030749005366 -183.26378052638066 -585.1485983588054 -125.4136476316602 0.0 0.0
-1060.1674138912676 -250.98333894722637 -651.9752178125328 -131.55489191575904 0.0 0.0
-1139.4654132946816 -366.98495603074764 -747.1209434064615 -141.3510517451253 0.0 0.0
-1139.4654132931041 -366.9849560291928 -747.1209434054279 141.35105174523133 0.0 0.0
-1060.1674138905682 -250.98333894658478 -651.9752178120771 131.55489191590985 0.0 0.0
-994.203074901084 -183.26378052713667 -585.1485983591822 125.4136476319186 0.0 0.0
-938.4237204828717 -138.95063114624406 -534.7199004722636 118.05771042168959 0.0 0.0
-889.4529797996676 -109.25142348332449 -495.1947243162632 112.22276855561421 0.0 0.0
-844.7183762408712 -89.23670200012106 -462.33603054962697 110.04273421141765 0.0 0.0
-802.4726883149538 -74.90661330062802 -432.98826248995243 111.29902655094972 0.0 0.0
-760.7772363022048 -62.661956264318874 -403.9529348572639 114.37413386817175 0.0 0.0
-718.2646274924676 -51.37871935769634 -373.321046229493 117.86167338748413 0.0 0.0
-672.9620907426943 -39.83973841915817 -338.2788635866443 121.17908295552485 0.0 0.0
-623.478170338119 -28.91770380310527 -296.9628664961955 123.95126811946409 0.0 0.0
-562.1139556651761 -15.742109975824597 -243.2737185604252 127.18525868311184 0.0 0.0
-483.20719503241656 -2.4593092429418033 -180.66610236540544 134.1372792404311 0.0 0.0
-386.4616493078654 8.48813040987644 -122.75805112452701 145.1750219962434 0.0 0.0
-290.5542833609512 13.861255277782874 -84.23990283230951 150.81614595749636 0.0 0.0
-221.31901021164504 17.670653754025942 -61.11805716462456 152.51954773870884 0.0 0.0
-170.71754837777283 15.012619870829496 -46.700261518592846 156.6219578335661 0.0 0.0
-128.37465541564086 0.4710020058783906 -38.36830409049277 161.72718880749164 0.0 0.0
-80.48438493189408 -44.74280629708691 -37.568157368694294 153.3013558779307 0.0 0.0
-25.32451938588436 -112.18557992556023 -41.25302979343338 85.12766888039019 0.0 0.0
-25.9333220621103 -80.32491468093161 -31.877471022912573 -71.82612857751107 0.0 0.0
-88.02682242123647 -37.17084187535771 -37.55929928897825 -137.80043760255876 0.0 0.0
-150.5410577390137 0.17680492014789273 -45.10804358964509 -149.28921656788336 0.0 0.0
-209.62570720427476 13.354461641452362 -58.86182808531143 -143.4630756539808 0.0 0.0
-277.403602019258 16.674596943654947 -78.11399550961464 -136.00320671863994 0.0 0.0
-363.16538949348296 15.246138989788832 -107.8361071253315 -128.46106588121293 0.0 0.0
-462.89462827481054 7.713592807214912 -158.37565532345474 -117.26619543884205 0.0 0.0
-550.5259533563124 -6.896136216673742 -225.18346108681448 -109.06329184273751 0.0 0.0
-619.8738512786975 -22.220148245071503 -287.56522794532225 -106.94578001979411 0.0 0.0
-677.1041455642892 -36.88623313205362 -337.47004056188484 -106.11988644414052 0.0 0.0
-728.2765471233997 -51.56878333086266 -378.2809482070848 -104.27981957692555 0.0 0.0
-776.3644030995961 -66.59918053986846 -413.9838895859189 -101.43438666951961 0.0 0.0
-822.5276071576428 -81.66170514307152 -446.7231267576101 -98.2872240106787 0.0 0.0
-867.8214352739935 -96.84774619305608 -478.0920817816997 -95.38172434126271 0.0 0.0
-913.9865347487166 -113.80855773643634 -510.2300040306195 -93.87144338751668 0.0 0.0
-964.3387471734477 -138.02889216964678 -547.6829769579398 -95.12485825124294 0.0 0.0
-1024.278886429283 -175.6858316077321 -596.4314945094478 -99.8804996746274 0.0 0.0
-1094.7645515539114 -232.05696756682804 -659.970933185677 -106.15045610147845 0.0 0.0
-1174.5948553659873 -312.27432598005777 -740.0267908111738 -112.02445638254777 0.0 0.0
-1252.0563998200196 -425.1213229889479 -833.7891842017019 -125.78830246576014 0.0 0.0
-1252.0563998201542 -425.12132298924735 -833.7891842018337 125.78830246602303 0.0 0.0
-1174.5948553657088 -312.2743259798948 -740.0267908109728 112.02445638272874 0.0 0.0
-1094.764551553003 -232.0569675659679 -659.970933184996 106.1504561015773 0.0 0.0
-1024.2788864286156 -175.6858316071415 -596.431494508896 99.8804996746709 0.0 0.0
-964.3387471729664 -138.0288921692668 -547.6829769575356 95.1248582512938 0.0 0.0
-913.986534748053 -113.80855773586806 -510.23000403008064 93.87144338753075 0.0 0.0
-867.8214352739951 -96.84774619321956 -478.0920817816699 95.38172434133445 0.0 0.0
-822.5276071575491 -81.66170514313484 -446.7231267574814 98.28722401068387 0.0 0.0
-776.3644030995015 -66.59918053997072 -413.98388958578255 101.43438666954596 0.0 0.0
-728.2765471228024 -51.568783330474204 -378.2809482066657 104.27981957689416 0.0 0.0
-677.1041455637246 -36.88623313164648 -337.4700405614353 106.11988644398994 0.0 0.0
-619.8738512785551 -22.220148245288772 -287.5652279451432 106.9457800198559 0.0 0.0
-550.5259533558924 -6.8961362166513025 -225.18346108644897 109.06329184279414 0.0 0.0
-462.89462827457584 7.713592806883821 -158.37565532330976 117.26619543888926 0.0 0.0
-363.165389493185 15.246138989491772 -107.83610712529433 128.46106588110285 0.0 0.0
-277.4036020190299 16.674596943416816 -78.11399550962186 136.0032067185021 0.0 0.0
-209.62570720404227 13.354461641410527 -58.86182808525572 143.46307565384936 0.0 0.0
-150.54105773899352 0.17680491988530278 -45.1080435897184 149.289216567717 0.0 0.0
-88.02682242121645 -37.17084187542844 -37.55929928899346 137.80043760245204 0.0 0.0
-25.933322062036638 -80.32491468079178 -31.877471022848518 71.82612857745343 0.0 0.0
-26.649222551443465 -53.07376876450468 -23.91689739478444 -58.10491391003212 0.0 0.0
-95.15241713855664 -28.898070731909055 -37.2151463611397 -119.35799640242153 0.0 0.0
-171.56978569078981 0.2346403400807855 -51.4005436052127 -132.82525798401758 0.0 0.0
-246.84913854954448 10.755795136542279 -70.8176828903114 -125.9996063552195 0.0 0.0
-328.95455264794253 15.848195984752843 -94.2386840605991 -115.58020230357613 0.0 0.0
-427.3602562852372 15.397757939564746 -132.29193267211255 -103.13450793957628 0.0 0.0
-522.2705836574319 5.078145082679953 -193.32960579081958 -90.88004431202029 0.0 0.0
-599.0975840999854 -11.749232770248014 -262.9575955563516 -87.3145620464757 0.0 0.0
-662.9086295583563 -27.263026126313378 -321.0588085538672 -88.06373461321549 0.0 0.0
-720.6035080217522 -44.61551757592234 -369.2114307360521 -88.2390353682676 0.0 0.0
-774.498137777942 -62.93867057772348 -410.6778523708973 -87.00186462978142 0.0 0.0
-825.8728623486595 -81.59979782829726 -448.2874032867295 -84.60623663025194 0.0 0.0
-876.1031148082211 -100.40066291412901 -484.08726251148966 -81.99486312196161 0.0 0.0
-925.0745703307912 -119.24587464386913 -518.6864321037125 -79.39699560724281 0.0 0.0
-974.745995827075 -139.07776826214604 -553.7969009868315 -77.5570589320391 0.0 0.0
-1030.8766379801546 -166.79666329527 -595.7792021526977 -77.64309978144567 0.0 0.0
-1099.630617993944 -212.04854738350167 -652.567399580731 -80.78875290863908 0.0 0.0
-1183.4352119917185 -280.5284647814176 -728.6131057737458 -86.55747929766041 0.0 0.0
-1272.7451633087273 -369.8600820711639 -818.0439051094208 -94.3504511273061 0.0 0.0
-1349.6242928908855 -481.26715352916915 -911.5372007596291 -113.91360934424996 0.0 0.0
-1349.6242928911174 -481.2671535295079 -911.537200759809 113.91360934443051 0.0 0.0
-1272.7451633085311 -369.86008207102134 -818.0439051092602 94.35045112741389 0.0 0.0
-1183.4352119919727 -280.5284647817707 -728.6131057738914 86.55747929779942 0.0 0.0
-1099.6306179943015 -212.04854738396375 -652.5673995809552 80.78875290873256 0.0 0.0
-1030.8766379799235 -166.79666329515567 -595.7792021525095 77.64309978152386 0.0 0.0
-974.7459958266841 -139.07776826185093 -553.7969009864821 77.55705893204137 0.0 0.0
-925.074570329914 -119.24587464314641 -518.6864321030331 79.3969956073428 0.0 0.0
-876.103114807535 -100.4006629135591 -484.0872625109855 81.99486312189883 0.0 0.0
-825.8728623486323 -81.5997978284685 -448.2874032866908 84.60623663026755 0.0 0.0
-774.4981377776209 -62.93867057761716 -410.67785237059064 87.00186462975645 0.0 0.0
-720.6035080211727 -44.61551757551453 -369.2114307355698 88.23903536812446 0.0 0.0
-662.9086295579026 -27.26302612607236 -321.0588085534554 88.06373461314354 0.0 0.0
-599.097584099321 -11.749232769881747 -262.9575955558202 87.31456204646939 0.0 0.0
-522.2705836567934 5.078145083019768 -193.3296057903095 90.8800443119589 0.0 0.0
-427.3602562847361 15.397757939657364 -132.29193267185937 103.13450793953044 0.0 0.0
-328.95455264764405 15.84819598459536 -94.23868406055615 115.58020230346496 0.0 0.0
-246.84913854944944 10.755795136136209 -70.8176828904063 125.9996063551578 0.0 0.0
-171.56978569056136 0.23464034021529168 -51.40054360510381 132.82525798387877 0.0 0.0
-95.152417138424 -28.89807073176681 -37.215146361057236 119.35799640234468 0.0 0.0
-26.649222551432853 -53.073768764490595 -23.91689739477703 58.104913910019306 0.0 0.0
-27.18318008655257 -30.825178818759287 -17.402507671593554 -43.899538691677826 0.0 0.0
-101.48284404684092 -20.419347947699638 -36.57065759836216 -98.29794120938753 0.0 0.0
-191.5431907194842 0.5221919117862868 -57.30629964230937 -112.28832346226224 0.0 0.0
-282.9485482700097 7.279943098086854 -82.69080253195025 -104.82895204385454 0.0 0.0
-379.2232447791511 15.37568828150216 -110.19728450642972 -92.07814410845963 0.0 0.0
-480.1370032465808 14.636697394890284 -157.23048594603603 -76.64094227184684 0.0 0.0
-564.1223175473341 0.2407980906411531 -226.0643314314726 -67.3408482536487 0.0 0.0
-635.0901253005577 -14.595353818309462 -292.33428398697663 -67.72765853757893 0.0 0.0
-698.3179968083106 -31.954822426383245 -347.79021647889425 -69.27149406011624 0.0 0.0
-757.5054916231664 -52.27591134768262 -395.3393685457007 -69.97126299500405 0.0 0.0
-814.1971544816338 -73.88711478967532 -438.11264301132974 -69.19619960468125 0.0 0.0
-869.4424941158546 -96.31439856191187 -478.6113701802299 -67.3441435156865 0.0 0.0
-923.5529529433361 -118.99319516305415 -517.8091882150898 -65.26936716016961 0.0 0.0
-977.5299414177248 -142.10349192225803 -556.8129542544286 -63.26178827303955 0.0 0.0
-1031.535109811951 -165.76458408389576 -595.8996312888 -61.27468399849201 0.0 0.0
-1090.1306623548135 -195.8590262806421 -640.2729097164131 -59.8485424373916 0.0 0.0
-1165.601667413634 -246.14113217588994 -702.8381537007292 -61.141161164316706 0.0 0.0
-1260.8154418996082 -324.7538089923105 -789.4763406800764 -66.90657307666274 0.0 0.0
-1361.2323601892685 -424.78912584490695 -889.8244809534796 -78.01603946953334 0.0 0.0
-1442.0243340946538 -539.4766041597532 -987.4628207451765 -103.89339036303696 0.0 0.0
-1442.0243340944899 -539.4766041596596 -987.4628207451349 103.89339036317742 0.0 0.0
-1361.232360189515 -424.78912584522766 -889.8244809536667 78.01603946966497 0.0 0.0
-1260.8154418996571 -324.7538089924401 -789.4763406800569 66.90657307680839 0.0 0.0
-1165.6016674129476 -246.14113217527495 -702.8381537001369 61.141161164339856 0.0 0.0
-1090.1306623543605 -195.8590262802982 -640.272909715995 59.84854243749068 0.0 0.0
-1031.5351098114056 -165.76458408344126 -595.8996312883614 61.27468399846178 0.0 0.0
-977.5299414177566 -142.10349192242987 -556.8129542544539 63.26178827309386 0.0 0.0
-923.5529529433524 -118.99319516322937 -517.8091882150175 65.26936716017846 0.0 0.0
-869.4424941150253 -96.31439856127628 -478.61137017963085 67.34414351573835 0.0 0.0
-814.1971544811108 -73.88711478932498 -438.1126430109506 69.19619960459102 0.0 0.0
-757.5054916232492 -52.27591134801041 -395.3393685457281 69.97126299497634 0.0 0.0
-698.3179968076317 -31.95482242593333 -347.79021647839284 69.27149406009049 0.0 0.0
-635.090125299896 -14.595353817928293 -292.33428398644 67.72765853761025 0.0 0.0
-564.122317546663 0.2407980909913796 -226.064331430929 67.34084825362719 0.0 0.0
-480.1370032460252 14.636697395080265 -157.2304859456885 76.64094227183318 0.0 0.0
-379.22324477860406 15.375688281709834 -110.19728450620599 92.07814410840186 0.0 0.0
-282.9485482697073 7.279943098047787 -82.69080253187363 104.8289520438232 0.0 0.0
-191.54319071936732 0.5221919116533829 -57.306299642314166 112.28832346220459 0.0 0.0
-101.48284404680075 -20.41934794772512 -36.570657598357755 98.29794120921886 0.0 0.0
-27.183180086538226 -30.82517881874895 -17.40250767158615 43.89953869154759 0.0 0.0
-26.895111236644965 -13.954781425710241 -12.254967798706558 -29.348778478514113 0.0 0.0
-106.10337067344014 -12.143511721481133 -35.47406471847637 -74.79293890522153 0.0 0.0
-210.58500076396504 0.6257447746018734 -62.98777679680894 -87.58265753537074 0.0 0.0
-318.3460925916234 4.095872717292096 -94.26108852469741 -80.00358668113894 0.0 0.0
-426.6141958721151 15.71036802392595 -126.37484948657058 -66.0633299085033 0.0 0.0
-522.2876520311887 10.824599829603194 -183.74057581276855 -51.62454133940308 0.0 0.0
-597.8539663377343 -3.316111551613531 -254.54480081462992 -46.90904863900165 0.0 0.0
-664.4288041852117 -16.9629339709168 -315.9397780174928 -48.34442654914603 0.0 0.0
-727.9315817888248 -36.678491637224525 -369.62218903182213 -50.27609714837741 0.0 0.0
-789.2269334991827 -59.70830494480361 -417.41797324341314 -51.21511999541341 0.0 0.0
-849.170487840456 -84.57616890833714 -462.25570061989043 -50.844400392191545 0.0 0.0
-908.0247688590971 -110.65772190933549 -505.8152971459215 -49.53993160826007 0.0 0.0
-966.8120865352237 -137.3020807870288 -549.064349680603 -48.114387851238696 0.0 0.0
-1025.4931789430605 -165.23465672100053 -592.6724384658014 -46.667229043912286 0.0 0.0
-1084.9308135215451 -194.31759759520844 -637.1008712152951 -44.930667731133916 0.0 0.0
-1147.15965325432 -227.31575640714942 -684.7841410705439 -42.517373072228544 0.0 0.0
-1220.2277705339088 -274.5397252257616 -744.6565284403403 -41.390471451914 0.0 0.0
-1324.8825286341084 -361.32046058357736 -839.8332742988484 -46.68379736107087 0.0 0.0
-1442.595455169193 -477.2294077389869 -956.7175349214817 -61.8256360295886 0.0 0.0
-1537.7161976124326 -604.2995901914892 -1068.1871862848134 -94.46210421056914 0.0 0.0
-1537.716197612105 -604.2995901912249 -1068.1871862845446 94.46210421070919 0.0 0.0
-1442.5954551691543 -477.2294077390106 -956.7175349214283 61.82563602971045 0.0 0.0
-1324.882528633429 -361.3204605829524 -839.8332742983652 46.683797361158156 0.0 0.0
-1220.2277705327351 -274.53972522464755 -744.6565284394876 41.390471451914976 0.0 0.0
-1147.1596532538306 -227.31575640674427 -684.7841410701757 42.51737307224887 0.0 0.0
-1084.9308135220042 -194.3175975958012 -637.1008712155583 44.93066773124832 0.0 0.0
-1025.4931789428404 -165.23465672092166 -592.672438465597 46.667229043954805 0.0 0.0
-966.8120865346702 -137.30208078660925 -549.0643496801961 48.114387851204114 0.0 0.0
-908.0247688587624 -110.65772190919827 -505.8152971456842 49.53993160828087 0.0 0.0
-849.1704878403425 -84.57616890842091 -462.255700619772 50.84440039214066 0.0 0.0
-789.2269334985963 -59.7083049444434 -417.4179732429656 51.215119995418014 0.0 0.0
-727.9315817881302 -36.67849163675667 -369.6221890313057 50.2760971483294 0.0 0.0
-664.4288041846912 -16.962933970642617 -315.93977801706825 48.344426549077596 0.0 0.0
-597.8539663373609 -3.3161115515319644 -254.54480081424907 46.909048638911734 0.0 0.0
-522.2876520308378 10.824599829572799 -183.74057581248158 51.62454133939809 0.0 0.0
-426.6141958717227 15.710368023887266 -126.37484948643527 66.06332990850896 0.0 0.0
-318.34609259123306 4.095872717473439 -94.2610885245284 80.00358668112837 0.0 0.0
-210.5850007637099 0.6257447747844207 -62.987776796677636 87.58265753528107 0.0 0.0
-106.10337067329974 -12.143511721317267 -35.4740647183851 74.79293890518097 0.0 0.0
-26.89511123659846 -13.95478142568002 -12.254967798683541 29.348778478533326 0.0 0.0
-24.55402682278793 -2.7673670263288717 -8.196418154735039 -14.96480163920139 0.0 0.0
-107.3842798096657 -4.586999873351639 -33.5913839049052 -48.82420624829909 0.0 0.0
-228.86747117744437 0.30427745171665244 -68.56895811771831 -58.17462854737285 0.0 0.0
-354.5867267652992 1.9430026939467062 -105.75230951944405 -52.00743246413775 0.0 0.0
-467.0008394859056 16.83520129141167 -143.01198098679586 -39.55028216825154 0.0 0.0
-552.1274706607979 4.442693417575448 -210.29701925445542 -28.800686314408097 0.0 0.0
-623.7355271747721 -4.677206029475535 -277.0174237503803 -27.788423064148834 0.0 0.0
-688.7532690485854 -19.942795770356078 -335.55208026222476 -29.222021421816788 0.0 0.0
-752.7681158149855 -41.238109436354335 -387.5822779070878 -30.916207247072922 0.0 0.0
-816.4921420526416 -66.85384598916494 -436.2906960732457 -31.895240123047497 0.0 0.0
-879.9166487281205 -95.08012457034499 -483.76516846934015 -31.886297833944592 0.0 0.0
-943.0496422924673 -124.56182918368404 -530.7991666122099 -31.21321487118088 0.0 0.0
-1005.9475509329588 -155.6592816886399 -578.1487384257866 -30.36487077977611 0.0 0.0
-1070.0066242427206 -188.2858319684857 -626.6821406447823 -29.536408379306742 0.0 0.0
-1135.9495837467618 -223.53425120584572 -677.3845935842278 -28.357725096587817 0.0 0.0
-1203.3857638001282 -262.0546081272836 -730.4244016495359 -26.0604779678085 0.0 0.0
-1272.8053895321743 -305.8198576724981 -786.9411060663876 -22.928123639359637 0.0 0.0
-1359.074573157824 -372.90077079229326 -862.9484936810513 -25.227573008160828 0.0 0.0
-1518.8179515089414 -527.6449691686425 -1019.8041057374397 -43.506138030610195 0.0 0.0
-1647.261770228163 -684.4648502077962 -1163.4345364198457 -84.45857807086534 0.0 0.0
-1647.2617702282719 -684.4648502079175 -1163.434536419947 84.45857807091178 0.0 0.0
-1518.8179515084141 -527.6449691681595 -1019.8041057370714 43.50613803069393 0.0 0.0
-1359.0745731573134 -372.9007707918344 -862.9484936806293 25.227573008182105 0.0 0.0
-1272.8053895315554 -305.8198576719416 -786.9411060659357 22.928123639333382 0.0 0.0
-1203.3857637996177 -262.05460812685465 -730.4244016490527 26.060477967748156 0.0 0.0
-1135.9495837460636 -223.53425120524332 -677.3845935836546 28.35772509658638 0.0 0.0
-1070.006624242081 -188.28583196796646 -626.6821406442921 29.53640837931211 0.0 0.0
-1005.9475509326079 -155.65928168844027 -578.1487384255346 30.364870779755478 0.0 0.0
-943.0496422925804 -124.56182918398602 -530.7991666122876 31.213214871145993 0.0 0.0
-879.9166487275979 -95.0801245700194 -483.7651684689606 31.886297833915066 0.0 0.0
-816.4921420515095 -66.85384598823097 -436.2906960724348 31.895240122947545 0.0 0.0
-752.7681158146153 -41.23810943621853 -387.58227790677955 30.916207247056917 0.0 0.0
-688.7532690480431 -19.94279577007844 -335.5520802617763 29.222021421849995 0.0 0.0
-623.7355271740521 -4.677206029013533 -277.01742374978824 27.78842306408753 0.0 0.0
-552.1274706603638 4.442693417683255 -210.29701925408136 28.800686314449283 0.0 0.0
-467.00083948580345 16.83520129100559 -143.01198098679004 39.55028216828534 0.0 0.0
-354.58672676501044 1.9430026939292864 -105.75230951936756 52.00743246406722 0.0 0.0
-228.86747117727705 0.30427745169076026 -68.56895811767589 58.17462854731733 0.0 0.0
-107.38427980957144 -4.586999873433238 -33.5913839049014 48.82420624826279 0.0 0.0
-24.554026822738823 -2.7673670263646333 -8.196418154731035 14.964801639216336 0.0 0.0
-17.7788416921362 2.5563225262927802 -4.5667557497530264 -1.952099120928923 0.0 0.0
-102.60983602940091 1.5559021032716718 -30.31618017783877 -19.927306662523076 0.0 0.0
-247.00208566382156 -0.9310885105471183 -74.37995225231059 -22.969917688340736 0.0 0.0
-393.7220380003004 3.022632861837663 -117.22142868006037 -21.134261218065397 0.0 0.0
-502.9635460465614 14.715908925793357 -162.5115033611503 -13.770050902958044 0.0 0.0
-579.7409314006645 0.7393945892865439 -234.1352495583471 -9.095141319866414 0.0 0.0
-644.4905031429123 -6.458097805412351 -295.73599927965597 -9.211504112498154 0.0 0.0
-708.801168269436 -22.93597352395649 -351.53608533142074 -10.07150774537186 0.0 0.0
-773.8641826056987 -45.86783198750085 -402.7631430397953 -11.193660235698227 0.0 0.0
-840.1576880496168 -73.84882783258782 -452.8004580769134 -11.985349447693556 0.0 0.0
-907.0884430554133 -104.93254259509001 -502.9049241147689 -12.318619676367327 0.0 0.0
-974.1851853325502 -138.74732877816578 -553.836949718703 -12.244718508492973 0.0 0.0
-1041.8924256129021 -173.74838238655764 -605.4271802681988 -12.075569264348747 0.0 0.0
-1111.3140455226696 -211.0220481874139 -658.8932248745466 -11.827971720352524 0.0 0.0
-1183.552629581803 -252.35372059608258 -715.7357565208433 -11.270210059386608 0.0 0.0
-1257.7974782152105 -297.95557824952755 -775.6759234247863 -10.019632924819675 0.0 0.0
-1329.7537436098883 -345.07798396324426 -835.2027257326356 -7.42483150784468 0.0 0.0
-1396.3153865699805 -392.5524279994944 -891.9818719509135 -5.1691624774804685 0.0 0.0
-1488.0836975574016 -474.9958747912648 -978.051594957529 -18.45876515462745 0.0 0.0
-1840.091224848366 -846.2085103274168 -1340.722718788784 -67.81903212588749 0.0 0.0
-1840.0912248478148 -846.2085103268784 -1340.7227187883755 67.81903212591412 0.0 0.0
-1488.0836975569 -474.995874790795 -978.0515949571152 18.45876515462188 0.0 0.0
-1396.3153865698976 -392.55242799946825 -891.9818719507663 5.169162477440086 0.0 0.0
-1329.7537436093185 -345.07798396274734 -835.2027257321554 7.4248315078781095 0.0 0.0
-1257.7974782149272 -297.95557824933496 -775.6759234245387 10.019632924788969 0.0 0.0
-1183.5526295814836 -252.35372059587556 -715.7357565205199 11.270210059470266 0.0 0.0
-1111.3140455223188 -211.02204818719005 -658.8932248741643 11.827971720394967 0.0 0.0
-1041.8924256128687 -173.74838238669034 -605.42718026808 12.075569264353486 0.0 0.0
-974.1851853321101 -138.74732877790882 -553.8369497182783 12.244718508455659 0.0 0.0
-907.0884430552626 -104.93254259515226 -502.90492411457154 12.318619676287572 0.0 0.0
-840.1576880495088 -73.84882783270227 -452.80045807679767 11.98534944767039 0.0 0.0
-773.86418260559 -45.86783198764944 -402.76314303968513 11.193660235719406 0.0 0.0
-708.8011682690985 -22.93597352387074 -351.53608533112777 10.071507745373758 0.0 0.0
-644.4905031422787 -6.4580978050594595 -295.7359992791594 9.211504112468017 0.0 0.0
-579.7409314003226 0.7393945893503115 -234.13524955801847 9.095141319780241 0.0 0.0
-502.9635460461769 14.715908925852695 -162.5115033608971 13.770050902995079 0.0 0.0
-393.72203799987545 3.02263286193436 -117.22142867992014 21.134261218059734 0.0 0.0
-247.00208566337386 -0.9310885102088413 -74.3799522520748 22.96991768833433 0.0 0.0
-102.6098360293525 1.555902103200916 -30.316180177845474 19.92730666256578 0.0 0.0
-17.77884169212266 2.556322526239871 -4.566755749764836 1.9520991209545433 0.0 0.0
SCALARS Strain float 6
LOOKUP_TABLE default
0.009037135825203348 -0.010118977882920682 0.0 -0.005470678078128344 0.0 0.0
0.0019681319778556885 -0.0009820671152357408 0.0 0.0009603544133620912 0.0 0.0
0.0017071755813646526 -0.0007109734016422231 0.0 -7.408527008376242e-05 0.0 0.0
0.002042167417895986 -0.0009114786406279052 0.0 -0.00016882778128271547 0.0 0.0
0.0028133122029313246 -0.0014740574704383835 0.0 -0.00019918479885658313 0.0 0.0
0.004364648879535504 -0.002744269173353908 0.0 -0.0002703728386468096 0.0 0.0
0.006706045830357936 -0.00481590608145932 0.0 -0.00039765015388967817 0.0 0.0
0.009921823270706991 -0.007756224619454022 0.0 -0.0005777921301685918 0.0 0.0
0.014054892386491965 -0.011609944065345656 0.0 -0.0008137236807909398 0.0 0.0
0.019133436264454844 -0.016400284883244298 0.0 -0.0010867999748368773 0.0 0.0
0.025244033906374957 -0.02221470203349396 0.0 -0.0013656902628007006 0.0 0.0
0.03254618481819822 -0.029211835920943452 0.0 -0.0016655933805257428 0.0 0.0
0.04121103377600735 -0.0375663152914274 0.0 -0.0019969042605460507 0.0 0.0
0.05136601000276565 -0.04740167856723665 0.0 -0.0023612197891985653 0.0 0.0
0.06296709243824969 -0.058667752895445124 0.0 -0.002765335056499868 0.0 0.0
0.07563439998162383 -0.07098547184318349 0.0 -0.0031423938624947634 0.0 0.0
0.0885784335922462 -0.08357577135982197 0.0 -0.0033277334052201624 0.0 0.0
0.10064622746805654 -0.09530503487907094 0.0 -0.0030910567230949537 0.0 0.0
0.11046463845655587 -0.10482246499054337 0.0 -0.0024209407422280393 0.0 0.0
0.11641530537867721 -0.11044867452812968 0.0 -0.0020307410339888143 0.0 0.0
0.11641530537867209 -0.11044867452812657 0.0 0.0020307410339918675 0.0 0.0
0.11046463845653788 -0.10482246499052561 0.0 0.0024209407422411955 0.0 0.0
0.10064622746802587 -0.09530503487904429 0.0 0.0030910567231024477 0.0 0.0
0.08857843359220866 -0.08357577135978667 0.0 0.003327733405225186 0.0 0.0
0.0756343999815828 -0.07098547184314619 0.0 0.003142393862490045 0.0 0.0
0.06296709243820847 -0.05866775289540538 0.0 0.0027653350565000068 0.0 0.0
0.051366010002723256 -0.0474016785671969 0.0 0.0023612197891984543 0.0 0.0
0.041211033775964356 -0.03756631529138721 0.0 0.001996904260546273 0.0 0.0
0.0325461848181568 -0.029211835920903484 0.0 0.0016655933805228562 0.0 0.0
0.02524403390633731 -0.0222147020334571 0.0 0.0013656902628000345 0.0 0.0
0.019133436264423515 -0.016400284883213656 0.0 0.0010867999748331303 0.0 0.0
0.014054892386466428 -0.011609944065323674 0.0 0.0008137236807894688 0.0 0.0
0.009921823270687385 -0.007756224619437924 0.0 0.0005777921301673428 0.0 0.0
0.006706045830343371 -0.004815906081446442 0.0 0.00039765015388887326 0.0 0.0
0.004364648879526645 -0.0027442691733464697 0.0 0.00027037283864522754 0.0 0.0
0.002813312202927215 -0.001474057470436163 0.0 0.0001991847988566664 0.0 0.0
0.0020421674178948412 -0.000911478640627128 0.0 0.00016882778128202158 0.0 0.0
0.001707175581364212 -0.0007109734016421676 0.0 7.408527008379018e-05 0.0 0.0
0.001968131977854698 -0.0009820671152341864 0.0 -0.000960354413359954 0.0 0.0
0.009037135825194331 -0.010118977882908381 0.0 0.005470678078102115 0.0 0.0
0.006240608699073023 -0.007677977358838822 0.0 -0.006464301579370363 0.0 0.0
0.0011028584009877655 -0.0004961793182535756 0.0 0.00017718374152397853 0.0 0.0
0.0014710430605451748 -0.0005523367815188918 0.0 -0.00013478685298148885 0.0 0.0
0.0018216196513595913 -0.0007949828976179241 0.0 -0.00041916343510739473 0.0 0.0
0.0024367892187226146 -0.001200587902343786 0.0 -0.0004747381548842744 0.0 0.0
0.0037638281139560463 -0.0022419402927177368 0.0 -0.0006535479590357718 0.0 0.0
0.0058665522028660405 -0.004059811848352579 0.0 -0.000986374280415897 0.0 0.0
0.008778107082615637 -0.006690330854396187 0.0 -0.0014283962917707727 0.0 0.0
0.012516072066243913 -0.010153037854802704 0.0 -0.0019727390532703892 0.0 0.0
0.01708419734474868 -0.01444532505748164 0.0 -0.0025825440338164696 0.0 0.0
0.022541518845033137 -0.019624540316743877 0.0 -0.003207747191493998 0.0 0.0
0.02903080088685794 -0.025833967863017726 0.0 -0.0038362122952942113 0.0 0.0
0.03674995508203957 -0.03326858909626296 0.0 -0.0045492555703126325 0.0 0.0
0.04584436183517492 -0.042069571446079035 0.0 -0.005384599209886931 0.0 0.0
0.05628305280231444 -0.05220194873978801 0.0 -0.0062992856791174445 0.0 0.0
0.0677391054187248 -0.06333930580151148 0.0 -0.0071541353624706705 0.0 0.0
0.07951683162777304 -0.0747939276540861 0.0 -0.007593880906236 0.0 0.0
0.09057869649661758 -0.0855410829290193 0.0 -0.0071898419427935956 0.0 0.0
0.09958862226775886 -0.09424183868333635 0.0 -0.005863460233450246 0.0 0.0
0.10494639732270826 -0.09937547297088933 0.0 -0.003565335540188841 0.0 0.0
0.10494639732270265 -0.09937547297088134 0.0 0.0035653355402004427 0.0 0.0
0.09958862226774251 -0.09424183868331903 0.0 0.0058634602334743935 0.0 0.0
0.09057869649659112 -0.08554108292899798 0.0 0.00718984194280986 0.0 0.0
0.07951683162774043 -0.07479392765405701 0.0 0.0075938809062436885 0.0 0.0
0.06773910541868851 -0.06333930580147928 0.0 0.007154135362466063 0.0 0.0
0.0562830528022773 -0.05220194873975492 0.0 0.006299285679116862 0.0 0.0
0.04584436183513685 -0.042069571446043286 0.0 0.005384599209886154 0.0 0.0
0.03674995508200146 -0.03326858909622543 0.0 0.00454925557031155 0.0 0.0
0.029030800886820946 -0.0258339678629822 0.0 0.00383621229528891 0.0 0.0
0.02254151884499947 -0.01962454031671279 0.0 0.003207747191488197 0.0 0.0
0.017084197344720442 -0.014445325057454328 0.0 0.0025825440338080874 0.0 0.0
0.012516072066220685 -0.010153037854779168 0.0 0.001972739053266781 0.0 0.0
0.008778107082597963 -0.006690330854380311 0.0 0.0014283962917666648 0.0 0.0
0.005866552202852898 -0.00405981184834181 0.0 0.0009863742804136766 0.0 0.0
0.0037638281139485696 -0.0022419402927112975 0.0 0.0006535479590337179 0.0 0.0
0.0024367892187197593 -0.0012005879023407884 0.0 0.0004747381548837193 0.0 0.0
0.001821619651358658 -0.0007949828976161477 0.0 0.00041916343510739473 0.0 0.0
0.0014710430605449076 -0.0005523367815179481 0.0 0.00013478685298168314 0.0 0.0
0.001102858400988116 -0.0004961793182523822 0.0 -0.00017718374152442262 0.0 0.0
0.006240608699062455 -0.007677977358826218 0.0 0.006464301579349213 0.0 0.0
0.0045324574433513905 -0.006080987697118817 0.0 -0.005962848025578282 0.0 0.0
0.0006544633583277643 -0.0003126643605225188 0.0 -0.0004968072990181316 0.0 0.0
0.0011796225401686164 -0.0004064263903571508 0.0 -0.00039982881751965405 0.0 0.0
0.0016013719357245472 -0.0006778846582365938 0.0 -0.0006551472737554298 0.0 0.0
0.002105109549981714 -0.000979981810048991 0.0 -0.0007439642384417522 0.0 0.0
0.003178074668185548 -0.0017730602893314407 0.0 -0.0009540035675039416 0.0 0.0
0.0050246568310992265 -0.0033146263190038106 0.0 -0.0014278625217570007 0.0 0.0
0.007620285936034216 -0.005627007834071218 0.0 -0.0020929853719750813 0.0 0.0
0.010955216375526877 -0.008687143383971252 0.0 -0.0028859069084179456 0.0 0.0
0.015011621954561533 -0.012479146933277674 0.0 -0.003759954340269822 0.0 0.0
0.01982478514502691 -0.017033241668424015 0.0 -0.004659587198649201 0.0 0.0
0.025518588834867635 -0.022470290479403632 0.0 -0.0055646790665619394 0.0 0.0
0.03228610792292727 -0.028978694269153227 0.0 -0.006553146535767135 0.0 0.0
0.04029677348564786 -0.03672238662154603 0.0 -0.007735750082013992 0.0 0.0
0.049548833369915335 -0.04569788527984309 0.0 -0.00907221864516819 0.0 0.0
0.059774610796640974 -0.0556370445457024 0.0 -0.010305239682283418 0.0 0.0
0.0703885786199626 -0.06595887150730784 0.0 -0.010977985288159187 0.0 0.0
0.08046526216054527 -0.07573848256407079 0.0 -0.010542978320476348 0.0 0.0
0.08873478872409737 -0.0837301708536633 0.0 -0.008593154330995612 0.0 0.0
0.09377835798084204 -0.08858360784097563 0.0 -0.004744411369986823 0.0 0.0
0.09377835798083603 -0.08858360784096986 0.0 0.004744411370007584 0.0 0.0
0.08873478872408287 -0.08373017085365042 0.0 0.008593154331026198 0.0 0.0
0.08046526216052205 -0.07573848256404814 0.0 0.010542978320499719 0.0 0.0
0.07038857861993399 -0.06595887150727853 0.0 0.010977985288168901 0.0 0.0
0.05977461079660927 -0.05563704454567153 0.0 0.01030523968227981 0.0 0.0
0.04954883336988211 -0.04569788527981267 0.0 0.009072218645166774 0.0 0.0
0.04029677348561431 -0.0367223866215145 0.0 0.0077357500820119385 0.0 0.0
0.0322861079228938 -0.02897869426912103 0.0 0.006553146535764942 0.0 0.0
0.02551858883483496 -0.022470290479371213 0.0 0.0055646790665548895 0.0 0.0
0.019824785144997165 -0.01703324166839315 0.0 0.004659587198643567 0.0 0.0
0.015011621954536425 -0.01247914693325236 0.0 0.0037599543402606073 0.0 0.0
0.01095521637550606 -0.008687143383954155 0.0 0.0028859069084123945 0.0 0.0
0.007620285936018434 -0.005627007834056674 0.0 0.0020929853719703906 0.0 0.0
0.005024656831087854 -0.0033146263189939296 0.0 0.0014278625217543917 0.0 0.0
0.0031780746681796257 -0.0017730602893268887 0.0 0.0009540035675020819 0.0 0.0
0.0021051095499795003 -0.0009799818100475477 0.0 0.0007439642384405032 0.0 0.0
0.0016013719357237388 -0.0006778846582363163 0.0 0.000655147273754042 0.0 0.0
0.0011796225401685956 -0.00040642639035654016 0.0 0.0003998288175178222 0.0 0.0
0.000654463358328139 -0.0003126643605213253 0.0 0.0004968072990148842 0.0 0.0
0.004532457443341631 -0.006080987697107576 0.0 0.005962848025560491 0.0 0.0
0.0033651437060436204 -0.004885810322270923 0.0 -0.005057140927225007 0.0 0.0
0.00041053815012091766 -0.00023896872676787417 0.0 -0.001068157013902088 0.0 0.0
0.0009109156744017965 -0.00029103065039853826 0.0 -0.0007529202720781281 0.0 0.0
0.0013672876497107314 -0.0005608130785303977 0.0 -0.0009101623057142516 0.0 0.0
0.0018092022771097963 -0.0008108650380851401 0.0 -0.0010207464820746748 0.0 0.0
0.002641132019061472 -0.0013749990040192728 0.0 -0.0012014187693621947 0.0 0.0
0.004183879733781967 -0.002601265289376209 0.0 -0.0017282401995266095 0.0 0.0
0.006458036574313396 -0.004575384466139143 0.0 -0.0025653234086231713 0.0 0.0
0.009381993329134045 -0.007226613535662896 0.0 -0.003546228507599003 0.0 0.0
0.012926300045464731 -0.010516168163264172 0.0 -0.004620019372060885 0.0 0.0
0.01710290957702059 -0.014450765208518401 0.0 -0.005717283903283271 0.0 0.0
0.02201284530460003 -0.019125050590244497 0.0 -0.006823886760075809 0.0 0.0
0.027837037294781257 -0.02471570741868767 0.0 -0.008039574229261603 0.0 0.0
0.03475179195420739 -0.03138938968631133 0.0 -0.009447750987959858 0.0 0.0
0.04279013396801822 -0.039181040735644546 0.0 -0.011035807631853717 0.0 0.0
0.051761111454720246 -0.04789924651113875 0.0 -0.012563432430852839 0.0 0.0
0.061192732619045766 -0.057068440079841576 0.0 -0.013474129461974571 0.0 0.0
0.07028386062904506 -0.06589083534465923 0.0 -0.013073096444280952 0.0 0.0
0.07790623598971938 -0.07326298919842733 0.0 -0.010688573471401841 0.0 0.0
0.08277674334290937 -0.07796023903805827 0.0 -0.005722881512019551 0.0 0.0
0.0827767433429036 -0.07796023903805382 0.0 0.0057228815120452525 0.0 0.0
0.07790623598970649 -0.07326298919841534 0.0 0.010688573471438922 0.0 0.0
0.07028386062902438 -0.06589083534463969 0.0 0.013073096444308152 0.0 0.0
0.06119273261902068 -0.05706844007981893 0.0 0.013474129461987006 0.0 0.0
0.05176111145469284 -0.04789924651111144 0.0 0.012563432430848676 0.0 0.0
0.042790133967989044 -0.03918104073561679 0.0 0.01103580763185058 0.0 0.0
0.03475179195417841 -0.031389389686281355 0.0 0.009447750987958137 0.0 0.0
0.027837037294752454 -0.02471570741866147 0.0 0.008039574229258828 0.0 0.0
0.02201284530457201 -0.019125050590218517 0.0 0.006823886760067566 0.0 0.0
0.01710290957699498 -0.014450765208495753 0.0 0.005717283903275083 0.0 0.0
0.012926300045442818 -0.010516168163246853 0.0 0.004620019372050144 0.0 0.0
0.009381993329115823 -0.007226613535648241 0.0 0.003546228507592064 0.0 0.0
0.006458036574299608 -0.004575384466126153 0.0 0.0025653234086166488 0.0 0.0
0.004183879733772683 -0.002601265289367327 0.0 0.0017282401995228902 0.0 0.0
0.0026411320190569687 -0.0013749990040144988 0.0 0.001201418769358642 0.0 0.0
0.001809202277108346 -0.0008108650380831417 0.0 0.0010207464820728152 0.0 0.0
0.0013672876497099473 -0.0005608130785303422 0.0 0.0009101623057134467 0.0 0.0
0.000910915674401741 -0.00029103065039859377 0.0 0.0007529202720766015 0.0 0.0
0.0004105381501211258 -0.00023896872676668068 0.0 0.001068157013898674 0.0 0.0
0.003365143706035273 -0.0048858103222609375 0.0 0.005057140927210713 0.0 0.0
0.0025004491612421187 -0.003921558252632212 0.0 -0.004146347262650507 0.0 0.0
0.0002716809108906301 -0.0002109464300337205 0.0 -0.0015105343529742132 0.0 0.0
0.0006819832464889514 -0.00020510675773810494 0.0 -0.0011143759200882841 0.0 0.0
0.0011243808335026015 -0.0004453410138156588 0.0 -0.0011804998636057995 0.0 0.0
0.0015305825239066984 -0.0006676020241799252 0.0 -0.00129414492773966 0.0 0.0
0.002166627098373279 -0.001057060124320941 0.0 -0.001448180814539568 0.0 0.0
0.0033789521478101853 -0.0019508663649577818 0.0 -0.0019102683419440214 0.0 0.0
0.0052927748659904045 -0.003545832715843078 0.0 -0.002804585345526245 0.0 0.0
0.007806503054415846 -0.0057850366463736425 0.0 -0.003944635219341408 0.0 0.0
0.010837765945218153 -0.008568988347651185 0.0 -0.005152907013007246 0.0 0.0
0.014385213549190326 -0.011888970116696873 0.0 -0.006383415313597179 0.0 0.0
0.018522554304265686 -0.015811543327869826 0.0 -0.0076164646104829314 0.0 0.0
0.023412591516440123 -0.020490430208834898 0.0 -0.008953239736824076 0.0 0.0
0.029230662532833532 -0.026095689384460163 0.0 -0.010515246201413031 0.0 0.0
0.03604195247024867 -0.032690092589585884 0.0 -0.012255145924668615 0.0 0.0
0.04372603954201578 -0.04015163266898414 0.0 -0.013912451145069643 0.0 0.0
0.05193042736299601 -0.048128786319661554 0.0 -0.015007322751312557 0.0 0.0
0.060022332232921305 -0.05598560012873044 0.0 -0.014749623477397056 0.0 0.0
0.06705103375494098 -0.06278982503857256 0.0 -0.012200693111146688 0.0 0.0
0.07184196809082846 -0.06741573025038505 0.0 -0.006550807688049942 0.0 0.0
0.07184196809082354 -0.0674157302503775 0.0 0.006550807688078086 0.0 0.0
0.06705103375492945 -0.06278982503856056 0.0 0.01220069311118499 0.0 0.0
0.060022332232903194 -0.05598560012871445 0.0 0.014749623477425089 0.0 0.0
0.05193042736297436 -0.04812878631964268 0.0 0.015007322751325047 0.0 0.0
0.04372603954199236 -0.040151632668964155 0.0 0.013912451145066174 0.0 0.0
0.036041952470223654 -0.032690092589565234 0.0 0.012255145924664479 0.0 0.0
0.02923066253280908 -0.02609568938443929 0.0 0.010515246201410478 0.0 0.0
0.023412591516416087 -0.02049043020881225 0.0 0.008953239736820995 0.0 0.0
0.01852255430424199 -0.0158115433278474 0.0 0.007616464610474494 0.0 0.0
0.014385213549168718 -0.011888970116676001 0.0 0.006383415313586549 0.0 0.0
0.010837765945199668 -0.008568988347631423 0.0 0.005152907012994479 0.0 0.0
0.007806503054400338 -0.005785036646358321 0.0 0.003944635219333803 0.0 0.0
0.005292774865978955 -0.003545832715833308 0.0 0.002804585345520333 0.0 0.0
0.003378952147802816 -0.0019508663649523417 0.0 0.001910268341940885 0.0 0.0
0.0021666270983700386 -0.0010570601243202749 0.0 0.0014481808145369313 0.0 0.0
0.0015305825239057547 -0.0006676020241794811 0.0 0.0012941449277382167 0.0 0.0
0.0011243808335019423 -0.0004453410138146596 0.0 0.0011804998636043007 0.0 0.0
0.0006819832464887432 -0.00020510675773777187 0.0 0.0011143759200870074 0.0 0.0
0.0002716809108908036 -0.00021094643003249924 0.0 0.001510534352971965 0.0 0.0
0.002500449161235596 -0.003921558252624208 0.0 0.00414634726264082 0.0 0.0
0.0018397743578888945 -0.003124646644916379 0.0 -0.0033631746845138866 0.0 0.0
0.0001837511857840507 -0.00019988888822880524 0.0 -0.0018359383999831114 0.0 0.0
0.00048746623530835503 -0.00013963767020080953 0.0 -0.0014410318732555605 0.0 0.0
0.0008804914987891599 -0.00033233498831719555 0.0 -0.0014435445998117191 0.0 0.0
0.001254386885503507 -0.0005371240766424146 0.0 -0.001558463807717625 0.0 0.0
0.0017400958505546446 -0.0008117933997207061 0.0 -0.001707032632775246 0.0 0.0
0.00264679079556001 -0.001411454422477032 0.0 -0.002080361823149912 0.0 0.0
0.004153093084306642 -0.0025873175588200237 0.0 -0.0028761868106019217 0.0 0.0
0.006232324866075244 -0.0043738893651026345 0.0 -0.004041470868208441 0.0 0.0
0.008756648180092315 -0.006653890309959998 0.0 -0.005343713595516081 0.0 0.0
0.011679250112462729 -0.009362679301024635 0.0 -0.0066374895228552 0.0 0.0
0.01505718962513259 -0.012542835351066817 0.0 -0.007928409199346592 0.0 0.0
0.019026789756313126 -0.016322920337210167 0.0 -0.00931609477255757 0.0 0.0
0.023751541802244834 -0.02086085717729369 0.0 -0.010898786704182817 0.0 0.0
0.029327807141256546 -0.02624957084946744 0.0 -0.012672296319101661 0.0 0.0
0.03570039650987329 -0.032432034179709524 0.0 -0.014400073044660455 0.0 0.0
0.042624798123964025 -0.0391644022778439 0.0 -0.01558036828746151 0.0 0.0
0.049663098041245426 -0.0460071725449831 0.0 -0.01549016762738259 0.0 0.0
0.056101087044989895 -0.052248956705957195 0.0 -0.013089631165011995 0.0 0.0
0.06087846088889662 -0.056863952292367514 0.0 -0.007239076481924289 0.0 0.0
0.06087846088889229 -0.0568639522923613 0.0 0.007239076481952489 0.0 0.0
0.05610108704497982 -0.052248956705944316 0.0 0.013089631165049298 0.0 0.0
0.04966309804122994 -0.046007172544968444 0.0 0.015490167627409901 0.0 0.0
0.04262479812394565 -0.0391644022778288 0.0 0.01558036828747339 0.0 0.0
0.03570039650985399 -0.03243203417968754 0.0 0.014400073044656514 0.0 0.0
0.029327807141235687 -0.026249570849447457 0.0 0.012672296319097276 0.0 0.0
0.023751541802224843 -0.020860857177275705 0.0 0.010898786704179875 0.0 0.0
0.01902678975629389 -0.016322920337192404 0.0 0.009316094772554573 0.0 0.0
0.015057189625113349 -0.012542835351047055 0.0 0.007928409199339348 0.0 0.0
0.011679250112445 -0.009362679301007315 0.0 0.00663748952284593 0.0 0.0
0.008756648180077112 -0.006653890309946675 0.0 0.005343713595503841 0.0 0.0
0.006232324866062566 -0.004373889365091532 0.0 0.0040414708682005585 0.0 0.0
0.00415309308429776 -0.0025873175588129183 0.0 0.00287618681059576 0.0 0.0
0.0026467907955544517 -0.0014114544224734793 0.0 0.002080361823146498 0.0 0.0
0.001740095850552556 -0.0008117933997184856 0.0 0.0017070326327731644 0.0 0.0
0.001254386885502612 -0.0005371240766418595 0.0 0.001558463807716487 0.0 0.0
0.0008804914987888268 -0.0003323349883159188 0.0 0.0014435445998098317 0.0 0.0
0.0004874662353080983 -0.0001396376702001989 0.0 0.001441031873252896 0.0 0.0
0.00018375118578400906 -0.00019988888822819462 0.0 0.0018359383999804746 0.0 0.0
0.0018397743578839748 -0.003124646644909972 0.0 0.0033631746845059207 0.0 0.0
0.0013311858688360365 -0.0024612326522870653 0.0 -0.0027312655279639886 0.0 0.0
0.00011820247244482412 -0.0001968429150807638 0.0 -0.0020625719314500968 0.0 0.0
0.0003165664663922346 -8.454935747370662e-05 0.0 -0.001713902216808949 0.0 0.0
0.0006418454500798365 -0.00022305836211156116 0.0 -0.001683795703605967 0.0 0.0
0.000970179273019102 -0.0004081755841865986 0.0 -0.001802508491730359 0.0 0.0
0.0013473380948099967 -0.0006059450471256334 0.0 -0.0019394077849128333 0.0 0.0
0.001986071620628048 -0.0009766313467286514 0.0 -0.002226535250523326 0.0 0.0
0.0030872402485676853 -0.0017533427246643196 0.0 -0.0028587624992173766 0.0 0.0
0.004684505825836592 -0.0030426100205045437 0.0 -0.003873617968037507 0.0 0.0
0.006688405137819743 -0.004789778951980184 0.0 -0.005146773227573176 0.0 0.0
0.00899262125730435 -0.0068898051421917295 0.0 -0.006463241215512339 0.0 0.0
0.011624525046563694 -0.009337014910429264 0.0 -0.007746482163352553 0.0 0.0
0.014690497244955997 -0.012232739051434072 0.0 -0.009097260991561162 0.0 0.0
0.01833714715842484 -0.015716288708877535 0.0 -0.010616960394536523 0.0 0.0
0.022670784773870703 -0.019893303776697957 0.0 -0.01230087041976663 0.0 0.0
0.027707482384115134 -0.024768260169932832 0.0 -0.013955506051685995 0.0 0.0
0.03330264872433915 -0.03020723993612462 0.0 -0.015173666411286757 0.0 0.0
0.039202967700687985 -0.03595790575821356 0.0 -0.015300546276818205 0.0 0.0
0.044983849706648746 -0.04157870026617694 0.0 -0.013313341011684965 0.0 0.0
0.049780422180791054 -0.046211027897581136 0.0 -0.00777667520388331 0.0 0.0
0.049780422180787445 -0.04621102789757758 0.0 0.0077766752039089004 0.0 0.0
0.04498384970664035 -0.04157870026616628 0.0 0.013313341011720436 0.0 0.0
0.039202967700675384 -0.03595790575819935 0.0 0.01530054627684374 0.0 0.0
0.03330264872432406 -0.03020723993610952 0.0 0.015173666411298359 0.0 0.0
0.027707482384099924 -0.02476826016991751 0.0 0.013955506051681998 0.0 0.0
0.022670784773854105 -0.019893303776680415 0.0 0.012300870419759469 0.0 0.0
0.018337147158409464 -0.01571628870886288 0.0 0.010616960394533026 0.0 0.0
0.014690497244941605 -0.01223273905142186 0.0 0.009097260991557943 0.0 0.0
0.01162452504654908 -0.009337014910416608 0.0 0.007746482163344337 0.0 0.0
0.008992621257290542 -0.006889805142179961 0.0 0.006463241215501514 0.0 0.0
0.006688405137807801 -0.004789778951970414 0.0 0.005146773227560519 0.0 0.0
0.004684505825827079 -0.0030426100204983264 0.0 0.003873617968030152 0.0 0.0
0.003087240248561343 -0.0017533427246606559 0.0 0.0028587624992129634 0.0 0.0
0.0019860716206242662 -0.0009766313467249876 0.0 0.0022265352505209945 0.0 0.0
0.0013473380948086366 -0.0006059450471247452 0.0 0.0019394077849103075 0.0 0.0
0.0009701792730184983 -0.00040817558418637656 0.0 0.0018025084917284995 0.0 0.0
0.0006418454500795034 -0.00022305836211139463 0.0 0.001683795703604385 0.0 0.0
0.00031656646639208197 -8.454935747370662e-05 0.0 0.001713902216806229 0.0 0.0
0.00011820247244460902 -0.00019684291508004215 0.0 0.0020625719314475432 0.0 0.0
0.0013311858688324213 -0.0024612326522823434 0.0 0.0027312655279584097 0.0 0.0
0.0009486047659183205 -0.0019281110541632396 0.0 -0.0022606969862056236 0.0 0.0
5.589337596990929e-05 -0.00019418879651467158 0.0 -0.0021975560949842043 0.0 0.0
0.00016113879865251035 -3.2468551807551815e-05 0.0 -0.0019319445184869388 0.0 0.0
0.00041098139154156776 -0.00011945287080561418 0.0 -0.001888113613344622 0.0 0.0
0.0006771085395202159 -0.0002724917856785636 0.0 -0.0020035253111735374 0.0 0.0
0.0009659422576087928 -0.0004279611741356826 0.0 -0.0021703347770827552 0.0 0.0
0.0013901502703270036 -0.0006429328395594069 0.0 -0.0023933710762860383 0.0 0.0
0.00211457472187436 -0.001072349252269733 0.0 -0.002803583701889767 0.0 0.0
0.003212572630458252 -0.001863674061728604 0.0 -0.0035456791966385626 0.0 0.0
0.0046545778029434826 -0.003034714245575998 0.0 -0.0046008486082118605 0.0 0.0
0.006334909659654664 -0.004504373011321672 0.0 -0.00580544006903283 0.0 0.0
0.008229722855705363 -0.0062250929533911314 0.0 -0.007019292619382278 0.0 0.0
0.010413475907190897 -0.008251540473710683 0.0 -0.008279063807620946 0.0 0.0
0.013000069537273062 -0.010695674285055912 0.0 -0.009642580388427135 0.0 0.0
0.01609908329845358 -0.013662136634866817 0.0 -0.011128369958405437 0.0 0.0
0.01977276406588316 -0.01720834099514912 0.0 -0.012611591852219328 0.0 0.0
0.02399256568557638 -0.021299157712505234 0.0 -0.01373696742295244 0.0 0.0
0.02865116445650398 -0.02585095229717016 0.0 -0.014037751969473822 0.0 0.0
0.03362794055238344 -0.030728146500550224 0.0 -0.012752203070837076 0.0 0.0
0.038423056460712465 -0.03536196348597276 0.0 -0.008138260127399433 0.0 0.0
0.03842305646071001 -0.03536196348596832 0.0 0.008138260127420804 0.0 0.0
0.03362794055237718 -0.03072814650054223 0.0 0.012752203070869494 0.0 0.0
0.028651164456494474 -0.025850952297163055 0.0 0.014037751969497636 0.0 0.0
0.023992565685565 -0.021299157712494354 0.0 0.01373696742296121 0.0 0.0
0.019772764065871862 -0.01720834099513624 0.0 0.012611591852215887 0.0 0.0
0.016099083298441633 -0.01366213663485727 0.0 0.011128369958398332 0.0 0.0
0.013000069537262363 -0.010695674285044365 0.0 0.009642580388424915 0.0 0.0
0.010413475907181377 -0.00825154047369936 0.0 0.008279063807617892 0.0 0.0
0.008229722855695273 -0.006225092953380695 0.0 0.007019292619375783 0.0 0.0
0.006334909659644866 -0.0045043730113152325 0.0 0.0058054400690228936 0.0 0.0
0.00465457780293535 -0.0030347142455700027 0.0 0.00460084860820098 0.0 0.0
0.0032125726304519375 -0.0018636740617219427 0.0 0.0035456791966343437 0.0 0.0
0.002114574721870391 -0.0010723492522655143 0.0 0.0028035837018875742 0.0 0.0
0.0013901502703246166 -0.0006429328395587408 0.0 0.0023933710762842897 0.0 0.0
0.0009659422576079463 -0.00042796117413546053 0.0 0.002170334777080507 0.0 0.0
0.0006771085395198828 -0.00027249178567845256 0.0 0.002003525311171178 0.0 0.0
0.00041098139154119306 -0.00011945287080605826 0.0 0.0018881136133423182 0.0 0.0
0.00016113879865245484 -3.246855180716324e-05 0.0 0.0019319445184842743 0.0 0.0
5.589337596950683e-05 -0.00019418879651406096 0.0 0.0021975560949819284 0.0 0.0
0.0009486047659159336 -0.001928111054159909 0.0 0.00226069698620171 0.0 0.0
0.0006764931552748626 -0.0015331151149731992 0.0 -0.0019625530459569385 0.0 0.0
-9.579713619561891e-06 -0.00018976135569742647 0.0 -0.002282723738687875 0.0 0.0
1.643041209260787e-05 2.0137187659696743e-05 0.0 -0.0020932354412523946 0.0 0.0
0.00018831985504130788 -2.1369129786674712e-05 0.0 -0.0020479432833256372 0.0 0.0
0.0003797962914075109 -0.00013291367314571811 0.0 -0.002152499382379852 0.0 0.0
0.0005757057963532847 -0.0002475300775351963 0.0 -0.0023451861518730133 0.0 0.0
0.0008322510953383822 -0.00037755041235087994 0.0 -0.0025889598210691034 0.0 0.0
0.0012350084872940204 -0.0005737016008886542 0.0 -0.0028485901481003773 0.0 0.0
0.001858652128013491 -0.000923368641789768 0.0 -0.003214580869637329 0.0 0.0
0.0027054712980032897 -0.0015027500479187772 0.0 -0.0038429805322017785 0.0 0.0
0.003733238102705011 -0.0023057349142874273 0.0 -0.004723651013782526 0.0 0.0
0.004880745509645609 -0.003282968985296675 0.0 -0.00572807522726998 0.0 0.0
0.006196695205721081 -0.004447324678922726 0.0 -0.006837722111434297 0.0 0.0
0.00774959946651789 -0.0058694114061921265 0.0 -0.008007131070342899 0.0 0.0
0.0096243684622144 -0.007631873769411213 0.0 -0.0092391865653903 0.0 0.0
0.01191664005138346 -0.009824706013499496 0.0 -0.01048092500435771 0.0 0.0
0.014713700912024105 -0.012523586111626628 0.0 -0.011510232494784112 0.0 0.0
0.018060447872095486 -0.015771239408623572 0.0 -0.011863099001122812 0.0 0.0
0.021999488857433122 -0.019685578197334852 0.0 -0.01122341427262924 0.0 0.0
0.02663296632866491 -0.02419830760894337 0.0 -0.008186911590048807 0.0 0.0
0.02663296632866402 -0.024198307608941594 0.0 0.008186911590066182 0.0 0.0
0.021999488857429222 -0.019685578197330855 0.0 0.011223414272658716 0.0 0.0
0.01806044787208877 -0.015771239408616466 0.0 0.011863099001142519 0.0 0.0
0.014713700912016778 -0.01252358611161708 0.0 0.011510232494788719 0.0 0.0
0.011916640051376395 -0.009824706013491502 0.0 0.010480925004352104 0.0 0.0
0.00962436846220767 -0.0076318737694056615 0.0 0.009239186565382584 0.0 0.0
0.007749599466512033 -0.00586941140618813 0.0 0.008007131070341345 0.0 0.0
0.006196695205716307 -0.004447324678920728 0.0 0.006837722111433353 0.0 0.0
0.004880745509640197 -0.003282968985293566 0.0 0.005728075227264207 0.0 0.0
0.00373323810269946 -0.0023057349142843186 0.0 0.004723651013775365 0.0 0.0
0.0027054712979990014 -0.0015027500479147804 0.0 0.0038429805321946175 0.0 0.0
0.0018586521280102714 -0.0009233686417868814 0.0 0.0032145808696345535 0.0 0.0
0.0012350084872919942 -0.0005737016008861007 0.0 0.002848590148098601 0.0 0.0
0.000832251095337258 -0.00037755041234954767 0.0 0.0025889598210668274 0.0 0.0
0.0005757057963528128 -0.000247530077533864 0.0 0.0023451861518707096 0.0 0.0
0.00037979629140731663 -0.00013291367314494096 0.0 0.0021524993823771876 0.0 0.0
0.00018831985504126625 -2.13691297866192e-05 0.0 0.0020479432833228617 0.0 0.0
1.6430412092593993e-05 2.013718765953021e-05 0.0 0.002093235441249841 0.0 0.0
-9.579713619797814e-06 -0.00018976135569770403 0.0 0.0022827237386859323 0.0 0.0
0.0006764931552733638 -0.0015331151149711973 0.0 0.0019625530459546903 0.0 0.0
0.00048748712154562945 -0.0012383234543948407 0.0 -0.0017594644107432056 0.0 0.0
-7.20042783484004e-05 -0.00017967616937869524 0.0 -0.002326265893710211 0.0 0.0
-0.00011987395894397235 7.167269332863935e-05 0.0 -0.0022018880911608973 0.0 0.0
-2.6459629693692532e-05 7.246395283655449e-05 0.0 -0.0021563869535085045 0.0 0.0
8.252649904978704e-05 6.2168372697568586e-06 0.0 -0.0022449189403058456 0.0 0.0
0.00017697514785272594 -6.135662572115397e-05 0.0 -0.002443192148893325 0.0 0.0
0.0002753074002197625 -0.00012135719692740743 0.0 -0.0027194107723881866 0.0 0.0
0.00040870211452433136 -0.00018673107143274414 0.0 -0.002977754475985389 0.0 0.0
0.0006084036921141789 -0.000282257767659555 0.0 -0.003201903043393739 0.0 0.0
0.0008798918645894493 -0.0004204556974045648 0.0 -0.0034589489511859806 0.0 0.0
0.0012262236129957776 -0.0006090627238419799 0.0 -0.0038791894582008712 0.0 0.0
0.001607911813412355 -0.0008532282321591644 0.0 -0.004485233055893489 0.0 0.0
0.002045256797504183 -0.0011561314317887206 0.0 -0.005288343684903496 0.0 0.0
0.0025627944246795764 -0.0015409724760000465 0.0 -0.006280319314663718 0.0 0.0
0.0032104421182583 -0.002073852185590086 0.0 -0.007461586081147109 0.0 0.0
0.0041082913009611866 -0.0028743620069702214 0.0 -0.00874428963921281 0.0 0.0
0.005454152238715329 -0.004123214304212919 0.0 -0.009868825698222727 0.0 0.0
0.007480449117473462 -0.0060246390317533205 0.0 -0.010334722752899872 0.0 0.0
0.010283463208988639 -0.008720583759851408 0.0 -0.009684672771493652 0.0 0.0
0.01424206385159435 -0.012754674852341275 0.0 -0.008069088197781682 0.0 0.0
0.01424206385159496 -0.012754674852343051 0.0 0.008069088197794672 0.0 0.0
0.01028346320898689 -0.008720583759851852 0.0 0.009684672771516967 0.0 0.0
0.007480449117469881 -0.006024639031747103 0.0 0.01033472275291264 0.0 0.0
0.005454152238712637 -0.004123214304209366 0.0 0.009868825698224726 0.0 0.0
0.004108291300959285 -0.0028743620069664466 0.0 0.008744289639207092 0.0 0.0
0.0032104421182568427 -0.0020738521855878655 0.0 0.007461586081142502 0.0 0.0
0.002562794424678577 -0.0015409724759996024 0.0 0.006280319314662053 0.0 0.0
0.002045256797503961 -0.0011561314317882765 0.0 0.005288343684903163 0.0 0.0
0.0016079118134117165 -0.0008532282321573881 0.0 0.004485233055888771 0.0 0.0
0.0012262236129948756 -0.0006090627238388713 0.0 0.003879189458196486 0.0 0.0
0.0008798918645886306 -0.00042045569740190025 0.0 0.003458948951180707 0.0 0.0
0.0006084036921137626 -0.0002822577676615534 0.0 0.0032019030433929063 0.0 0.0
0.0004087021145239428 -0.0001867310714335213 0.0 0.0029777544759831687 0.0 0.0
0.00027530740021969313 -0.00012135719692840663 0.0 0.002719410772385439 0.0 0.0
0.00017697514785276758 -6.13566257218201e-05 0.0 0.0024431921488906605 0.0 0.0
8.252649904980092e-05 6.216837270645037e-06 0.0 0.0022449189403034864 0.0 0.0
-2.6459629693442732e-05 7.246395283783125e-05 0.0 0.0021563869535064506 0.0 0.0
-0.00011987395894401398 7.167269332919446e-05 0.0 0.002201888091158899 0.0 0.0
-7.200427834844203e-05 -0.00017967616937805686 0.0 0.002326265893708185 0.0 0.0
0.0004874871215448662 -0.0012383234543932344 0.0 0.0017594644107416235 0.0 0.0
0.00035549397827662477 -0.0010104558499405003 0.0 -0.001604698223887785 0.0 0.0
-0.00012882160268518072 -0.00015826966632304096 0.0 -0.002318615414944436 0.0 0.0
-0.0002477130938871308 0.00011993965552770103 0.0 -0.0022591174204080744 0.0 0.0
-0.0002335997323156258 0.00016227565278603695 0.0 -0.0022102249287627995 0.0 0.0
-0.00021111829137246407 0.00014251707210766185 0.0 -0.002275457741015452 0.0 0.0
-0.00022313013672756177 0.00012566369094813012 0.0 -0.0024541136367832728 0.0 0.0
-0.0002867128042604583 0.00013812388196454695 0.0 -0.002721457441716174 0.0 0.0
-0.0004091101684483567 0.00018857753306611436 0.0 -0.002979372893091803 0.0 0.0
-0.0006067234704437291 0.0002812864180408159 0.0 -0.0032018382814731905 0.0 0.0
-0.0008783546230855255 0.00041872496546990767 0.0 -0.003457066740769732 0.0 0.0
-0.0012248201937865716 0.0006089940309648156 0.0 -0.003875774818524469 0.0 0.0
-0.0016154054490198494 0.0008609659740350661 0.0 -0.0044829142769698405 0.0 0.0
-0.002069897446433683 0.0011759890129323658 0.0 -0.005285081534296077 0.0 0.0
-0.0026042015466754137 0.0015668999179454524 0.0 -0.006280824502843174 0.0 0.0
-0.003192159327790739 0.002021003885762207 0.0 -0.007480952151617537 0.0 0.0
-0.0037045544453302853 0.0024242170461605816 0.0 -0.008856901183112664 0.0 0.0
-0.0038628245161245606 0.0025365953991900447 0.0 -0.010395778685747481 0.0 0.0
-0.003282081351821023 0.002064653599282096 0.0 -0.012056174227393301 0.0 0.0
-0.001641353758578129 0.0009200166728740022 0.0 -0.013366196938421282 0.0 0.0
0.0020360841424857667 -0.0024252588095081684 0.0 -0.011409583633052223 0.0 0.0
0.0020360841424861 -0.0024252588095077243 0.0 0.011409583633065101 0.0 0.0
-0.0016413537585788646 0.0009200166728762227 0.0 0.01336619693843516 0.0 0.0
-0.0032820813518201902 0.002064653599283872 0.0 0.012056174227398131 0.0 0.0
-0.003862824516121924 0.0025365953991851597 0.0 0.010395778685744206 0.0 0.0
-0.0037045544453262608 0.002424217046153254 0.0 0.00885690118310517 0.0 0.0
-0.0031921593277874777 0.0020210038857593204 0.0 0.007480952151612763 0.0 0.0
-0.0026042015466715973 0.001566899917943232 0.0 0.006280824502839233 0.0 0.0
-0.0020698974464293113 0.0011759890129299233 0.0 0.005285081534295077 0.0 0.0
-0.0016154054490152558 0.0008609659740328457 0.0 0.004482914276963623 0.0 0.0
-0.0012248201937827413 0.0006089940309625952 0.0 0.0038757748185195284 0.0 0.0
-0.0008783546230823058 0.00041872496547123994 0.0 0.0034570667407641253 0.0 0.0
-0.0006067234704418417 0.00028128641803970567 0.0 0.003201838281472691 0.0 0.0
-0.0004091101684470938 0.00018857753306522618 0.0 0.002979372893090193 0.0 0.0
-0.0002867128042595285 0.00013812388196465797 0.0 0.002721457441713565 0.0 0.0
-0.0002231301367269234 0.000125663690947464 0.0 0.0024541136367802197 0.0 0.0
-0.000211118291372131 0.0001425170721069957 0.0 0.0022754577410125376 0.0 0.0
-0.0002335997323152511 0.00016227565278609246 0.0 0.002210224928760579 0.0 0.0
-0.0002477130938870753 0.00011993965552842267 0.0 0.0022591174204055486 0.0 0.0
-0.00012882160268511134 -0.00015826966632306871 0.0 0.0023186154149421323 0.0 0.0
0.00035549397827626394 -0.0010104558499396381 0.0 0.0016046982238853424 0.0 0.0
0.0002580122306919119 -0.0008090453697937594 0.0 -0.001442641279401996 0.0 0.0
-0.0001810016128008518 -0.00012857009682870624 0.0 -0.0022611469415587115 0.0 0.0
-0.000367216271184273 0.0001658426578857175 0.0 -0.002261905698753258 0.0 0.0
-0.000432807236917257 0.00024714295371486283 0.0 -0.0022081548690418007 0.0 0.0
-0.0004981261345306243 0.00027415783288864404 0.0 -0.002242962380996999 0.0 0.0
-0.0006187355928524568 0.00030924023471512463 0.0 -0.002388996886844741 0.0 0.0
-0.0008431109326726416 0.0003938277249710964 0.0 -0.0026034932109664233 0.0 0.0
-0.0012352211303876398 0.0005754300995455264 0.0 -0.002851870882140506 0.0 0.0
-0.001856489561389188 0.0009217115953819022 0.0 -0.003213683131162215 0.0 0.0
-0.002703499714124924 0.0015013555861929095 0.0 -0.0038409282671731937 0.0 0.0
-0.0037328282240657595 0.002307015357372988 0.0 -0.004722254050471775 0.0 0.0
-0.004887324755177669 0.003291789269928236 0.0 -0.005723188394553269 0.0 0.0
-0.006219306894515025 0.004472027070124618 0.0 -0.0068193952405440905 0.0 0.0
-0.007790860038394715 0.005902681843142021 0.0 -0.007985310827713255 0.0 0.0
-0.009611901775595316 0.007582491448959727 0.0 -0.009298647050041908 0.0 0.0
-0.01155102514849457 0.00938031978795073 0.0 -0.010862407323617262 0.0 0.0
-0.013273100244260538 0.010965908902963228 0.0 -0.012727209050950594 0.0 0.0
-0.01424756238648188 0.01182902073430725 0.0 -0.014781456817586358 0.0 0.0
-0.013602602504779737 0.010914799918330331 0.0 -0.015664894380098104 0.0 0.0
-0.009532328102300675 0.006747774349918245 0.0 -0.013316865952917145 0.0 0.0
-0.00953232810230109 0.006747774349918245 0.0 0.013316865952933354 0.0 0.0
-0.013602602504779113 0.010914799918328555 0.0 0.01566489438012003 0.0 0.0
-0.01424756238647687 0.011829020734301032 0.0 0.014781456817602234 0.0 0.0
-0.013273100244252531 0.010965908902956123 0.0 0.01272720905094954 0.0 0.0
-0.01155102514848469 0.009380319787943625 0.0 0.010862407323611267 0.0 0.0
-0.009611901775587198 0.007582491448952844 0.0 0.009298647050037967 0.0 0.0
-0.00779086003838661 0.00590268184313425 0.0 0.007985310827707925 0.0 0.0
-0.006219306894505727 0.004472027070117068 0.0 0.006819395240540704 0.0 0.0
-0.004887324755168232 0.00329178926992002 0.0 0.0057231883945449424 0.0 0.0
-0.0037328282240571 0.0023070153573667707 0.0 0.0047222540504629484 0.0 0.0
-0.0027034997141174716 0.0015013555861875805 0.0 0.003840928267164867 0.0 0.0
-0.0018564895613845944 0.0009217115953767951 0.0 0.003213683131159606 0.0 0.0
-0.00123522113038467 0.0005754300995431949 0.0 0.0028518708821396455 0.0 0.0
-0.0008431109326707265 0.00039382772496920904 0.0 0.002603493210963842 0.0 0.0
-0.0006187355928514299 0.0003092402347135703 0.0 0.0023889968868420486 0.0 0.0
-0.0004981261345297916 0.0002741578328875338 0.0 0.0022429623809948063 0.0 0.0
-0.00043280723691682677 0.0002471429537141967 0.0 0.002208154869040052 0.0 0.0
-0.00036721627118412037 0.000165842657885662 0.0 0.0022619056987509545 0.0 0.0
-0.00018100161280071303 -0.00012857009682876175 0.0 0.002261146941557296 0.0 0.0
0.0002580122306916621 -0.000809045369792984 0.0 0.001442641279400636 0.0 0.0
0.0001762140012690483 -0.0006261344325681484 0.0 -0.001275888548422588 0.0 0.0
-0.0002302520141739678 -9.096556332793826e-05 0.0 -0.0021513087797401242 0.0 0.0
-0.0004792820458128233 0.00020969134527148992 0.0 -0.002209540656406994 0.0 0.0
-0.0006235363935036681 0.0003270426334323062 0.0 -0.0021491382108776713 0.0 0.0
-0.000776483928804278 0.00039839790873441583 0.0 -0.002147869742706643 0.0 0.0
-0.0010029818246958255 0.0004840324895721837 0.0 -0.00223614635104602 0.0 0.0
-0.0013995822357554116 0.000659036265591495 0.0 -0.002414264916245412 0.0 0.0
-0.002113725739287739 0.00107307733837958 0.0 -0.002808363564062971 0.0 0.0
-0.003209762277200892 0.0018609804853859657 0.0 -0.0035417452421828144 0.0 0.0
-0.004653259423269579 0.003033541245955229 0.0 -0.004598115404442549 0.0 0.0
-0.006335587353543448 0.004506036794562185 0.0 -0.005804430403626326 0.0 0.0
-0.008233889837146985 0.006231604861557161 0.0 -0.007010762390220859 0.0 0.0
-0.010428887435144168 0.008270092150571173 0.0 -0.0082388675695943 0.0 0.0
-0.01303343154306541 0.010724682118185669 0.0 -0.009564070388937862 0.0 0.0
-0.016099603196571943 0.013634068031866509 0.0 -0.01114048788478933 0.0 0.0
-0.019497961603018713 0.016864534070325732 0.0 -0.013182777215902164 0.0 0.0
-0.022817215257889156 0.020008636670956204 0.0 -0.015866652637746947 0.0 0.0
-0.025251658732232382 0.022210691363493407 0.0 -0.018751919451011845 0.0 0.0
-0.025290149642884036 0.021953999134929347 0.0 -0.020258070924280447 0.0 0.0
-0.020497601693340944 0.016652350801666493 0.0 -0.0170954236626521 0.0 0.0
-0.02049760169334046 0.01665235080166294 0.0 0.017095423662673637 0.0 0.0
-0.02529014964288133 0.021953999134924462 0.0 0.02025807092430909 0.0 0.0
-0.025251658732224402 0.02221069136348497 0.0 0.01875191945103183 0.0 0.0
-0.022817215257876416 0.0200086366709451 0.0 0.01586665263774828 0.0 0.0
-0.019497961603004002 0.016864534070312187 0.0 0.013182777215896002 0.0 0.0
-0.01609960319655901 0.01363406803185141 0.0 0.011140487884782002 0.0 0.0
-0.013033431543052879 0.010724682118172346 0.0 0.009564070388930701 0.0 0.0
-0.01042888743513018 0.008270092150558295 0.0 0.008238867569589081 0.0 0.0
-0.008233889837133052 0.0062316048615465025 0.0 0.007010762390210645 0.0 0.0
-0.006335587353530195 0.0045060367945501945 0.0 0.005804430403615168 0.0 0.0
-0.004653259423258088 0.003033541245943905 0.0 0.004598115404430336 0.0 0.0
-0.0032097622771931344 0.0018609804853801926 0.0 0.0035417452421762086 0.0 0.0
-0.002113725739282493 0.0010730773383769154 0.0 0.0028083635640603066 0.0 0.0
-0.001399582235752428 0.0006590362655899407 0.0 0.002414264916243386 0.0 0.0
-0.0010029818246943267 0.00048403248957251677 0.0 0.002236146351043855 0.0 0.0
-0.00077648392880314 0.00039839790873552605 0.0 0.0021478697427046167 0.0 0.0
-0.000623536393503113 0.0003270426334326393 0.0 0.0021491382108760892 0.0 0.0
-0.00047928204581247635 0.0002096913452709348 0.0 0.0022095406564049958 0.0 0.0
-0.00023025201417378738 -9.096556332807704e-05 0.0 0.0021513087797377928 0.0 0.0
0.00017621400126893727 -0.0006261344325675482 0.0 0.001275888548420978 0.0 0.0
0.00010353531764904778 -0.0004610615758591785 0.0 -0.001106659695446266 0.0 0.0
-0.0002789554791610277 -4.663521803460746e-05 0.0 -0.001992917626414431 0.0 0.0
-0.0005849530727931457 0.000252409157791178 0.0 -0.002102108555287585 0.0 0.0
-0.0008057746151667461 0.00040096423511437607 0.0 -0.0020351693370404267 0.0 0.0
-0.0010422457258516538 0.000512712898607659 0.0 -0.0019850457426972834 0.0 0.0
-0.0013771644280566459 0.0006552985662244826 0.0 -0.002024159338946535 0.0 0.0
-0.001992628073564137 0.000991164933515254 0.0 -0.0022556006501893155 0.0 0.0
-0.0030847335253289254 0.0017520683120451075 0.0 -0.0028593561844109383 0.0 0.0
-0.004681888666695402 0.003039629098291252 0.0 -0.0038677636517953085 0.0 0.0
-0.006688396134008165 0.0047896786527317214 0.0 -0.0051444720512713316 0.0 0.0
-0.008994106286144762 0.006891944900645708 0.0 -0.006463278978601605 0.0 0.0
-0.011625488845980275 0.009339560059819618 0.0 -0.0077368022951195825 0.0 0.0
-0.01469231400820635 0.012237529753358567 0.0 -0.009041200709302144 0.0 0.0
-0.018348044278059916 0.015727309149845325 0.0 -0.010479385608250458 0.0 0.0
-0.02267992714445305 0.019887344926869277 0.0 -0.012225405822373858 0.0 0.0
-0.027579408256232535 0.024591610001030606 0.0 -0.014597565965476067 0.0 0.0
-0.03251852632290275 0.029294337818698946 0.0 -0.017825949564991672 0.0 0.0
-0.036295771765274265 0.03277054085770281 0.0 -0.021430565884079045 0.0 0.0
-0.03680772481676724 0.03288147287546517 0.0 -0.023547689118816828 0.0 0.0
-0.030692679117512695 0.02618553649204891 0.0 -0.02072287772808512 0.0 0.0
-0.03069267911751103 0.026185536492055572 0.0 0.020722877728110045 0.0 0.0
-0.0368077248167623 0.032881472875463835 0.0 0.023547689118847748 0.0 0.0
-0.036295771765263427 0.0327705408576886 0.0 0.02143056588410225 0.0 0.0
-0.032518526322885946 0.02929433781868318 0.0 0.017825949564997667 0.0 0.0
-0.0275794082562138 0.024591610001015285 0.0 0.014597565965471238 0.0 0.0
-0.022679927144435647 0.0198873449268544 0.0 0.012225405822368196 0.0 0.0
-0.01834804427804241 0.015727309149831337 0.0 0.010479385608242298 0.0 0.0
-0.014692314008187934 0.01223752975334036 0.0 0.009041200709295538 0.0 0.0
-0.011625488845961839 0.00933956005980252 0.0 0.007736802295109257 0.0 0.0
-0.008994106286127158 0.006891944900630165 0.0 0.006463278978589337 0.0 0.0
-0.006688396133993017 0.004789678652718177 0.0 0.0051444720512572595 0.0 0.0
-0.004681888666684335 0.003039629098281482 0.0 0.0038677636517882585 0.0 0.0
-0.0030847335253210845 0.0017520683120395564 0.0 0.0028593561844047766 0.0 0.0
-0.00199262807355962 0.0009911649335145878 0.0 0.0022556006501854298 0.0 0.0
-0.0013771644280546613 0.0006552985662237054 0.0 0.0020241593389446477 0.0 0.0
-0.00104224572585037 0.0005127128986058826 0.0 0.001985045742695285 0.0 0.0
-0.0008057746151658371 0.00040096423511476464 0.0 0.0020351693370382062 0.0 0.0
-0.0005849530727926877 0.0002524091577921772 0.0 0.0021021085552855034 0.0 0.0
-0.0002789554791607987 -4.663521803455195e-05 0.0 0.0019929176264130988 0.0 0.0
0.00010353531764906859 -0.0004610615758588246 0.0 0.0011066596954450725 0.0 0.0
3.863696824521479e-05 -0.0003149083837771238 0.0 -0.000933739671507644 0.0 0.0
-0.0003280389003596784 2.524973188533508e-06 0.0 -0.0017914056888332641 0.0 0.0
-0.0006852766593552495 0.00029433206653822763 0.0 -0.0019406458777116165 0.0 0.0
-0.0009793632516538753 0.00046909710435760754 0.0 -0.0018637086490121413 0.0 0.0
-0.0012923841853876572 0.0006146981842172217 0.0 -0.0017630883705060107 0.0 0.0
-0.0017621384229404569 0.0008506277076824054 0.0 -0.001792726875129269 0.0 0.0
-0.002649343503792423 0.0014222301222103217 0.0 -0.0021050988244635804 0.0 0.0
-0.004149731373112947 0.0025845202717933446 0.0 -0.0028734768769902996 0.0 0.0
-0.0062309919722975254 0.004371673517359342 0.0 -0.004034075682044058 0.0 0.0
-0.008757994865371183 0.006655074026854724 0.0 -0.005341381772229037 0.0 0.0
-0.011681245903312529 0.009364993345989836 0.0 -0.006637125665022892 0.0 0.0
-0.01505452584150141 0.012540630895050642 0.0 -0.007918222121078344 0.0 0.0
-0.019010824311239793 0.01630899943312314 0.0 -0.00925429456270438 0.0 0.0
-0.023726809592195267 0.020841287065697767 0.0 -0.010727651928130855 0.0 0.0
-0.02933324409700995 0.026257193903978404 0.0 -0.012511710471404036 0.0 0.0
-0.03573146408455999 0.03243136285195791 0.0 -0.01492739960233097 0.0 0.0
-0.0422614319164616 0.03866863949136867 0.0 -0.018267681323001272 0.0 0.0
-0.047320414490333945 0.043346829585721114 0.0 -0.022272399536948262 0.0 0.0
-0.04811363477937876 0.0436598428350643 0.0 -0.02521167086691989 0.0 0.0
-0.04051739638384251 0.03549546256982117 0.0 -0.024147281800529052 0.0 0.0
-0.040517396383840096 0.035495462569817615 0.0 0.024147281800556475 0.0 0.0
-0.04811363477937124 0.04365984283505808 0.0 0.02521167086695142 0.0 0.0
-0.047320414490320165 0.04334682958571223 0.0 0.022272399536971965 0.0 0.0
-0.042261431916441355 0.03866863949135202 0.0 0.018267681323008045 0.0 0.0
-0.03573146408453725 0.032431362851937706 0.0 0.014927399602327113 0.0 0.0
-0.02933324409698842 0.02625719390396042 0.0 0.01251171047139954 0.0 0.0
-0.02372680959217311 0.02084128706567534 0.0 0.010727651928123277 0.0 0.0
-0.01901082431121682 0.01630899943310049 0.0 0.009254294562697357 0.0 0.0
-0.015054525841478504 0.012540630895027993 0.0 0.007918222121069102 0.0 0.0
-0.011681245903290852 0.009364993345970962 0.0 0.006637125665010263 0.0 0.0
-0.00875799486535235 0.0066550740268387365 0.0 0.005341381772214493 0.0 0.0
-0.0062309919722833285 0.004371673517345354 0.0 0.004034075682036509 0.0 0.0
-0.0041497313731023375 0.002584520271784352 0.0 0.0028734768769848595 0.0 0.0
-0.0026493435037862195 0.0014222301222042155 0.0 0.002105098824459889 0.0 0.0
-0.001762138422937605 0.0008506277076796298 0.0 0.0017927268751264658 0.0 0.0
-0.0012923841853862486 0.0006146981842157784 0.0 0.001763088370504401 0.0 0.0
-0.000979363251652772 0.0004690971043569969 0.0 0.0018637086490105315 0.0 0.0
-0.0006852766593546597 0.0002943320665370064 0.0 0.001940645877709507 0.0 0.0
-0.00032803890035944944 2.5249731881726856e-06 0.0 0.0017914056888318763 0.0 0.0
3.863696824527724e-05 -0.00031490838377663116 0.0 0.0009337396715068946 0.0 0.0
-1.776011351828366e-05 -0.00018951966390318153 0.0 -0.0007553638808304175 0.0 0.0
-0.0003765922600532101 5.406099158999922e-05 0.0 -0.00155165395323148 0.0 0.0
-0.0007811000735562512 0.00033562869564440767 0.0 -0.0017267283537922284 0.0 0.0
-0.0011438957844359665 0.0005300737318293391 0.0 -0.0016374836434851492 0.0 0.0
-0.0015344870739237293 0.0007197969924761516 0.0 -0.001512037764440033 0.0 0.0
-0.002176316481311641 0.001087807619276071 0.0 -0.0015453356021499498 0.0 0.0
-0.0033781211964087066 0.001957077107677563 0.0 -0.0019308606095327918 0.0 0.0
-0.005290507071316536 0.0035428982464633663 0.0 -0.002796217169409837 0.0 0.0
-0.007807164557262325 0.005784703628785248 0.0 -0.00393768062069455 0.0 0.0
-0.010840137694166169 0.008571276781498716 0.0 -0.00515123729596656 0.0 0.0
-0.014387139237066165 0.011890909915613035 0.0 -0.006382262137212824 0.0 0.0
-0.01851568608999704 0.01580416596306966 0.0 -0.0076046646030149545 0.0 0.0
-0.023378821467509386 0.020457639387041704 0.0 -0.008896123698770853 0.0 0.0
-0.02916696545047079 0.02604095169631404 0.0 -0.010354826236180559 0.0 0.0
-0.036022360303083964 0.03268711897293186 0.0 -0.012037510152152986 0.0 0.0
-0.04385993691124694 0.04027303190439069 0.0 -0.014160505998700446 0.0 0.0
-0.05192251889560204 0.04799402576568568 0.0 -0.01720037267398883 0.0 0.0
-0.05822413089541205 0.05383897733031828 0.0 -0.021316104756827492 0.0 0.0
-0.059293747640059555 0.05437244933908092 0.0 -0.025476014869346586 0.0 0.0
-0.05033347604070422 0.044848618746344826 0.0 -0.02753852357555231 0.0 0.0
-0.05033347604070085 0.04484861874633994 0.0 0.027538523575579066 0.0 0.0
-0.059293747640049674 0.05437244933907204 0.0 0.025476014869378727 0.0 0.0
-0.058224130895394924 0.05383897733029963 0.0 0.021316104756851695 0.0 0.0
-0.051922518895578584 0.04799402576566014 0.0 0.017200372673996545 0.0 0.0
-0.043859936911220344 0.04027303190436515 0.0 0.014160505998699169 0.0 0.0
-0.03602236030305814 0.0326871189729081 0.0 0.012037510152149433 0.0 0.0
-0.02916696545044424 0.02604095169629206 0.0 0.010354826236176118 0.0 0.0
-0.023378821467482117 0.020457639387017945 0.0 0.008896123698763525 0.0 0.0
-0.018515686089969494 0.015804165963041905 0.0 0.00760466460300635 0.0 0.0
-0.014387139237040714 0.011890909915589054 0.0 0.00638226213720075 0.0 0.0
-0.010840137694143916 0.008571276781479398 0.0 0.005151237295952904 0.0 0.0
-0.007807164557245012 0.005784703628770149 0.0 0.003937680620685807 0.0 0.0
-0.00529050707130331 0.0035428982464532632 0.0 0.002796217169403703 0.0 0.0
-0.0033781211964002897 0.0019570771076721227 0.0 0.0019308606095278236 0.0 0.0
-0.0021763164813077274 0.0010878076192738506 0.0 0.0015453356021475628 0.0 0.0
-0.0015344870739220293 0.0007197969924748193 0.0 0.001512037764438534 0.0 0.0
-0.00114389578443478 0.0005300737318273407 0.0 0.0016374836434844275 0.0 0.0
-0.0007811000735554741 0.0003356286956445742 0.0 0.0017267283537904243 0.0 0.0
-0.000376592260052884 5.40609915903878e-05 0.0 0.0015516539532304807 0.0 0.0
-1.7760113518262843e-05 -0.00018951966390313817 0.0 0.000755363880830251 0.0 0.0
-6.35743706972336e-05 -8.724736245657727e-05 0.0 -0.0005706940029918117 0.0 0.0
-0.0004219292119151119 0.0001049835127293064 0.0 -0.001277873235722038 0.0 0.0
-0.0008725397920016364 0.00037588519510162177 0.0 -0.001459748205009409 0.0 0.0
-0.0013013812815891312 0.0005846624661813848 0.0 -0.0013624058066539213 0.0 0.0
-0.0017805376580188326 0.0008324479760106751 0.0 -0.0012239702295564758 0.0 0.0
-0.0026346548981387996 0.0013891933145433466 0.0 -0.0012824931373969506 0.0 0.0
-0.004181768535108682 0.0026018768333323505 0.0 -0.0017360007191007942 0.0 0.0
-0.006459358988117281 0.0045753194619055915 0.0 -0.0025550090797370473 0.0 0.0
-0.009384753974348847 0.007228627902921669 0.0 -0.003540558889407075 0.0 0.0
-0.012929310482410361 0.010519068939377263 0.0 -0.004618944494095556 0.0 0.0
-0.017103718119567457 0.014451324295002177 0.0 -0.005714644798554269 0.0 0.0
-0.022000840018052942 0.01911210349233694 0.0 -0.006809991814386129 0.0 0.0
-0.02778941476659824 0.024668704093955274 0.0 -0.007994643112402944 0.0 0.0
-0.03465824404793852 0.03130535127274969 0.0 -0.009334745578434056 0.0 0.0
-0.0427222086790016 0.03913581002863231 0.0 -0.01082356900591952 0.0 0.0
-0.051877985660420234 0.048025460463716474 0.0 -0.012458908983452976 0.0 0.0
-0.06135159079343597 0.05712242888685548 0.0 -0.014675868706763295 0.0 0.0
-0.06891426341223575 0.06416417222909176 0.0 -0.018493355459367533 0.0 0.0
-0.07049112943632904 0.06513943750235374 0.0 -0.024315856068204855 0.0 0.0
-0.06044537829551681 0.05450745077751762 0.0 -0.030885156725365848 0.0 0.0
-0.060445378295512636 0.054507450777514066 0.0 0.030885156725391716 0.0 0.0
-0.07049112943631679 0.06513943750233997 0.0 0.024315856068235053 0.0 0.0
-0.06891426341221525 0.06416417222907089 0.0 0.01849335545938985 0.0 0.0
-0.06135159079340889 0.057122428886832166 0.0 0.014675868706770456 0.0 0.0
-0.05187798566039007 0.04802546046368872 0.0 0.012458908983454114 0.0 0.0
-0.042722208678971425 0.039135810028605 0.0 0.010823569005916522 0.0 0.0
-0.03465824404790747 0.03130535127271816 0.0 0.009334745578429615 0.0 0.0
-0.02778941476656694 0.024668704093923743 0.0 0.007994643112396449 0.0 0.0
-0.02200084001802082 0.019112103492308963 0.0 0.006809991814379662 0.0 0.0
-0.017103718119538314 0.014451324294975532 0.0 0.005714644798542473 0.0 0.0
-0.012929310482385041 0.010519068939351062 0.0 0.004618944494084426 0.0 0.0
-0.009384753974328267 0.00722862790290435 0.0 0.0035405588893997753 0.0 0.0
-0.006459358988101686 0.004575319461893157 0.0 0.0025550090797321623 0.0 0.0
-0.004181768535098003 0.002601876833324801 0.0 0.001736000719096631 0.0 0.0
-0.002634654898133394 0.001389193314540127 0.0 0.0012824931373946191 0.0 0.0
-0.0017805376580167648 0.0008324479760105641 0.0 0.0012239702295557264 0.0 0.0
-0.0013013812815877296 0.0005846624661806632 0.0 0.0013624058066535882 0.0 0.0
-0.0008725397920008454 0.0003758851951007891 0.0 0.0014597482050086596 0.0 0.0
-0.00042192921191487945 0.0001049835127291121 0.0 0.0012778732357198452 0.0 0.0
-6.357437069718849e-05 -8.724736245655819e-05 0.0 0.0005706940029901186 0.0 0.0
-9.516093234659961e-05 -1.1048788575523938e-05 0.0 -0.00038153412022068345 0.0 0.0
-0.00045909048870726443 0.00015164859448046908 0.0 -0.00097230820576788 0.0 0.0
-0.0009593819557865146 0.0004134878902141703 0.0 -0.0011385745479598197 0.0 0.0
-0.0014561627910916197 0.0006391401742935621 0.0 -0.0010397284333824586 0.0 0.0
-0.0020430987829007374 0.0009685414282312177 0.0 -0.0009056430839529395 0.0 0.0
-0.003157336197291666 0.0017669289412629574 0.0 -0.0010099219763798628 0.0 0.0
-0.0050259844536407194 0.0033145546962327632 0.0 -0.0014269321041152083 0.0 0.0
-0.007626420156173264 0.00563175712382602 0.0 -0.0020836490809778563 0.0 0.0
-0.010959814024832315 0.008691349499916567 0.0 -0.0028820565240075813 0.0 0.0
-0.01501481330471624 0.012482106881341437 0.0 -0.003759041924327855 0.0 0.0
-0.01982335622018347 0.017031351505446102 0.0 -0.00465560375346008 0.0 0.0
-0.025500624665675597 0.02245162908984688 0.0 -0.005550360101543528 0.0 0.0
-0.03223020713350144 0.028923850099495718 0.0 -0.006523593312684595 0.0 0.0
-0.04018885233325439 0.03662205178499467 0.0 -0.007678977728008907 0.0 0.0
-0.04942320204779041 0.04559050348312632 0.0 -0.008924811478055239 0.0 0.0
-0.05973022268609711 0.055611703584633077 0.0 -0.009960169936752528 0.0 0.0
-0.0703716924384582 0.06589284439005816 0.0 -0.010927464769690975 0.0 0.0
-0.07926612797616549 0.0742140554491324 0.0 -0.013814293518031262 0.0 0.0
-0.08182414455315802 0.07607105975749873 0.0 -0.02138077622401885 0.0 0.0
-0.07119710993364624 0.06477670398546875 0.0 -0.03393381629244735 0.0 0.0
-0.07119710993364183 0.06477670398546609 0.0 0.033933816292469554 0.0 0.0
-0.08182414455314328 0.07607105975748407 0.0 0.02138077622404505 0.0 0.0
-0.07926612797614152 0.07421405544911197 0.0 0.013814293518050969 0.0 0.0
-0.07037169243842703 0.06589284439003329 0.0 0.010927464769696693 0.0 0.0
-0.059730222686063254 0.05561170358460177 0.0 0.009960169936753471 0.0 0.0
-0.04942320204775619 0.04559050348308946 0.0 0.00892481147805535 0.0 0.0
-0.040188852333219206 0.036622051784960474 0.0 0.007678977728005576 0.0 0.0
-0.03223020713346558 0.028923850099462634 0.0 0.006523593312678599 0.0 0.0
-0.025500624665639095 0.022451629089811798 0.0 0.005550360101539309 0.0 0.0
-0.019823356220150537 0.01703135150541346 0.0 0.00465560375345031 0.0 0.0
-0.015014813304687916 0.012482106881315902 0.0 0.0037590419243195006 0.0 0.0
-0.010959814024808969 0.008691349499896583 0.0 0.0028820565240016416 0.0 0.0
-0.0076264201561553925 0.005631757123810588 0.0 0.0020836490809722497 0.0 0.0
-0.005025984453628167 0.003314554696221883 0.0 0.001426932104110351 0.0 0.0
-0.0031573361972845673 0.0017669289412570732 0.0 0.0010099219763774203 0.0 0.0
-0.0020430987828980937 0.0009685414282295524 0.0 0.0009056430839524676 0.0 0.0
-0.0014561627910902493 0.0006391401742936731 0.0 0.0010397284333823753 0.0 0.0
-0.0009593819557857097 0.0004134878902145034 0.0 0.001138574547958654 0.0 0.0
-0.00045909048870694524 0.00015164859448094092 0.0 0.0009723082057673527 0.0 0.0
-9.516093234644696e-05 -1.10487885754771e-05 0.0 0.00038153412022093325 0.0 0.0
-0.00010632445634234378 3.5288832334640086e-05 0.0 -0.00019454242130961807 0.0 0.0
-0.0004796538233809433 0.00018852849620509815 0.0 -0.0006347146812278881 0.0 0.0
-0.0010419403348882195 0.00044767603120132726 0.0 -0.000756270171115847 0.0 0.0
-0.0016163226388907215 0.0006995305717091282 0.0 -0.0006755464166809944 0.0 0.0
-0.002343227881151766 0.0011568726427891862 0.0 -0.0005836572295205289 0.0 0.0
-0.0037363166174363693 0.002220353024441013 0.0 -0.0006796197071647359 0.0 0.0
-0.005874854192973122 0.004063993879063865 0.0 -0.000981324079404794 0.0 0.0
-0.008788849756559969 0.006700353466397635 0.0 -0.0014228786322619535 0.0 0.0
-0.012522162482819371 0.010158985476502513 0.0 -0.0019698690885181502 0.0 0.0
-0.017087178268998304 0.014447904900768194 0.0 -0.0025816060988091416 0.0 0.0
-0.022536970343356555 0.019619446459820944 0.0 -0.00320355711888759 0.0 0.0
-0.029006723363978276 0.02580990208780154 0.0 -0.0038247904123739906 0.0 0.0
-0.036690419588024104 0.03321090844592933 0.0 -0.004535087532648696 0.0 0.0
-0.045734375421504714 0.04196442622779273 0.0 -0.005368690453680547 0.0 0.0
-0.05610400970848137 0.05203027285140771 0.0 -0.006218609256700036 0.0 0.0
-0.06743770682285008 0.06304597727569616 0.0 -0.006783379278301693 0.0 0.0
-0.0789100886348953 0.07417895592835322 0.0 -0.006694202813355532 0.0 0.0
-0.08889623809326584 0.08370639041800354 0.0 -0.007393310006676257 0.0 0.0
-0.09332155115178742 0.08718901709895732 0.0 -0.015550823577793804 0.0 0.0
-0.08311986799715618 0.07612954568344454 0.0 -0.03601034860511937 0.0 0.0
-0.08311986799715107 0.07612954568343877 0.0 0.036010348605134024 0.0 0.0
-0.09332155115177002 0.08718901709894267 0.0 0.015550823577814732 0.0 0.0
-0.0888962380932382 0.08370639041797867 0.0 0.007393310006690718 0.0 0.0
-0.07891008863485968 0.0741789559283208 0.0 0.006694202813357836 0.0 0.0
-0.06743770682281233 0.0630459772756613 0.0 0.006783379278301138 0.0 0.0
-0.05610400970844276 0.05203027285137285 0.0 0.006218609256699981 0.0 0.0
-0.045734375421465676 0.04196442622775698 0.0 0.005368690453678673 0.0 0.0
-0.036690419587983206 0.03321090844589003 0.0 0.004535087532644588 0.0 0.0
-0.029006723363937514 0.025809902087759795 0.0 0.0038247904123709375 0.0 0.0
-0.022536970343319914 0.01961944645978675 0.0 0.0032035571188807066 0.0 0.0
-0.017087178268967006 0.014447904900742659 0.0 0.0025816060988020084 0.0 0.0
-0.012522162482793316 0.010158985476478088 0.0 0.0019698690885142645 0.0 0.0
-0.00878884975653989 0.0067003534663800934 0.0 0.0014228786322590392 0.0 0.0
-0.005874854192958473 0.004063993879052763 0.0 0.0009813240794013245 0.0 0.0
-0.003736316617428098 0.0022203530244345737 0.0 0.0006796197071637367 0.0 0.0
-0.002343227881148144 0.0011568726427849674 0.0 0.0005836572295201958 0.0 0.0
-0.0016163226388894707 0.0006995305717085731 0.0 0.0006755464166801339 0.0 0.0
-0.0010419403348874076 0.0004476760312008832 0.0 0.0007562701711151254 0.0 0.0
-0.00047965382338035524 0.00018852849620454304 0.0 0.0006347146812274163 0.0 0.0
-0.00010632445634205061 3.528883233438161e-05 0.0 0.00019454242130981236 0.0 0.0
-8.587855862549065e-05 4.630000879429774e-05 0.0 -2.5377288572075996e-05 0.0 0.0
-0.00046990876303515394 0.00020716853482721787 0.0 -0.0002590549866128 0.0 0.0
-0.0011220438671748212 0.00047741761432146257 0.0 -0.0002986089299484296 0.0 0.0
-0.001797818710551985 0.0007819770429149386 0.0 -0.0002750634179581324 0.0 0.0
-0.0026971452799771367 0.0013956269990132997 0.0 -0.000235747432246719 0.0 0.0
-0.00434122349035046 0.0027149499176110092 0.0 -0.00026788011139050605 0.0 0.0
-0.006721968528883571 0.004828599328427607 0.0 -0.0003966082431477447 0.0 0.0
-0.009936083848543942 0.0077695373942943124 0.0 -0.000574912067805522 0.0 0.0
-0.014062445570070498 0.01161745525480451 0.0 -0.000811406852016916 0.0 0.0
-0.019135806844255393 0.016402192896337153 0.0 -0.0010859144518865493 0.0 0.0
-0.025236080933016908 0.022206229113486353 0.0 -0.001363029830309559 0.0 0.0
-0.0325166141274765 0.029183075199817665 0.0 -0.001661009323853213 0.0 0.0
-0.04115000145903919 0.037507865482503844 0.0 -0.001995572172544424 0.0 0.0
-0.0512570722570084 0.04729461361983911 0.0 -0.0023602051875603047 0.0 0.0
-0.06273638822864316 0.05843310401524571 0.0 -0.0027062789312430335 0.0 0.0
-0.07504994678591079 0.07038708882613176 0.0 -0.0028396929612645727 0.0 0.0
-0.08713334322352866 0.08211327431691706 0.0 -0.0024260233798718 0.0 0.0
-0.09747422875591855 0.09211252938287773 0.0 -0.0013077162918521124 0.0 0.0
-0.10373239563362938 0.09785013329901693 0.0 -0.004559432679735964 0.0 0.0
-0.09772607472273549 0.08967202981480638 0.0 -0.03329787488087638 0.0 0.0
-0.09772607472272946 0.08967202981480327 0.0 0.03329787488088204 0.0 0.0
-0.10373239563360968 0.09785013329900005 0.0 0.004559432679744402 0.0 0.0
-0.09747422875588652 0.0921125293828462 0.0 0.0013077162918581353 0.0 0.0
-0.08713334322348802 0.08211327431687954 0.0 0.0024260233798721886 0.0 0.0
-0.07504994678586896 0.07038708882609135 0.0 0.0028396929612638233 0.0 0.0
-0.06273638822860016 0.05843310401520441 0.0 0.0027062789312442964 0.0 0.0
-0.05125707225696471 0.047294613619797365 0.0 0.002360205187560735 0.0 0.0
-0.04115000145899363 0.037507865482458325 0.0 0.001995572172542953 0.0 0.0
-0.03251661412743186 0.029183075199775255 0.0 0.0016610093238517976 0.0 0.0
-0.0252360809329768 0.02220622911344683 0.0 0.0013630298303050348 0.0 0.0
-0.019135806844220976 0.01640219289630296 0.0 0.0010859144518834962 0.0 0.0
-0.01406244557004194 0.011617455254776088 0.0 0.0008114068520160556 0.0 0.0
-0.009936083848521744 0.007769537394273551 0.0 0.0005749120678041619 0.0 0.0
-0.006721968528867168 0.004828599328414174 0.0 0.0003966082431464124 0.0 0.0
-0.004341223490340887 0.0027149499176029046 0.0 0.00026788011138856316 0.0 0.0
-0.0026971452799724113 0.001395626999009969 0.0 0.00023574743224680228 0.0 0.0
-0.0017978187105505503 0.0007819770429148276 0.0 0.00027506341795810463 0.0 0.0
-0.0011220438671734438 0.0004774176143221287 0.0 0.0002986089299483463 0.0 0.0
-0.0004699087630347957 0.00020716853482680153 0.0 0.00025905498661335513 0.0 0.0
-8.587855862532585e-05 4.6300008794030595e-05 0.0 2.5377288572409062e-05 0.0 0.0
SCALARS Statev float 8
LOOKUP_TABLE default
0.0 0.009565420073271932 0.007278401646822533 -0.007662941230089882 0.0003845395832673481 -0.004099273923460449 0.0 0.0
0.0 0.00027317029368593504 0.0001511146919090166 -0.00011658481875989084 -3.4529873149125763e-05 0.00016982698870267717 0.0 0.0
0.0 3.342380937738801e-05 -4.754075056001044e-06 3.773145031477424e-06 9.809300245235895e-07 5.62033213615258e-07 0.0 0.0
0.0 0.00010017568422425314 2.9548005548037523e-05 -2.292640305328006e-05 -6.6216024947575534e-06 -3.978939684371702e-06 0.0 0.0
0.0 0.0007192258731763108 0.0004933055513328257 -0.00039447451658976317 -9.883103474306299e-05 -5.658884790539034e-05 0.0 0.0
0.0 0.001967989521689989 0.001816299214633512 -0.001512222950110107 -0.000304076264523405 -0.00014945178680575473 0.0 0.0
0.0 0.004329915759304984 0.0039380993559683004 -0.0034373686720358394 -0.0005007306839324598 -0.0002769560132878497 0.0 0.0
0.0 0.007732001201924235 0.0069403277683703045 -0.0062808663194992825 -0.0006594614488710213 -0.00044608541144125323 0.0 0.0
0.0 0.012228046935548824 0.010858759215609788 -0.010074609936291662 -0.0007841492793181238 -0.0006680220536715481 0.0 0.0
0.0 0.01785017033227505 0.015722853691204536 -0.014829994407836786 -0.0008928592833677461 -0.0009309662143491204 0.0 0.0
0.0 0.024717912369906996 0.021620398349483417 -0.02062407869948408 -0.0009963196499993376 -0.0012051812884064756 0.0 0.0
0.0 0.03273000875304462 0.028713440955193258 -0.027613438698680333 -0.001100002256512907 -0.001505877525839801 0.0 0.0
0.0 0.04238663306686484 0.0371687519411278 -0.03596429398937994 -0.0012044579517478443 -0.0018395883039575016 0.0 0.0
0.0 0.05383131065561914 0.0471126592302398 -0.04580114712110121 -0.0013115121091385746 -0.002206553804025264 0.0 0.0
0.0 0.06694955953136589 0.058501042818986236 -0.05707755355117679 -0.0014234892678094235 -0.002614452736779726 0.0 0.0
0.0 0.08134169953696328 0.07095676550266429 -0.06941652368843353 -0.0015402418142307886 -0.0029985135778801764 0.0 0.0
0.0 0.0960723617475825 0.08369775363656648 -0.08203943308905362 -0.0016583205475128636 -0.003196605046806962 0.0 0.0
0.0 0.10980421756773448 0.09558156217856065 -0.09381039417301087 -0.0017711680055497478 -0.0029799359516906074 0.0 0.0
0.0 0.12096510068200368 0.10524651098264484 -0.10337531471795855 -0.0018711962646862637 -0.0023303121843570506 0.0 0.0
0.0 0.12751704933415758 0.11105927543713237 -0.10908204965442195 -0.0019772257827104234 -0.0019294901163483635 0.0 0.0
0.0 0.12751704933415284 0.11105927543712814 -0.10908204965441798 -0.0019772257827101293 0.0019294901163516686 0.0 0.0
0.0 0.12096510068198314 0.10524651098262702 -0.10337531471794084 -0.0018711962646861765 0.0023303121843690623 0.0 0.0
0.0 0.1098042175677014 0.09558156217853175 -0.09381039417298274 -0.0017711680055489747 0.0029799359516970896 0.0 0.0
0.0 0.09607236174754069 0.08369775363652998 -0.08203943308901775 -0.0016583205475122146 0.0031966050468117757 0.0 0.0
0.0 0.08134169953691835 0.07095676550262496 -0.06941652368839507 -0.0015402418142298924 0.002998513577875791 0.0 0.0
0.0 0.06694955953131948 0.058501042818945775 -0.057077553551136945 -0.0014234892678088272 0.002614452736779683 0.0 0.0
0.0 0.053831310655572055 0.04711265923019879 -0.04580114712106086 -0.0013115121091379297 0.0022065538040245535 0.0 0.0
0.0 0.04238663306681723 0.03716875194108639 -0.035964293989339105 -0.001204457951747287 0.0018395883039576061 0.0 0.0
0.0 0.032730008752998224 0.02871344095515274 -0.02761343869864059 -0.0011000022565121456 0.0015058775258368642 0.0 0.0
0.0 0.024717912369865005 0.021620398349446474 -0.02062407869944782 -0.0009963196499986494 0.0012051812884049209 0.0 0.0
0.0 0.017850170332239953 0.01572285369117387 -0.01482999440780686 -0.0008928592833670081 0.0009309662143451847 0.0 0.0
0.0 0.012228046935522634 0.010858759215586277 -0.010074609936268932 -0.0007841492793173437 0.0006680220536703597 0.0 0.0
0.0 0.007732001201905216 0.0069403277683527465 -0.006280866319482511 -0.0006594614488702352 0.00044608541143981796 0.0 0.0
0.0 0.004329915759290788 0.003938099355954959 -0.0034373686720233815 -0.000500730683931577 0.00027695601328705567 0.0 0.0
0.0 0.0019679895216820832 0.0018162992146256926 -0.0015122229501032126 -0.0003040762645224795 0.00014945178680489645 0.0 0.0
0.0 0.0007192258731727463 0.0004933055513301298 -0.0003944745165875596 -9.883103474257019e-05 5.6588847905120906e-05 0.0 0.0
0.0 0.00010017568422322599 2.954800554806129e-05 -2.292640305329072e-05 -6.621602494770575e-06 3.97893968431783e-06 0.0 0.0
0.0 3.342380937687491e-05 -4.754075055922566e-06 3.7731450314146314e-06 9.80930024507978e-07 -5.620332136057866e-07 0.0 0.0
0.0 0.00027317029368423393 0.00015111469190819265 -0.00011658481875925554 -3.452987314893728e-05 -0.00016982698870154298 0.0 0.0
0.0 0.009565420073256925 0.0072784016468123635 -0.007662941230078705 0.0003845395832663377 0.004099273923438772 0.0 0.0
0.0 0.006771013085528802 0.0048285535832746545 -0.005298017228613559 0.0004694636453389042 -0.004562240102977826 0.0 0.0
0.0 0.0 0.0 0.0 0.0 0.0 0.0 0.0
0.0 9.430826945183483e-08 -1.020951514236367e-08 7.758883502814768e-09 2.450631639548195e-09 3.6392644398315674e-09 0.0 0.0
0.0 3.3465859914654524e-05 1.013441690384567e-06 -8.040902071154982e-07 -2.0935148326930262e-07 -9.9580835860962e-07 0.0 0.0
0.0 0.0004242334280017766 0.00023741812575526559 -0.00018849329390511213 -4.8924831850153424e-05 -6.584848657532824e-05 0.0 0.0
0.0 0.0014140885376588436 0.0013071091419233607 -0.0010729276629436733 -0.0002341814789796874 -0.0002924192674623594 0.0 0.0
0.0 0.003488442165976264 0.003172178646436059 -0.002731051970977068 -0.00044112667545899155 -0.0006214381071816125 0.0 0.0
0.0 0.006538653167150485 0.005867891412997386 -0.005253724440713723 -0.0006141669722836626 -0.0010467362657109935 0.0 0.0
0.0 0.010572377179201207 0.00939570433420131 -0.008648909350349019 -0.0007467949838522893 -0.0015706663612656592 0.0 0.0
0.0 0.015594065183384524 0.013756679596702459 -0.012900367112672981 -0.0008563124840294731 -0.0021679338736103975 0.0 0.0
0.0 0.021670038342139424 0.019010350333402856 -0.018054193729354264 -0.0009561566040485796 -0.002792345174622407 0.0 0.0
0.0 0.029005646556407 0.025298269162277745 -0.024245722537667925 -0.0010525466246098223 -0.0034287968827799503 0.0 0.0
0.0 0.03753453331823124 0.03281956965193661 -0.03167071525555019 -0.0011488543963864215 -0.004152882701663212 0.0 0.0
0.0 0.04771643583236354 0.041714048795194386 -0.04046661212222583 -0.001247436672968539 -0.0049986487170973525 0.0 0.0
0.0 0.05951445357657675 0.05195090935279267 -0.05060088192573438 -0.0013500274270583082 -0.0059251589219417216 0.0 0.0
0.0 0.07248241140772048 0.0632067137330011 -0.06175009750848041 -0.0014566162245206833 -0.006798567876066977 0.0 0.0
0.0 0.08583637083286434 0.07479189547892953 -0.07322733439353099 -0.0015645610853985328 -0.00726828174552908 0.0 0.0
0.0 0.09839514217468551 0.08567723327647195 -0.0840077714921488 -0.0016694617843231133 -0.0069064537948879765 0.0 0.0
0.0 0.10859421861206764 0.09453043635373991 -0.09275864275382387 -0.001771793599916076 -0.005626535358429953 0.0 0.0
0.0 0.11462581708650699 0.09978273930549197 -0.09793710600336812 -0.0018456333021238942 -0.0033909886734423155 0.0 0.0
0.0 0.1146258170864993 0.09978273930548545 -0.09793710600336111 -0.0018456333021243147 0.003390988673454213 0.0 0.0
0.0 0.10859421861204864 0.09453043635372335 -0.09275864275380702 -0.0017717935999163278 0.005626535358452584 0.0 0.0
0.0 0.09839514217465839 0.08567723327644775 -0.08400777149212552 -0.0016694617843222253 0.006906453794903499 0.0 0.0
0.0 0.08583637083282915 0.07479189547889839 -0.07322733439350083 -0.001564561085397528 0.007268281745537143 0.0 0.0
0.0 0.072482411407681 0.06320671373296663 -0.061750097508446844 -0.001456616224519785 0.006798567876062913 0.0 0.0
0.0 0.059514453576536515 0.05195090935275749 -0.05060088192569999 -0.0013500274270575028 0.005925158921940905 0.0 0.0
0.0 0.04771643583232127 0.04171404879515751 -0.04046661212218964 -0.0012474366729678327 0.0049986487170966196 0.0 0.0
0.0 0.037534533318188096 0.03281956965189883 -0.031670715255513335 -0.001148854396385502 0.004152882701661624 0.0 0.0
0.0 0.02900564655636585 0.02529826916224167 -0.02424572253763261 -0.001052546624609056 0.0034287968827747452 0.0 0.0
0.0 0.0216700383421027 0.019010350333370653 -0.01805419372932281 -0.0009561566040478431 0.002792345174617858 0.0 0.0
0.0 0.0155940651833534 0.01375667959667496 -0.012900367112646135 -0.0008563124840288241 0.002167933873603715 0.0 0.0
0.0 0.010572377179175765 0.00939570433417838 -0.008648909350326611 -0.0007467949838517655 0.0015706663612625018 0.0 0.0
0.0 0.006538653167132423 0.005867891412980931 -0.005253724440698106 -0.0006141669722828233 0.0010467362657076537 0.0 0.0
0.0 0.003488442165963987 0.00317217864642438 -0.0027310519709664773 -0.00044112667545790095 0.0006214381071796503 0.0 0.0
0.0 0.0014140885376518028 0.0013071091419169173 -0.0010729276629381716 -0.00023418147897874547 0.00029241926746088675 0.0 0.0
0.0 0.000424233427998525 0.00023741812575318871 -0.00018849329390342197 -4.892483184976682e-05 6.584848657468472e-05 0.0 0.0
0.0 3.3465859914053686e-05 1.0134416904792213e-06 -8.040902071870581e-07 -2.093514832920228e-07 9.958083586395843e-07 0.0 0.0
0.0 9.430826938068039e-08 -1.0209515134588993e-08 7.758883496907494e-09 2.4506316376819497e-09 -3.6392644370560787e-09 0.0 0.0
0.0 0.0 0.0 0.0 0.0 0.0 0.0 0.0
0.0 0.00677101308551231 0.004828553583263721 -0.005298017228601768 0.00046946364533804596 0.004562240102959448 0.0 0.0
0.0 0.0049443332592887124 0.003319981695174611 -0.003785041639895824 0.0004650599447212135 -0.0038811571231267563 0.0 0.0
0.0 0.0 0.0 0.0 0.0 0.0 0.0 0.0
0.0 0.0 0.0 0.0 0.0 0.0 0.0 0.0
0.0 3.0000349781137016e-06 -1.165276081646111e-07 8.576500744969176e-08 3.0762600714898376e-08 2.4410721755722663e-08 0.0 0.0
0.0 0.00017439933745106673 8.52694278608576e-05 -6.728077873036588e-05 -1.7988649130491632e-05 -4.3580173625689834e-05 0.0 0.0
0.0 0.0010643335100033939 0.0008160926432476418 -0.0006612649085035144 -0.00015482773474412672 -0.0003200522051139248 0.0 0.0
0.0 0.0026798857424540413 0.0024228779214476594 -0.002052082474270276 -0.0003707954471773839 -0.0008148349868386768 0.0 0.0
0.0 0.005363665335856369 0.004798388376609603 -0.004241353625534208 -0.0005570347510753917 -0.0014615313833241093 0.0 0.0
0.0 0.008950277693892 0.007925294954673954 -0.007224285529548092 -0.0007010094251258607 -0.0022320213521335396 0.0 0.0
0.0 0.01339360774985743 0.011781346992613425 -0.010967745238415165 -0.000813601754198262 -0.0030942211086052683 0.0 0.0
0.0 0.018757668720552432 0.01639939499829509 -0.01548888209827932 -0.0009105129000157725 -0.003997494809291871 0.0 0.0
0.0 0.025093807598288553 0.021903249229042635 -0.020902443477498856 -0.0010008057515437782 -0.004918087517156145 0.0 0.0
0.0 0.03278672399550825 0.028480617671257466 -0.02739122569786797 -0.001089391973389488 -0.005923879393669551 0.0 0.0
0.0 0.04169823838582771 0.03630260601904917 -0.0351230277725234 -0.0011795782465257635 -0.007123780482615172 0.0 0.0
0.0 0.05210202534802418 0.04536449974216949 -0.044092026260390986 -0.0012724734817784913 -0.008479549677309321 0.0 0.0
0.0 0.06368201005548782 0.05540109875372713 -0.0540325819518938 -0.001368516801833327 -0.00974080580734927 0.0 0.0
0.0 0.07568694293594594 0.06583245029736888 -0.06436623293452468 -0.0014662173628441745 -0.010457002572805987 0.0 0.0
0.0 0.08703897712060163 0.07573748928286281 -0.07417230910488606 -0.0015651801779767278 -0.01008232923533402 0.0 0.0
0.0 0.09631388866143395 0.08385893304102734 -0.0822016415244522 -0.0016572915165750926 -0.008216037598392862 0.0 0.0
0.0 0.1019235618863477 0.08880535279425203 -0.08708530616480534 -0.0017200466294466418 -0.004503238407733477 0.0 0.0
0.0 0.10192356188634133 0.08880535279424612 -0.08708530616479955 -0.001720046629446532 0.004503238407753801 0.0 0.0
0.0 0.09631388866141904 0.08385893304101358 -0.08220164152443878 -0.0016572915165747873 0.008216037598422581 0.0 0.0
0.0 0.08703897712057626 0.07573748928283994 -0.07417230910486348 -0.0015651801779764092 0.010082329235355653 0.0 0.0
0.0 0.07568694293591315 0.06583245029734 -0.06436623293449609 -0.0014662173628439054 0.010457002572815361 0.0 0.0
0.0 0.06368201005545182 0.05540109875369578 -0.05403258195186314 -0.0013685168018326348 0.009740805807345283 0.0 0.0
0.0 0.05210202534798779 0.04536449974213755 -0.04409202626035996 -0.0012724734817775977 0.008479549677307456 0.0 0.0
0.0 0.04169823838579055 0.03630260601901665 -0.0351230277724916 -0.001179578246525055 0.007123780482612927 0.0 0.0
0.0 0.03278672399547099 0.028480617671224766 -0.027391225697835954 -0.001089391973388811 0.005923879393666901 0.0 0.0
0.0 0.0250938075982514 0.021903249229010366 -0.02090244347746718 -0.0010008057515431853 0.004918087517148928 0.0 0.0
0.0 0.018757668720518633 0.016399394998265215 -0.015488882098250025 -0.0009105129000151867 0.0039974948092850624 0.0 0.0
0.0 0.013393607749829388 0.011781346992588608 -0.010967745238390893 -0.0008136017541977127 0.0030942211085964516 0.0 0.0
0.0 0.008950277693871158 0.00792529495465523 -0.007224285529530181 -0.0007010094251250477 0.002232021352128604 0.0 0.0
0.0 0.005363665335840146 0.004798388376594747 -0.004241353625520349 -0.0005570347510743995 0.0014615313833197235 0.0 0.0
0.0 0.0026798857424431147 0.0024228779214374536 -0.002052082474261159 -0.000370795447176293 0.0008148349868357433 0.0 0.0
0.0 0.001064333509997559 0.000816092643242968 -0.0006612649084996242 -0.00015482773474334314 0.0003200522051119994 0.0 0.0
0.0 0.00017439933744934646 8.526942786001458e-05 -6.728077872969497e-05 -1.7988649130319488e-05 4.35801736252458e-05 0.0 0.0
0.0 3.0000349777026873e-06 -1.1652760800260807e-07 8.576500732576397e-08 3.076260067682431e-08 -2.4410721655914375e-08 0.0 0.0
0.0 0.0 0.0 0.0 0.0 0.0 0.0 0.0
0.0 0.0 0.0 0.0 0.0 0.0 0.0 0.0
0.0 0.004944333259274447 0.0033199816951648294 -0.003785041639885193 0.00046505994472036474 0.003881157123111067 0.0 0.0
0.0 0.003555716271117835 0.002272998753877444 -0.0026831444106665443 0.0004101456567890998 -0.0029407560184449917 0.0 0.0
0.0 0.0 0.0 0.0 0.0 0.0 0.0 0.0
0.0 0.0 0.0 0.0 0.0 0.0 0.0 0.0
0.0 1.7764958665315978e-06 -1.7819784007305854e-07 1.3787375697884427e-07 4.03240830942293e-08 1.8782013220909485e-07 0.0 0.0
0.0 5.8051617738871846e-05 1.9467295794572855e-05 -1.5266905976060637e-05 -4.2003898185121125e-06 -1.582649875754835e-05 0.0 0.0
0.0 0.0006383017676776839 0.00044288625086741666 -0.00035459388927536813 -8.829236159204853e-05 -0.0002658043019174343 0.0 0.0
0.0 0.001962288860475199 0.0017009891401658754 -0.001415697642731714 -0.00028529149743416083 -0.0008541452310774057 0.0 0.0
0.0 0.004225335839452889 0.0037438298253205183 -0.0032570136825008852 -0.0004868161428196328 -0.0016813033190028021 0.0 0.0
0.0 0.007351152572386945 0.006460401995397708 -0.005817136056682539 -0.0006432659387151674 -0.002645026120164035 0.0 0.0
0.0 0.011215210042258155 0.00981031222210299 -0.009048360887548332 -0.0007619513345546534 -0.0037104094475321173 0.0 0.0
0.0 0.015853421253851755 0.013800136129520463 -0.012941791959289897 -0.0008583441702305646 -0.004816637152230449 0.0 0.0
0.0 0.02135988202836111 0.018528382696113437 -0.017584280150874838 -0.000944102545238595 -0.005945161131255288 0.0 0.0
0.0 0.02791596414396267 0.024173992801526167 -0.02314866891098917 -0.001025323890536987 -0.007184415328530763 0.0 0.0
0.0 0.035762084460778054 0.03090882259466079 -0.029801292163494583 -0.0011075304311662067 -0.008614748515090268 0.0 0.0
0.0 0.04489913521968269 0.03876737469362332 -0.03757653683916801 -0.0011908378544553178 -0.010228480832138728 0.0 0.0
0.0 0.05488500156296769 0.04756241120462323 -0.046286655833879795 -0.0012757553707434361 -0.011792648679237527 0.0 0.0
0.0 0.06554412568166301 0.05682044749553693 -0.055456803863570214 -0.0013636436319667041 -0.012756268435953908 0.0 0.0
0.0 0.0757474102630834 0.06574718671831442 -0.06429390525560881 -0.0014532814627055927 -0.012432857435200435 0.0 0.0
0.0 0.08420978668105726 0.07322682855726698 -0.07169049215382502 -0.0015363364034419536 -0.010170680087146902 0.0 0.0
0.0 0.08953064175902802 0.07800050306415623 -0.07640696156279644 -0.0015935415013597555 -0.005410470200792638 0.0 0.0
0.0 0.08953064175902256 0.0780005030641511 -0.07640696156279136 -0.0015935415013597332 0.005410470200818083 0.0 0.0
0.0 0.0842097866810445 0.07322682855725447 -0.07169049215381293 -0.001536336403441516 0.010170680087181855 0.0 0.0
0.0 0.07574741026306184 0.06574718671829441 -0.06429390525558917 -0.0014532814627052158 0.012432857435224865 0.0 0.0
0.0 0.06554412568163655 0.05682044749551299 -0.055456803863546934 -0.0013636436319660493 0.012756268435965593 0.0 0.0
0.0 0.054885001562936166 0.04756241120459594 -0.04628665583385287 -0.0012757553707430712 0.011792648679233408 0.0 0.0
0.0 0.04489913521965007 0.038767374693595036 -0.037576536839140036 -0.001190837854454999 0.010228480832135388 0.0 0.0
0.0 0.03576208446074465 0.030908822594631784 -0.029801292163465595 -0.0011075304311661991 0.00861474851508743 0.0 0.0
0.0 0.02791596414393168 0.0241739928014988 -0.02314866891096246 -0.0010253238905363277 0.007184415328527539 0.0 0.0
0.0 0.02135988202833063 0.01852838269608655 -0.01758428015084876 -0.0009441025452377811 0.005945161131247023 0.0 0.0
0.0 0.01585342125382481 0.013800136129496508 -0.01294179195926669 -0.0008583441702298268 0.004816637152222485 0.0 0.0
0.0 0.01121521004223594 0.009810312222083485 -0.009048360887529593 -0.0007619513345538872 0.003710409447522639 0.0 0.0
0.0 0.007351152572368787 0.006460401995381423 -0.005817136056667085 -0.0006432659387143364 0.0026450261201582965 0.0 0.0
0.0 0.00422533583943839 0.0037438298253074883 -0.0032570136824887734 -0.00048681614281871274 0.0016813033189970426 0.0 0.0
0.0 0.001962288860465527 0.0017009891401573755 -0.001415697642724293 -0.0002852914974330816 0.0008541452310736445 0.0 0.0
0.0 0.0006383017676723011 0.0004428862508637502 -0.00035459388927235595 -8.829236159139421e-05 0.0002658043019152169 0.0 0.0
0.0 5.805161773766932e-05 1.9467295794431228e-05 -1.5266905975938485e-05 -4.200389818492835e-06 1.5826498757384945e-05 0.0 0.0
0.0 1.7764958662467406e-06 -1.7819784004332652e-07 1.3787375695581053e-07 4.032408308752122e-08 -1.8782013217738892e-07 0.0 0.0
0.0 0.0 0.0 0.0 0.0 0.0 0.0 0.0
0.0 0.0 0.0 0.0 0.0 0.0 0.0 0.0
0.0 0.0035557162711051544 0.002272998753869198 -0.0026831444106574466 0.00041014565678824765 0.0029407560184325134 0.0 0.0
0.0 0.002449110126124241 0.0014957444701894215 -0.0018240585924435616 0.0003283141222541404 -0.0020499524085010323 0.0 0.0
0.0 0.0 0.0 0.0 0.0 0.0 0.0 0.0
0.0 0.0 0.0 0.0 0.0 0.0 0.0 0.0
0.0 6.929946244958124e-08 -5.867089801559984e-09 4.478351496008589e-09 1.388738305550426e-09 8.798859195521545e-09 0.0 0.0
0.0 1.8225274058798722e-05 1.8268138532893306e-06 -1.4959879489980124e-06 -3.308259042913419e-07 -2.4509132670438798e-06 0.0 0.0
0.0 0.0003122127630265745 0.00019315081633678016 -0.00015351899541901125 -3.963182091776905e-05 -0.00017820498179118357 0.0 0.0
0.0 0.0013947973259871964 0.0010470163774002753 -0.0008555944281807419 -0.00019142194921953332 -0.0007396479792222852 0.0 0.0
0.0 0.0031782753492050632 0.0027098089824425025 -0.002311123967982556 -0.00039868501445994634 -0.0016665325037950635 0.0 0.0
0.0 0.0057873250817925374 0.0050148755348032505 -0.0044451315477124645 -0.0005697439870907842 -0.0027986384062509235 0.0 0.0
0.0 0.009081871791489234 0.007855577944654892 -0.0071574442397703865 -0.0006981337048845021 -0.004005661934216087 0.0 0.0
0.0 0.013016473594757362 0.011223303102341264 -0.01042611430199216 -0.000797188800349105 -0.005251412890511103 0.0 0.0
0.0 0.017642707417282973 0.015188456288287296 -0.014308427016605807 -0.0008800292716814869 -0.006512872874258021 0.0 0.0
0.0 0.023212033499697117 0.019908864658180106 -0.01895294366265527 -0.0009559209955248376 -0.007877543824729969 0.0 0.0
0.0 0.029727972290203984 0.025559698753252716 -0.024529951448055684 -0.0010297473051970344 -0.009466914031874323 0.0 0.0
0.0 0.03748603036966043 0.03220243102150427 -0.031098784139105568 -0.0011036468823986865 -0.011237480657496166 0.0 0.0
0.0 0.04631840351787557 0.03971834079249323 -0.03853953310204417 -0.0011788076904490452 -0.012936301587991535 0.0 0.0
0.0 0.05544115863868919 0.04776120641163542 -0.04650605004687924 -0.0012551563647561778 -0.01409197374834914 0.0 0.0
0.0 0.0644213947052111 0.05569737413352215 -0.05436362573555663 -0.0013337483979655202 -0.013926867139331037 0.0 0.0
0.0 0.07214544204096217 0.0625859016782353 -0.06117754465857855 -0.0014083570196567515 -0.011535761317857078 0.0 0.0
0.0 0.07728723092193604 0.0672746012715829 -0.06581179629846537 -0.0014628049731175187 -0.006157147825946333 0.0 0.0
0.0 0.07728723092192968 0.06727460127157692 -0.0658117962984591 -0.001462804973117779 0.006157147825972888 0.0 0.0
0.0 0.07214544204095075 0.06258590167822373 -0.06117754465856701 -0.0014083570196567069 0.011535761317892423 0.0 0.0
0.0 0.06442139470519367 0.05569737413350537 -0.054363625735539954 -0.0013337483979653831 0.013926867139356593 0.0 0.0
0.0 0.05544115863866712 0.047761206411615215 -0.046506050046859336 -0.001255156364755899 0.014091973748361063 0.0 0.0
0.0 0.0463184035178507 0.03971834079247144 -0.038539533102022946 -0.001178807690448499 0.01293630158798844 0.0 0.0
0.0 0.03748603036963433 0.032202431021481265 -0.0310987841390833 -0.0011036468823979494 0.01123748065749262 0.0 0.0
0.0 0.02972797229017838 0.025559698753230112 -0.024529951448033806 -0.0010297473051963098 0.009466914031871084 0.0 0.0
0.0 0.023212033499671103 0.019908864658157045 -0.01895294366263255 -0.0009559209955244894 0.007877543824726222 0.0 0.0
0.0 0.017642707417256955 0.015188456288264552 -0.01430842701658358 -0.0008800292716809663 0.00651287287424927 0.0 0.0
0.0 0.013016473594733187 0.011223303102320224 -0.010426114301971797 -0.0007971888003484313 0.005251412890500887 0.0 0.0
0.0 0.00908187179146703 0.007855577944636122 -0.007157444239752304 -0.0006981337048838148 0.004005661934203923 0.0 0.0
0.0 0.005787325081775457 0.005014875534788273 -0.004445131547698284 -0.0005697439870899846 0.002798638406243289 0.0 0.0
0.0 0.003178275349193113 0.0027098089824322156 -0.0023111239679733933 -0.0003986850144588221 0.0016665325037892133 0.0 0.0
0.0 0.0013947973259798763 0.0010470163773945527 -0.0008555944281759098 -0.000191421949218643 0.0007396479792185617 0.0 0.0
0.0 0.00031221276302400484 0.0001931508163354406 -0.00015351899541794824 -3.963182091749237e-05 0.00017820498178996893 0.0 0.0
0.0 1.822527405816885e-05 1.8268138534405465e-06 -1.4959879491147348e-06 -3.3082590432574073e-07 2.4509132672299293e-06 0.0 0.0
0.0 6.92994622914334e-08 -5.86708978807203e-09 4.478351485713519e-09 1.3887383023585593e-09 -8.798859175293273e-09 0.0 0.0
0.0 0.0 0.0 0.0 0.0 0.0 0.0 0.0
0.0 0.0 0.0 0.0 0.0 0.0 0.0 0.0
0.0 0.0024491101261145455 0.0014957444701834007 -0.0018240585924366745 0.00032831412225327306 0.0020499524084920907 0.0 0.0
0.0 0.0015482301685870936 0.0009120956022311322 -0.0011478497660747037 0.00023575416384357143 -0.001306208059171636 0.0 0.0
0.0 0.0 0.0 0.0 0.0 0.0 0.0 0.0
0.0 0.0 0.0 0.0 0.0 0.0 0.0 0.0
0.0 0.0 0.0 0.0 0.0 0.0 0.0 0.0
0.0 1.0042081989473157e-05 -9.329724215854319e-07 7.201815348631364e-07 2.1279088672229382e-07 1.7612736881375419e-06 0.0 0.0
0.0 0.0001186888270801632 7.362608025202999e-05 -5.841300682382881e-05 -1.5213073428201141e-05 -0.00010640910007628849 0.0 0.0
0.0 0.0007799478319387412 0.0005557764968865671 -0.00044687180144457796 -0.00010890469544198888 -0.0005710230699722124 0.0 0.0
0.0 0.0022096023981356882 0.0017482413352542954 -0.00145803621156826 -0.00029020512368603546 -0.0014582988929141907 0.0 0.0
0.0 0.004315588584978285 0.0035980053575613525 -0.0031234470196660896 -0.00047455833789526296 -0.0026495918569860956 0.0 0.0
0.0 0.007005017501102063 0.005932758941232405 -0.0053165359719833626 -0.000616222969249042 -0.003963775701996951 0.0 0.0
0.0 0.01022067299457849 0.00868270561883506 -0.007961075203532035 -0.0007216304153030257 -0.005280905312775041 0.0 0.0
0.0 0.01400846680257025 0.011896595883823975 -0.011091067837890895 -0.0008055280459330829 -0.006605650784929159 0.0 0.0
0.0 0.01850015063173182 0.01570731488992349 -0.014829355644782022 -0.0008779592451414708 -0.00802624286203848 0.0 0.0
0.0 0.023887068746744254 0.020274992865549867 -0.019329796521256257 -0.0009451963442936072 -0.009639073085535375 0.0 0.0
0.0 0.030306516832289587 0.025693574352327372 -0.024683246048719937 -0.001010328303607437 -0.011446447171674253 0.0 0.0
0.0 0.037419978220609586 0.031911869646335925 -0.030836745598286076 -0.0010751240480498508 -0.013221425753092092 0.0 0.0
0.0 0.04533856673285024 0.03868324793524344 -0.03754314873265335 -0.0011400992025900791 -0.014467304039908584 0.0 0.0
0.0 0.05320794088670133 0.0455745159356679 -0.044368717773525426 -0.0012057981621424472 -0.014480242113163533 0.0 0.0
0.0 0.06003684075204813 0.05187499383000144 -0.05060384181867858 -0.0012711520113228322 -0.012266828451454704 0.0 0.0
0.0 0.06506570781695137 0.0565392435827988 -0.05521459868076043 -0.0013246449020383755 -0.00674819532375907 0.0 0.0
0.0 0.0650657078169463 0.05653924358279371 -0.05521459868075518 -0.001324644902038556 0.006748195323785448 0.0 0.0
0.0 0.06003684075203765 0.05187499382999032 -0.0506038418186673 -0.0012711520113230373 0.012266828451489208 0.0 0.0
0.0 0.053207940886686685 0.04557451593565305 -0.04436871777351077 -0.0012057981621422815 0.014480242113188546 0.0 0.0
0.0 0.045338566732832444 0.03868324793522667 -0.037543148732637255 -0.0011400992025893898 0.014467304039919087 0.0 0.0
0.0 0.03741997822058584 0.03191186964631541 -0.03083674559826601 -0.0010751240480493893 0.013221425753087494 0.0 0.0
0.0 0.030306516832266407 0.025693574352307152 -0.024683246048700314 -0.0010103283036068387 0.01144644717166855 0.0 0.0
0.0 0.02388706874672303 0.02027499286553103 -0.019329796521238007 -0.0009451963442930326 0.009639073085531389 0.0 0.0
0.0 0.018500150631711162 0.01570731488990529 -0.014829355644764362 -0.0008779592451409207 0.008026242862034245 0.0 0.0
0.0 0.014008466802548011 0.011896595883804918 -0.011091067837872289 -0.0008055280459326291 0.00660565078492082 0.0 0.0
0.0 0.010220672994558406 0.00868270561881791 -0.0079610752035156 -0.0007216304153023098 0.00528090531276509 0.0 0.0
0.0 0.007005017501085319 0.00593275894121825 -0.005316535971970101 -0.0006162229692481479 0.003963775701985613 0.0 0.0
0.0 0.0043155885849649285 0.003598005357549763 -0.0031234470196554553 -0.00047455833789430735 0.002649591856978523 0.0 0.0
0.0 0.0022096023981264057 0.0017482413352467383 -0.0014580362115616495 -0.00029020512368508873 0.0014582988929083916 0.0 0.0
0.0 0.0007799478319335733 0.0005557764968828517 -0.00044687180144154035 -0.00010890469544131134 0.0005710230699690086 0.0 0.0
0.0 0.00011868882707844389 7.362608025146841e-05 -5.841300682337523e-05 -1.5213073428093207e-05 0.00010640910007544185 0.0 0.0
0.0 1.0042081989081814e-05 -9.329724215460563e-07 7.201815348328094e-07 2.127908867132563e-07 -1.7612736880608109e-06 0.0 0.0
0.0 0.0 0.0 0.0 0.0 0.0 0.0 0.0
0.0 0.0 0.0 0.0 0.0 0.0 0.0 0.0
0.0 0.0 0.0 0.0 0.0 0.0 0.0 0.0
0.0 0.0015482301685794532 0.0009120956022266338 -0.0011478497660693929 0.00023575416384275934 0.0013062080591649133 0.0 0.0
0.0 0.0008796606958857988 0.0004829569044846285 -0.0006262370266043062 0.0001432801221196775 -0.000721869965133165 0.0 0.0
0.0 0.0 0.0 0.0 0.0 0.0 0.0 0.0
0.0 0.0 0.0 0.0 0.0 0.0 0.0 0.0
0.0 0.0 0.0 0.0 0.0 0.0 0.0 0.0
0.0 3.5852110714741945e-06 -1.1389949416166317e-08 -2.160021319084813e-09 1.3549970735246835e-08 -3.0156503507274394e-08 0.0 0.0
0.0 6.451199573377308e-05 1.866892191286504e-05 -1.481329435559416e-05 -3.855627557270918e-06 -3.931415259837554e-05 0.0 0.0
0.0 0.0003674506987860265 0.00022699037456277147 -0.00018071244178925953 -4.627793277351188e-05 -0.00035979124384255225 0.0 0.0
0.0 0.00131257495771137 0.000944918687040115 -0.0007697946069805064 -0.0001751240800596081 -0.0011169009688790888 0.0 0.0
0.0 0.0029133589858499793 0.0022624832486837464 -0.0019127863585277243 -0.0003496968901560214 -0.0022189413823304905 0.0 0.0
0.0 0.004999461861636183 0.004059773506739234 -0.0035536561506475527 -0.0005061173560916806 -0.0035346776579134823 0.0 0.0
0.0 0.00750578647564278 0.0061949666542681445 -0.005572746777406969 -0.0006222198768611772 -0.00488686193886592 0.0 0.0
0.0 0.010444274557395737 0.008670535103459182 -0.00795807863077646 -0.0007124564726827225 -0.006209748425937223 0.0 0.0
0.0 0.01393770845074605 0.011587740476136688 -0.01080219155417508 -0.0007855489219616026 -0.007597419291286992 0.0 0.0
0.0 0.01808112022843259 0.015089768618658806 -0.014240542482622373 -0.0008492261360364257 -0.009150297663332967 0.0 0.0
0.0 0.023066868141814235 0.01927956910757864 -0.01837318911248579 -0.0009063799950928472 -0.01086937523718962 0.0 0.0
0.0 0.02883566607804575 0.02417030546753593 -0.02320752179652541 -0.0009627836710105113 -0.012573325048750956 0.0 0.0
0.0 0.035115677210240635 0.029624406856217804 -0.0286080378397437 -0.0010163690164741016 -0.013864460218743378 0.0 0.0
0.0 0.04165709406020301 0.03538936903435489 -0.034322062818858766 -0.0010673062154961408 -0.01410017321866321 0.0 0.0
0.0 0.04796566162902949 0.0410323402136169 -0.03991134667270765 -0.0011209935409092452 -0.01231653738056077 0.0 0.0
0.0 0.05298127643340997 0.04569768101015279 -0.04452265097955593 -0.0011750300305968496 -0.007163487176223797 0.0 0.0
0.0 0.0529812764334069 0.04569768101014934 -0.044522650979552464 -0.0011750300305968567 0.007163487176247192 0.0 0.0
0.0 0.047965661629021744 0.04103234021360775 -0.03991134667269855 -0.001120993540909203 0.012316537380593347 0.0 0.0
0.0 0.04165709406019074 0.0353893690343418 -0.03432206281884564 -0.0010673062154961607 0.014100173218686651 0.0 0.0
0.0 0.03511567721022532 0.02962440685620317 -0.02860803783972924 -0.0010163690164739342 0.013864460218751838 0.0 0.0
0.0 0.02883566607802831 0.024170305467520883 -0.023207521796510658 -0.0009627836710102105 0.012573325048746288 0.0 0.0
0.0 0.0230668681417944 0.019279569107561845 -0.018373189112469143 -0.0009063799950927041 0.01086937523718217 0.0 0.0
0.0 0.018081120228415702 0.015089768618644084 -0.01424054248260798 -0.0008492261360361019 0.009150297663328484 0.0 0.0
0.0 0.013937708450731189 0.011587740476123477 -0.010802191554162562 -0.000785548921960913 0.007597419291283264 0.0 0.0
0.0 0.01044427455737991 0.008670535103445676 -0.007958078630763622 -0.0007124564726820539 0.00620974842592909 0.0 0.0
0.0 0.007505786475627335 0.006194966654255441 -0.005572746777394892 -0.0006222198768605465 0.004886861938855872 0.0 0.0
0.0 0.004999461861622535 0.004059773506728423 -0.003553656150637543 -0.0005061173560908796 0.0035346776579024373 0.0 0.0
0.0 0.002913358985840164 0.0022624832486760945 -0.001912786358520816 -0.0003496968901552772 0.002218941382324054 0.0 0.0
0.0 0.0013125749577052217 0.0009449186870356296 -0.0007697946069767867 -0.00017512408005884326 0.001116900968874747 0.0 0.0
0.0 0.00036745069878269253 0.0002269903745607793 -0.0001807124417876569 -4.627793277312216e-05 0.00035979124383986614 0.0 0.0
0.0 6.451199573251012e-05 1.8668921912677016e-05 -1.481329435544275e-05 -3.855627557234192e-06 3.931415259795754e-05 0.0 0.0
0.0 3.585211071208422e-06 -1.138994925431002e-08 -2.160021448764128e-09 1.3549970703067862e-08 3.015650397601544e-08 0.0 0.0
0.0 0.0 0.0 0.0 0.0 0.0 0.0 0.0
0.0 0.0 0.0 0.0 0.0 0.0 0.0 0.0
0.0 0.0 0.0 0.0 0.0 0.0 0.0 0.0
0.0 0.0008796606958802677 0.0004829569044817345 -0.0006262370266007639 0.00014328012211902943 0.00072186996512872 0.0 0.0
0.0 0.0004113414609403297 0.00019534440034995812 -0.0002625818735652761 6.72374732153183e-05 -0.00030099316903315146 0.0 0.0
0.0 1.266647607192392e-07 -7.072771973675951e-10 8.507483974345466e-10 -1.4347120006705642e-10 2.5171596720899338e-08 0.0 0.0
0.0 0.0 0.0 0.0 0.0 0.0 0.0 0.0
0.0 0.0 0.0 0.0 0.0 0.0 0.0 0.0
0.0 2.941446764786285e-06 -1.3952363807393717e-07 1.0592787567314353e-07 3.3595762400780106e-08 5.885360677433528e-07 0.0 0.0
0.0 3.643796901177939e-05 7.937151303418005e-06 -6.197980561053883e-06 -1.7391707423641187e-06 -2.4587851293978995e-05 0.0 0.0
0.0 0.00016946256236413396 7.403790257256558e-05 -5.871373454009565e-05 -1.5324168032469945e-05 -0.0001949014649741163 0.0 0.0
0.0 0.0006203999720748875 0.00036709838440840235 -0.00029280295870846417 -7.429542569993812e-05 -0.0006941655631964788 0.0 0.0
0.0 0.001651842450067709 0.0011072773857552223 -0.0009074596952388568 -0.00019981769051636544 -0.0015798852885329762 0.0 0.0
0.0 0.003046677654212965 0.002301156436510479 -0.001948937493201679 -0.00035221894330879984 -0.002743114478426156 0.0 0.0
0.0 0.004932532677663684 0.0037933376073922926 -0.003313069437812522 -0.000480268169579769 -0.004004696424165977 0.0 0.0
0.0 0.006999970176772384 0.005538690922424296 -0.004957148460518059 -0.000581542461906237 -0.005271165515838507 0.0 0.0
0.0 0.00946181635651671 0.007584321418069858 -0.0069214327775441965 -0.000662888640525658 -0.006572547408532846 0.0 0.0
0.0 0.012440813872485195 0.010038724752335249 -0.009309709309852457 -0.000729015442482788 -0.007971531677920127 0.0 0.0
0.0 0.016078701596004094 0.013006622929552182 -0.012222191618321072 -0.0007844313112311099 -0.009491981197958077 0.0 0.0
0.0 0.02030793564798397 0.01654818436058094 -0.015715494198755262 -0.0008326901618256772 -0.011024807125066526 0.0 0.0
0.0 0.02514296450213678 0.020632441919978196 -0.019753961125030396 -0.0008784807949477943 -0.01222936344923535 0.0 0.0
0.0 0.030228807214290415 0.025165456112660866 -0.02424905930460652 -0.0009163968080543293 -0.012647201273265697 0.0 0.0
0.0 0.03548791227085348 0.030013967638707145 -0.029062917857061388 -0.0009510497816457529 -0.011566379670843403 0.0 0.0
0.0 0.04035692724092693 0.03465383091764603 -0.03364987928037364 -0.0010039516372723903 -0.007365500557292699 0.0 0.0
0.0 0.0403569272409243 0.03465383091764289 -0.03364987928037022 -0.0010039516372726493 0.007365500557311721 0.0 0.0
0.0 0.035487912270849 0.030013967638700616 -0.029062917857054685 -0.0009510497816459267 0.011566379670871537 0.0 0.0
0.0 0.030228807214284288 0.025165456112652817 -0.024249059304598933 -0.0009163968080538872 0.012647201273286161 0.0 0.0
0.0 0.025142964502125748 0.020632441919967416 -0.019753961125020234 -0.0008784807949471873 0.012229363449240945 0.0 0.0
0.0 0.02030793564797012 0.016548184360569273 -0.01571549419874408 -0.0008326901618251868 0.011024807125061193 0.0 0.0
0.0 0.016078701595991042 0.013006622929541379 -0.01222219161831077 -0.000784431311230605 0.009491981197951672 0.0 0.0
0.0 0.01244081387247269 0.010038724752324557 -0.009309709309842004 -0.0007290154424825577 0.007971531677916473 0.0 0.0
0.0 0.009461816356505188 0.007584321418060007 -0.006921432777534627 -0.0006628886405253808 0.006572547408528433 0.0 0.0
0.0 0.00699997017676038 0.005538690922414485 -0.004957148460508872 -0.0005815424619056141 0.005271165515830887 0.0 0.0
0.0 0.004932532677653264 0.0037933376073841243 -0.003313069437805167 -0.00048026816957895586 0.00400469642415752 0.0 0.0
0.0 0.0030466776542029794 0.002301156436503158 -0.0019489374931952815 -0.00035221894330787545 0.0027431144784173314 0.0 0.0
0.0 0.0016518424500605608 0.0011072773857500032 -0.0009074596952344445 -0.00019981769051555904 0.0015798852885271844 0.0 0.0
0.0 0.0006203999720711804 0.0003670983844060518 -0.000292802958706559 -7.429542569949271e-05 0.0006941655631929626 0.0 0.0
0.0 0.00016946256236280433 7.403790257230418e-05 -5.87137345398828e-05 -1.5324168032421396e-05 0.0001949014649733391 0.0 0.0
0.0 3.64379690109223e-05 7.93715130337816e-06 -6.197980561022608e-06 -1.7391707423555306e-06 2.4587851293845943e-05 0.0 0.0
0.0 2.9414467642801842e-06 -1.3952363805020315e-07 1.0592787565476392e-07 3.359576239544616e-08 -5.885360676368125e-07 0.0 0.0
0.0 0.0 0.0 0.0 0.0 0.0 0.0 0.0
0.0 0.0 0.0 0.0 0.0 0.0 0.0 0.0
0.0 1.2666476022059354e-07 -7.072771946710994e-10 8.50748394078545e-10 -1.4347119940746084e-10 -2.5171596621278046e-08 0.0 0.0
0.0 0.0004113414609367343 0.00019534440034848054 -0.00026258187356338267 6.723747321490227e-05 0.00030099316903086314 0.0 0.0
0.0 0.00011785131227092663 5.3311546378954563e-05 -7.517538113535706e-05 2.1863834756402528e-05 -8.620088484707119e-05 0.0 0.0
0.0 1.8030073051673429e-06 -4.177191184509683e-09 1.0378638774830307e-08 -6.201447590320216e-09 3.8291760625588695e-07 0.0 0.0
0.0 8.129603515550081e-07 -9.729788138728575e-10 -5.062304710215263e-10 1.479209284894036e-09 1.6676851108718092e-07 0.0 0.0
0.0 1.3942118126280809e-06 -1.7202479833820512e-08 1.1633862331670308e-08 5.568617502153395e-09 2.882879494068393e-07 0.0 0.0
0.0 3.06879313387941e-06 -6.759005053585877e-08 5.2634993766572555e-08 1.4955056769281998e-08 6.481013615653146e-07 0.0 0.0
0.0 2.890376189869368e-05 2.776151460802917e-06 -2.209122615903981e-06 -5.670288448989402e-07 -1.603106780857631e-05 0.0 0.0
0.0 0.00011695550052577593 2.939829271715262e-05 -2.331956940087154e-05 -6.0787233162810415e-06 -0.00013852469177013236 0.0 0.0
0.0 0.0002751090597227452 0.00010580056249767421 -8.386939610242024e-05 -2.193116639525394e-05 -0.00040187185949538186 0.0 0.0
0.0 0.0006814764854363262 0.0003158761252402784 -0.00025143952509321945 -6.443660014705886e-05 -0.0008743447703673678 0.0 0.0
0.0 0.001412815913983222 0.0008168467080731194 -0.0006621332403706226 -0.00015471346770249694 -0.0016771840347310862 0.0 0.0
0.0 0.002439834598994032 0.0016081489389004758 -0.001339398276449284 -0.0002687506624511912 -0.0026796942818589466 0.0 0.0
0.0 0.0037659306349507515 0.0025878812879005096 -0.002215272431808097 -0.00037260885609241296 -0.0037564384443641895 0.0 0.0
0.0 0.005296010084346216 0.0037673210924728754 -0.0033020568701148207 -0.0004652642223580526 -0.0049194923690346745 0.0 0.0
0.0 0.007141320831936915 0.0051992709666626455 -0.004655217506452136 -0.0005440534602105077 -0.006131362631724858 0.0 0.0
0.0 0.00937989296158414 0.006959856215646294 -0.006351647222362654 -0.0006082089932836408 -0.007400333431411617 0.0 0.0
0.0 0.012088554188583078 0.009135705541070863 -0.008476696412654777 -0.0006590091284160874 -0.008688144352935315 0.0 0.0
0.0 0.015349636542196917 0.011803522599675043 -0.011102632055598334 -0.000700890544076713 -0.009797409686073854 0.0 0.0
0.0 0.019056686707016084 0.015012292097640892 -0.0142728010953346 -0.000739491002306299 -0.010283683786537453 0.0 0.0
0.0 0.023275598349382146 0.018830961907596633 -0.01807658224137086 -0.0007543796662257816 -0.009843858180263836 0.0 0.0
0.0 0.02784765229819412 0.02328203469324259 -0.02248828603375385 -0.000793748659488741 -0.007200736386620581 0.0 0.0
0.0 0.027847652298193956 0.023282034693241218 -0.022488286033752636 -0.0007937486594886022 0.007200736386636041 0.0 0.0
0.0 0.023275598349381657 0.018830961907593275 -0.01807658224136773 -0.0007543796662255388 0.009843858180287934 0.0 0.0
0.0 0.01905668670701188 0.015012292097634675 -0.014272801095328693 -0.0007394910023059804 0.010283683786553175 0.0 0.0
0.0 0.01534963654218835 0.011803522599666997 -0.011102632055590422 -0.0007008905440765724 0.009797409686076296 0.0 0.0
0.0 0.012088554188573672 0.009135705541063993 -0.008476696412648168 -0.0006590091284158215 0.008688144352928414 0.0 0.0
0.0 0.00937989296157536 0.006959856215639756 -0.006351647222356454 -0.0006082089932833 0.00740033343140525 0.0 0.0
0.0 0.007141320831931263 0.0051992709666580685 -0.004655217506447857 -0.0005440534602102092 0.006131362631721808 0.0 0.0
0.0 0.0052960100843423095 0.0037673210924692294 -0.003302056870111616 -0.00046526422235761383 0.004919492369033761 0.0 0.0
0.0 0.0037659306349445546 0.0025878812878961537 -0.0022152724318043487 -0.00037260885609180484 0.0037564384443587733 0.0 0.0
0.0 0.002439834598987423 0.001608148938896155 -0.0013393982764455306 -0.00026875066245062354 0.0026796942818522835 0.0 0.0
0.0 0.001412815913977264 0.0008168467080696558 -0.0006621332403677126 -0.000154713467701943 0.0016771840347247562 0.0 0.0
0.0 0.0006814764854333088 0.0003158761252386167 -0.00025143952509188263 -6.443660014673395e-05 0.0008743447703638513 0.0 0.0
0.0 0.00027510905972116237 0.0001058005624971699 -8.386939610203323e-05 -2.1931166395136667e-05 0.00040187185949377817 0.0 0.0
0.0 0.00011695550052451381 2.9398292716937e-05 -2.3319569400696242e-05 -6.078723316240736e-06 0.00013852469176909804 0.0 0.0
0.0 2.8903761898098103e-05 2.776151460788314e-06 -2.209122615891158e-06 -5.67028844897144e-07 1.6031067808522844e-05 0.0 0.0
0.0 3.06879313360431e-06 -6.759005046401972e-08 5.263499371406648e-08 1.4955056749951366e-08 -6.48101361052487e-07 0.0 0.0
0.0 1.3942118121365584e-06 -1.7202479827439693e-08 1.1633862327329383e-08 5.568617500112952e-09 -2.8828794930130727e-07 0.0 0.0
0.0 8.12960351106587e-07 -9.729788137991681e-10 -5.062304704954294e-10 1.479209284295063e-09 -1.667685109932312e-07 0.0 0.0
0.0 1.8030073045943297e-06 -4.1771911826671024e-09 1.0378638770354691e-08 -6.201447587687759e-09 -3.8291760613307903e-07 0.0 0.0
0.0 0.00011785131226919322 5.331154637855445e-05 -7.517538113478608e-05 2.186383475623158e-05 8.620088484657059e-05 0.0 0.0
0.0 1.5757778187895127e-05 3.8725281585080305e-06 -5.6336964500520565e-06 1.761168291544033e-06 -6.81310237588889e-06 0.0 0.0
0.0 2.1979396482406107e-06 1.1868574056845524e-09 1.0883559240507842e-08 -1.207041664619258e-08 4.588111399241068e-07 0.0 0.0
0.0 8.28283976103979e-07 8.757322001854407e-09 -7.994197467743662e-09 -7.631245341108108e-10 1.6872916499049268e-07 0.0 0.0
0.0 1.0341171999299922e-06 3.4830124123105497e-09 -4.631541757330647e-09 1.1485293450206947e-09 2.129476539670559e-07 0.0 0.0
0.0 5.455561020512527e-06 -1.877319191668789e-08 9.400339741409076e-09 9.372852175272426e-09 1.2338249442580408e-06 0.0 0.0
0.0 2.5253548972894165e-05 9.376908338830757e-07 -7.278903753193176e-07 -2.0980045856374773e-07 -1.8596325438540746e-05 0.0 0.0
0.0 9.385849932341624e-05 8.96149636671406e-06 -7.080590952786471e-06 -1.88090541392759e-06 -0.00013324554662465384 0.0 0.0
0.0 0.00023183451253746228 2.630828370386314e-05 -2.0834845162126083e-05 -5.473438541737029e-06 -0.0003099002630561842 0.0 0.0
0.0 0.0003863204675465955 6.261401935466439e-05 -4.97531497542283e-05 -1.2860869600436135e-05 -0.0005942637789721762 0.0 0.0
0.0 0.0006661565551011743 0.00012308406681465695 -9.837665294603717e-05 -2.470741386861975e-05 -0.0009708817400038678 0.0 0.0
0.0 0.000938549149762129 0.0002297074016047227 -0.00018449245539540565 -4.521494620931711e-05 -0.001547617199627987 0.0 0.0
0.0 0.0014181390978629 0.0004088572598269696 -0.0003279317528548324 -8.09255069721371e-05 -0.0022597440039628445 0.0 0.0
0.0 0.0020520163312608775 0.0006783164281119209 -0.0005451997088527934 -0.00013311671925912762 -0.0031358439756043557 0.0 0.0
0.0 0.0028688982826483344 0.001031660058676191 -0.0008370611527783944 -0.0001945989058977964 -0.004180689897932409 0.0 0.0
0.0 0.003880325842208603 0.0015297786334331522 -0.0012696109388981261 -0.0002601676945350259 -0.005415736534945397 0.0 0.0
0.0 0.005220624063468916 0.0022873883956135914 -0.001965412053219111 -0.0003219763423944785 -0.006750871640306266 0.0 0.0
0.0 0.006913488766002988 0.0034682753287639187 -0.0030916640809857134 -0.0003766112477782025 -0.007949494634512886 0.0 0.0
0.0 0.00905077785610612 0.005289245630551841 -0.0048527241373908445 -0.0004365214931609958 -0.008541884571035968 0.0 0.0
0.0 0.011756934519921162 0.007870162078150774 -0.007375753458576963 -0.000494408619573809 -0.008133376781491971 0.0 0.0
0.0 0.015527979872566135 0.011615848667475788 -0.011134399433783939 -0.0004814492336918452 -0.006838301327157083 0.0 0.0
0.0 0.015527979872568473 0.011615848667476676 -0.011134399433784851 -0.0004814492336918207 0.006838301327168301 0.0 0.0
0.0 0.011756934519923568 0.007870162078149728 -0.007375753458576093 -0.0004944086195736317 0.008133376781510744 0.0 0.0
0.0 0.009050777856103356 0.0052892456305480345 -0.004852724137387019 -0.0004365214931610116 0.008541884571044212 0.0 0.0
0.0 0.006913488765999218 0.0034682753287610998 -0.003091664080983068 -0.00037661124777803117 0.00794949463451258 0.0 0.0
0.0 0.005220624063464039 0.0022873883956114087 -0.0019654120532170243 -0.0003219763423943826 0.006750871640300006 0.0 0.0
0.0 0.003880325842204874 0.0015297786334314406 -0.0012696109388966013 -0.0002601676945348389 0.0054157365349407245 0.0 0.0
0.0 0.0028688982826460176 0.001031660058675306 -0.0008370611527776772 -0.00019459890589762906 0.004180689897929541 0.0 0.0
0.0 0.002052016331259062 0.000678316428111432 -0.0005451997088524814 -0.00013311671925895027 0.0031358439756017796 0.0 0.0
0.0 0.0014181390978597861 0.0004088572598261163 -0.0003279317528541386 -8.092550697197756e-05 0.0022597440039580892 0.0 0.0
0.0 0.000938549149759332 0.00022970740160393126 -0.00018449245539474947 -4.5214946209181805e-05 0.0015476171996232197 0.0 0.0
0.0 0.0006661565550979678 0.00012308406681420933 -9.837665294562869e-05 -2.4707413868580614e-05 0.0009708817399993943 0.0 0.0
0.0 0.00038632046754576133 6.261401935457226e-05 -4.9753149754179045e-05 -1.2860869600393153e-05 0.0005942637789710199 0.0 0.0
0.0 0.000231834512536456 2.63082837037446e-05 -2.0834845162032445e-05 -5.473438541712148e-06 0.00030990026305474655 0.0 0.0
0.0 9.385849932249533e-05 8.961496366648031e-06 -7.080590952730545e-06 -1.880905413917476e-06 0.00013324554662366668 0.0 0.0
0.0 2.5253548972361205e-05 9.376908338819971e-07 -7.278903753180636e-07 -2.0980045856393773e-07 1.8596325438526814e-05 0.0 0.0
0.0 5.4555610200182124e-06 -1.87731919147807e-08 9.400339740515117e-09 9.372852174262189e-09 -1.2338249441362645e-06 0.0 0.0
0.0 1.0341171994111593e-06 3.4830124097744975e-09 -4.63154175459075e-09 1.1485293448161685e-09 -2.1294765385734702e-07 0.0 0.0
0.0 8.282839756553083e-07 8.757321996808003e-09 -7.99419746324245e-09 -7.631245335657651e-10 -1.687291648967851e-07 0.0 0.0
0.0 2.1979396476663126e-06 1.1868574058352821e-09 1.0883559236708018e-08 -1.2070416642541689e-08 -4.588111397997392e-07 0.0 0.0
0.0 1.575777818737097e-05 3.8725281585925085e-06 -5.633696450175381e-06 1.7611682915828227e-06 6.813102376067407e-06 0.0 0.0
0.0 1.746363269014452e-06 -1.080716133846742e-07 1.601080298073669e-07 -5.203641642269867e-08 2.3480853834527648e-07 0.0 0.0
0.0 1.7796170291698353e-06 6.777231581667589e-09 2.818520896233413e-09 -9.595752477896557e-09 3.8083891622846305e-07 0.0 0.0
0.0 1.006612653282911e-06 1.8800037151531995e-08 -1.6160969127413305e-08 -2.6390680241173787e-09 2.0557945423080885e-07 0.0 0.0
0.0 1.3830639415008088e-06 2.5459537940910303e-08 -2.257136934973081e-08 -2.8881685911793595e-09 2.8364822182210734e-07 0.0 0.0
0.0 6.329568723119171e-06 1.2100159608371412e-07 -9.95749289913299e-08 -2.1426667092374816e-08 1.450807040856032e-06 0.0 0.0
0.0 2.878375831775711e-05 -1.0838724911046185e-06 8.938870957314401e-07 1.8998539537317222e-07 -1.669169117317947e-05 0.0 0.0
0.0 9.577178059486053e-05 -9.476281059427712e-06 7.578453992063705e-06 1.8978270673639911e-06 -0.00013405513429606676 0.0 0.0
0.0 0.00023216092215986323 -2.629419495878754e-05 2.0820935209680484e-05 5.47325974910701e-06 -0.0003102925467863352 0.0 0.0
0.0 0.0003860741276079903 -6.230709228826987e-05 4.948485459608308e-05 1.2822237692186778e-05 -0.0005942109144835073 0.0 0.0
0.0 0.0006648046077661567 -0.0001225900227332699 9.792585798568336e-05 2.4664164747586558e-05 -0.0009694182820453945 0.0 0.0
0.0 0.0009409763095760462 -0.00022375697264934939 0.00018049435682725338 4.326261582209594e-05 -0.0015422790110840847 0.0 0.0
0.0 0.0014201933974041091 -0.000411389535370117 0.0003304670836709561 8.092245169916082e-05 -0.0022605809671146487 0.0 0.0
0.0 0.0020601506621046074 -0.0006890639904628443 0.0005549010613171442 0.0001341629291456999 -0.003138050933797318 0.0 0.0
0.0 0.002882435771320341 -0.0010511509582252672 0.00085297298745649 0.00019817797076877712 -0.004186043329888204 0.0 0.0
0.0 0.0038668973722984583 -0.0015087109954665927 0.0012411304005031185 0.00026758059496347346 -0.00542316026560041 0.0 0.0
0.0 0.0050014302391925905 -0.001960112159795273 0.0016262438907941228 0.0003338682690011484 -0.006804853404266604 0.0 0.0
0.0 0.0060429952053764335 -0.0021645806920756543 0.001779854649637966 0.0003847260424376873 -0.008320479680121791 0.0 0.0
0.0 0.0068256409635563675 -0.0018416424233133578 0.0014219429078049925 0.00041969951550836456 -0.009949995601402598 0.0 0.0
0.0 0.007157851512485189 -0.0009305653726869073 0.0006152728590047068 0.0003152925136822001 -0.011249913951453881 0.0 0.0
0.0 0.0066939055394968985 0.0015496118495914152 -0.0016385200097906926 8.890816019927692e-05 -0.009799861862343323 0.0 0.0
0.0 0.006693905539500484 0.0015496118495914105 -0.0016385200097907664 8.890816019935536e-05 0.009799861862351772 0.0 0.0
0.0 0.007157851512489108 -0.0009305653726874473 0.0006152728590050992 0.0003152925136823471 0.011249913951462144 0.0 0.0
0.0 0.006825640963555646 -0.001841642423313089 0.0014219429078050488 0.00041969951550803887 0.009949995601403545 0.0 0.0
0.0 0.00604299520537095 -0.002164580692072635 0.0017798546496352614 0.0003847260424373738 0.00832047968011752 0.0 0.0
0.0 0.005001430239185058 -0.001960112159790828 0.0016262438907899547 0.000333868269000873 0.006804853404259242 0.0 0.0
0.0 0.003866897372294023 -0.0015087109954646234 0.0012411304005015274 0.0002675805949630951 0.0054231602655951255 0.0 0.0
0.0 0.0028824357713157223 -0.0010511509582229444 0.0008529729874547204 0.00019817797076822404 0.004186043329883816 0.0 0.0
0.0 0.0020601506621013375 -0.00068906399046067 0.0005549010613153943 0.00013416292914527546 0.0031380509337941643 0.0 0.0
0.0 0.0014201933973996238 -0.00041138953536805475 0.00033046708366924393 8.092245169881077e-05 0.0022605809671088703 0.0 0.0
0.0 0.0009409763095726777 -0.0002237569726481689 0.00018049435682630045 4.326261582186843e-05 0.0015422790110791883 0.0 0.0
0.0 0.0006648046077624586 -0.0001225900227325264 9.792585798503104e-05 2.4664164747495326e-05 0.0009694182820410018 0.0 0.0
0.0 0.00038607412760700003 -6.230709228797162e-05 4.948485459584277e-05 1.282223769212884e-05 0.0005942109144821709 0.0 0.0
0.0 0.0002321609221587769 -2.6294194958613827e-05 2.0820935209535394e-05 5.473259749078425e-06 0.0003102925467850197 0.0 0.0
0.0 9.577178059400735e-05 -9.476281059363114e-06 7.578453992023605e-06 1.8978270673394998e-06 0.00013405513429520113 0.0 0.0
0.0 2.8783758317128562e-05 -1.0838724911048472e-06 8.938870957346032e-07 1.899853953702555e-07 1.6691691173205166e-05 0.0 0.0
0.0 6.329568722502479e-06 1.210015960720766e-07 -9.957492898152986e-08 -2.142666709055061e-08 -1.4508070407032778e-06 0.0 0.0
0.0 1.38306394101384e-06 2.5459537931086613e-08 -2.257136934122153e-08 -2.8881685898646692e-09 -2.8364822171881803e-07 0.0 0.0
0.0 1.0066126526757192e-06 1.8800037139368483e-08 -1.616096911716342e-08 -2.639068022204588e-09 -2.0557945410441137e-07 0.0 0.0
0.0 1.7796170285604457e-06 6.777231579867834e-09 2.8185208935578717e-09 -9.595752473420792e-09 -3.808389160997736e-07 0.0 0.0
0.0 1.7463632684856744e-06 -1.0807161335057875e-07 1.601080297566021e-07 -5.2036416406020456e-08 -2.3480853827189452e-07 0.0 0.0
0.0 0.0 0.0 0.0 0.0 0.0 0.0 0.0
0.0 3.3206270015814023e-07 3.228124362425176e-09 -1.4545472289870203e-09 -1.773577133437446e-09 6.641880132428198e-08 0.0 0.0
0.0 1.1358547083526696e-06 2.9199022431040485e-08 -2.4414515400477513e-08 -4.784507030563987e-09 2.311035997749412e-07 0.0 0.0
0.0 4.433390297608247e-06 1.6015753021184142e-07 -1.3149237797340506e-07 -2.8665152238422848e-08 9.6169292488308e-07 0.0 0.0
0.0 6.9184966054239436e-06 -9.488991076670692e-08 1.0244120034026168e-07 -7.551289573546981e-09 -9.63562632953488e-07 0.0 0.0
0.0 3.5301246633346836e-05 -5.698412149094736e-06 4.494299666151988e-06 1.2041124829427108e-06 -2.9085716029177495e-05 0.0 0.0
0.0 0.00012346866223042266 -3.035898009624835e-05 2.417763664156815e-05 6.181343454680193e-06 -0.0001413835212408103 0.0 0.0
0.0 0.0002764991999483238 -0.00010598089811413421 8.401797359444304e-05 2.1962924519691134e-05 -0.0004028733176595292 0.0 0.0
0.0 0.0006792521505342356 -0.00031523550199313714 0.0002508691621017518 6.43663398913853e-05 -0.0008734816656231817 0.0 0.0
0.0 0.0014102067420066556 -0.0008155524303232672 0.0006610236253692561 0.00015452880495401086 -0.0016757548999212547 0.0 0.0
0.0 0.002439440143647025 -0.0016081331240161514 0.0013395520806369415 0.0002685810433792094 -0.0026797781931132752 0.0 0.0
0.0 0.0037707115281020967 -0.002593230433105864 0.0022208191977864614 0.00037241123531940243 -0.003756157411881531 0.0 0.0
0.0 0.005312989389705955 -0.0037862863549952587 0.0033211336420687185 0.00046515271292653794 -0.004911800782837823 0.0 0.0
0.0 0.007173821351395786 -0.0052327196083837065 0.0046864596961824646 0.0005462599122012414 -0.0061202382639650565 0.0 0.0
0.0 0.009374571321992254 -0.006937895041965703 0.006319845191436466 0.0006180498505292348 -0.007446775812117328 0.0 0.0
0.0 0.011799593796333115 -0.008777183627776087 0.008095851015881273 0.0006813326118948108 -0.008983687363877998 0.0 0.0
0.0 0.014154514882683418 -0.010428720546093898 0.009690590411227606 0.0007381301348662942 -0.010767526752793268 0.0 0.0
0.0 0.015847170225422976 -0.011380064287721179 0.010594934750090561 0.0007851295376306207 -0.012687154148412667 0.0 0.0
0.0 0.01553776437889001 -0.01070534054506724 0.009834522535329203 0.0008708180097380335 -0.01344558720830255 0.0 0.0
0.0 0.011535158402893049 -0.00688921406866691 0.0060012692750087875 0.0008879447936581222 -0.010990531708807212 0.0 0.0
0.0 0.011535158402897734 -0.006889214068667875 0.006001269275009682 0.000887944793658192 0.010990531708819924 0.0 0.0
0.0 0.015537764378893416 -0.010705340545066078 0.009834522535328035 0.0008708180097380367 0.013445587208321442 0.0 0.0
0.0 0.015847170225420478 -0.011380064287716662 0.01059493475008621 0.000785129537630448 0.012687154148423942 0.0 0.0
0.0 0.014154514882674704 -0.010428720546086262 0.009690590411220303 0.0007381301348659595 0.010767526752791901 0.0 0.0
0.0 0.011799593796322706 -0.008777183627767665 0.008095851015873408 0.0006813326118942592 0.008983687363871293 0.0 0.0
0.0 0.009374571321983325 -0.006937895041958395 0.006319845191429584 0.0006180498505288109 0.007446775812112365 0.0 0.0
0.0 0.007173821351386302 -0.0052327196083763 0.004686459696175499 0.0005462599122008007 0.006120238263959053 0.0 0.0
0.0 0.005312989389696575 -0.0037862863549871636 0.0033211336420611495 0.00046515271292601156 0.004911800782833363 0.0 0.0
0.0 0.0037707115280909117 -0.002593230433097559 0.0022208191977789054 0.00037241123531865324 0.0037561574118733982 0.0 0.0
0.0 0.0024394401436370005 -0.001608133124009235 0.0013395520806309068 0.00026858104337832805 0.0026797781931046805 0.0 0.0
0.0 0.0014102067419983595 -0.0008155524303179657 0.000661023625364867 0.00015452880495309829 0.001675754899913188 0.0 0.0
0.0 0.0006792521505303847 -0.0003152355019908179 0.00025086916209986036 6.436633989095745e-05 0.0008734816656190006 0.0 0.0
0.0 0.000276499199946707 -0.00010598089811350155 8.401797359393622e-05 2.1962924519565326e-05 0.0004028733176577575 0.0 0.0
0.0 0.00012346866222904588 -3.0358980096006425e-05 2.4177636641378995e-05 6.181343454627371e-06 0.00014138352123974985 0.0 0.0
0.0 3.5301246632620854e-05 -5.698412149057153e-06 4.494299666121766e-06 1.2041124829353901e-06 2.9085716028992226e-05 0.0 0.0
0.0 6.9184966050619674e-06 -9.488991082901684e-08 1.0244120039361951e-07 -7.551289564619558e-09 9.635626333658169e-07 0.0 0.0
0.0 4.433390297146278e-06 1.6015753019507324e-07 -1.3149237795953612e-07 -2.8665152235533242e-08 -9.61692924777465e-07 0.0 0.0
0.0 1.1358547078605477e-06 2.919902241766033e-08 -2.441451538947173e-08 -4.7845070281886985e-09 -2.3110359967327132e-07 0.0 0.0
0.0 3.3206269971330245e-07 3.2281243589135146e-09 -1.4545472286881782e-09 -1.7735771302251563e-09 -6.64188012348373e-08 0.0 0.0
0.0 0.0 0.0 0.0 0.0 0.0 0.0 0.0
0.0 0.0 0.0 0.0 0.0 0.0 0.0 0.0
0.0 3.514827227909665e-07 4.949457227588909e-09 -3.035179226646225e-09 -1.914278000941817e-09 7.106311338534543e-08 0.0 0.0
0.0 2.3595770756542535e-06 8.103527067074457e-08 -6.628456757845172e-08 -1.4750703092293867e-08 4.821090557083344e-07 0.0 0.0
0.0 6.5906872819304125e-06 3.108815427979235e-07 -2.5702362177301864e-07 -5.385792102489637e-08 1.4093816020137892e-06 0.0 0.0
0.0 1.1159494863480729e-05 -1.1487820744607856e-06 9.00571425760292e-07 2.482106487005032e-07 -3.746299883601798e-06 0.0 0.0
0.0 4.989543943104077e-05 -1.2206061157187751e-05 9.793941483350234e-06 2.4121196738374965e-06 -3.861239449491906e-05 0.0 0.0
0.0 0.00018181291690412614 -7.773757763493333e-05 6.170955347577387e-05 1.6028024159159455e-05 -0.00020232590097208196 0.0 0.0
0.0 0.0006220069210557959 -0.00036744374664025343 0.000293109933859861 7.433381278039233e-05 -0.0006952192661808924 0.0 0.0
0.0 0.0016472592493346435 -0.001104984093581669 0.0009053931292269291 0.00019959096435473965 -0.001576639850085622 0.0 0.0
0.0 0.0030440118533896767 -0.0022999921302658366 0.0019478178262045643 0.00035217430406127184 -0.0027411832897220366 0.0 0.0
0.0 0.004933139829295153 -0.003794112435148587 0.0033138897440494934 0.0004802226910990947 -0.004005051609044746 0.0 0.0
0.0 0.007003338175567577 -0.005542392820924559 0.0049612730235361205 0.0005811197973884388 -0.005267474113042566 0.0 0.0
0.0 0.009469290155691258 -0.007597688754858645 0.006935692090659721 0.0006619966641989209 -0.006544693652383662 0.0 0.0
0.0 0.012455887072447522 -0.010066509264304248 0.009336583676655913 0.0007299255876483351 -0.007909287079519637 0.0 0.0
0.0 0.01607093752150387 -0.012998473978045133 0.012205956458899592 0.000792517519145542 -0.009499007015151842 0.0 0.0
0.0 0.02010737034588947 -0.016271338910880142 0.015417402386362727 0.000853936524517415 -0.01151085648593274 0.0 0.0
0.0 0.02425498658836297 -0.01948308622350772 0.01856706481127019 0.0009160214122375275 -0.014106810105207267 0.0 0.0
0.0 0.027302213882847468 -0.021818509641476195 0.020822305624519585 0.0009962040169566103 -0.016882698605771348 0.0 0.0
0.0 0.027692197909158785 -0.021781525906280876 0.020685644411707366 0.0010958814945735132 -0.018281629133787503 0.0 0.0
0.0 0.02184571975269261 -0.01695966260355318 0.01571251948170914 0.0012471431218440345 -0.014987149337589505 0.0 0.0
0.0 0.021845719752694955 -0.016959662603552167 0.015712519481707432 0.001247143121844729 0.014987149337606868 0.0 0.0
0.0 0.027692197909160908 -0.021781525906278444 0.02068564441170482 0.001095881494573609 0.01828162913381058 0.0 0.0
0.0 0.02730221388284223 -0.02181850964146855 0.020822305624512226 0.0009962040169563154 0.0168826986057874 0.0 0.0
0.0 0.024254986588350118 -0.019483086223495958 0.01856706481125888 0.0009160214122370749 0.014106810105207835 0.0 0.0
0.0 0.020107370345872934 -0.016271338910866236 0.015417402386348904 0.0008539365245173298 0.011510856485926563 0.0 0.0
0.0 0.016070937521487406 -0.012998473978031527 0.012205956458885905 0.0007925175191456165 0.009499007015144525 0.0 0.0
0.0 0.012455887072432378 -0.010066509264291732 0.009336583676643693 0.0007299255876480365 0.007909287079511806 0.0 0.0
0.0 0.009469290155676236 -0.007597688754845687 0.006935692090647328 0.0006619966641983567 0.006544693652377461 0.0 0.0
0.0 0.007003338175552586 -0.005542392820912314 0.004961273023524537 0.000581119797387774 0.00526747411303349 0.0 0.0
0.0 0.004933139829279922 -0.003794112435136467 0.0033138897440381835 0.0004802226910982824 0.004005051609033766 0.0 0.0
0.0 0.0030440118533754086 -0.0022999921302550683 0.0019478178261947646 0.00035217430406030414 0.002741183289710687 0.0 0.0
0.0 0.0016472592493265974 -0.0011049840935756314 0.0009053931292217004 0.00019959096435393127 0.0015766398500791155 0.0 0.0
0.0 0.0006220069210517566 -0.0003674437466376812 0.00029310993385780803 7.433381277987324e-05 0.0006952192661773987 0.0 0.0
0.0 0.0001818129169020324 -7.773757763439822e-05 6.170955347534459e-05 1.6028024159053586e-05 0.00020232590097072584 0.0 0.0
0.0 4.989543942975649e-05 -1.2206061157162977e-05 9.79394148333101e-06 2.4121196738319183e-06 3.861239449483215e-05 0.0 0.0
0.0 1.1159494863148748e-05 -1.1487820745496294e-06 9.005714258310614e-07 2.4821064871852497e-07 3.7462998839244405e-06 0.0 0.0
0.0 6.590687281374371e-06 3.1088154276881837e-07 -2.570236217490074e-07 -5.385792101982278e-08 -1.4093816018841068e-06 0.0 0.0
0.0 2.3595770750547986e-06 8.103527064889636e-08 -6.628456756069521e-08 -1.4750703088195763e-08 -4.821090555798598e-07 0.0 0.0
0.0 3.5148272258278746e-07 4.949457224581214e-09 -3.0351792247973143e-09 -1.914277999783761e-09 -7.106311334223886e-08 0.0 0.0
0.0 0.0 0.0 0.0 0.0 0.0 0.0 0.0
0.0 0.0 0.0 0.0 0.0 0.0 0.0 0.0
0.0 0.0 0.0 0.0 0.0 0.0 0.0 0.0
0.0 1.762862297087584e-06 7.425115861487428e-08 -6.029149643128876e-08 -1.3959662183589334e-08 3.448992119798501e-07 0.0 0.0
0.0 4.567888438468323e-06 2.816642514112822e-07 -2.2557908395482e-07 -5.6085167456466286e-08 9.161147982519621e-07 0.0 0.0
0.0 1.5140813058958092e-05 -8.217799079720132e-07 7.040287712925109e-07 1.1775113667953371e-07 -2.291622091886533e-06 0.0 0.0
0.0 7.631152169371753e-05 -2.9960982581785583e-05 2.3801010544971402e-05 6.159972036814181e-06 -6.354944149738932e-05 0.0 0.0
0.0 0.00038721479349219283 -0.00023172470809412017 0.0001848947308180976 4.682997727602277e-05 -0.00036832536423696656 0.0 0.0
0.0 0.0013119987320804798 -0.0009433856675775125 0.0007685549121625084 0.00017483075541500432 -0.001115571554284917 0.0 0.0
0.0 0.002908556009031067 -0.002259842631172568 0.0019102581368308598 0.00034958449434170885 -0.0022143552889154045 0.0 0.0
0.0 0.004996136693023078 -0.004059826137765444 0.003553605616495393 0.0005062205212700507 -0.0035331055657168743 0.0 0.0
0.0 0.007507681191704086 -0.006196473735438559 0.00557428216124744 0.0006221915741911176 -0.004887950900179578 0.0 0.0
0.0 0.01044418327774041 -0.00867121535689769 0.007959075146024886 0.0007121402108728027 -0.006204600541082076 0.0 0.0
0.0 0.013930312730244893 -0.011588350163377188 0.010803744277940376 0.0007846058854368116 -0.007554336969016262 0.0 0.0
0.0 0.018067868749603963 -0.015097523150169231 0.014248650790142354 0.0008488723600268795 -0.009032498263087543 0.0 0.0
0.0 0.023057393516268114 -0.019283694362071946 0.018372946826684722 0.0009107475353872139 -0.010794850277625825 0.0 0.0
0.0 0.028781981041932525 -0.024038812578931926 0.02306089556227432 0.000977917016657608 -0.013138669974253656 0.0 0.0
0.0 0.034607403475279165 -0.02883691351791532 0.027779375542997288 0.001057537974918021 -0.01629119932951172 0.0 0.0
0.0 0.03921721837682004 -0.03247737495909936 0.0313178322504457 0.0011595427086536516 -0.01980018846486746 0.0 0.0
0.0 0.03998401810249689 -0.032861325582450536 0.0315681756226456 0.0012931499598049232 -0.021837475523911958 0.0 0.0
0.0 0.03263228393078633 -0.0266665109001951 0.025190581737150934 0.001475929163044164 -0.01888531405539849 0.0 0.0
0.0 0.03263228393079367 -0.026666510900197435 0.02519058173715374 0.0014759291630436937 0.01888531405542204 0.0 0.0
0.0 0.03998401810249852 -0.03286132558244745 0.031568175622642795 0.0012931499598046563 0.02183747552394092 0.0 0.0
0.0 0.03921721837681 -0.03247737495908748 0.031317832250433886 0.0011595427086535798 0.019800188464887306 0.0 0.0
0.0 0.03460740347526198 -0.028836913517899347 0.027779375542981696 0.0010575379749176445 0.016291199329515706 0.0 0.0
0.0 0.028781981041912975 -0.024038812578914843 0.023060895562258012 0.0009779170166568283 0.013138669974248254 0.0 0.0
0.0 0.023057393516249552 -0.01928369436205591 0.01837294682666926 0.0009107475353866469 0.010794850277619766 0.0 0.0
0.0 0.018067868749585485 -0.015097523150153511 0.014248650790127118 0.0008488723600263898 0.009032498263079952 0.0 0.0
0.0 0.013930312730223954 -0.011588350163359285 0.01080374427792275 0.0007846058854365343 0.007554336969009305 0.0 0.0
0.0 0.010444183277719944 -0.008671215356880283 0.007959075146008061 0.0007121402108722192 0.006204600541071964 0.0 0.0
0.0 0.0075076811916845 -0.006196473735422391 0.005574282161231948 0.0006221915741904433 0.004887950900167514 0.0 0.0
0.0 0.004996136693005618 -0.0040598261377513736 0.003553605616482231 0.0005062205212691415 0.0035331055657042264 0.0 0.0
0.0 0.0029085560090187992 -0.0022598426311628284 0.0019102581368222033 0.00034958449434062514 0.0022143552889078042 0.0 0.0
0.0 0.0013119987320726104 -0.0009433856675715221 0.0007685549121575325 0.0001748307554139896 0.0011155715542791721 0.0 0.0
0.0 0.0003872147934887518 -0.00023172470809226862 0.00018489473081661698 4.682997727565162e-05 0.00036832536423426544 0.0 0.0
0.0 7.631152169232673e-05 -2.9960982581694995e-05 2.380101054489994e-05 6.159972036795105e-06 6.354944149719525e-05 0.0 0.0
0.0 1.5140813058290512e-05 -8.217799080430011e-07 7.040287713486638e-07 1.1775113669429647e-07 2.291622092070124e-06 0.0 0.0
0.0 4.567888437996252e-06 2.8166425138205025e-07 -2.255790839313278e-07 -5.6085167450732297e-08 -9.161147981532237e-07 0.0 0.0
0.0 1.7628622966370727e-06 7.425115859493936e-08 -6.029149641515662e-08 -1.3959662179784548e-08 -3.4489921188806817e-07 0.0 0.0
0.0 0.0 0.0 0.0 0.0 0.0 0.0 0.0
0.0 0.0 0.0 0.0 0.0 0.0 0.0 0.0
0.0 0.0 0.0 0.0 0.0 0.0 0.0 0.0
0.0 0.0 0.0 0.0 0.0 0.0 0.0 0.0
0.0 6.301117771691601e-07 3.177133557320747e-08 -2.5610055499987776e-08 -6.161280073216576e-09 1.139376708674144e-07 0.0 0.0
0.0 6.9346823109825144e-06 5.042347017098303e-07 -4.065067840334973e-07 -9.772791767633461e-08 1.3113344896096305e-06 0.0 0.0
0.0 2.5212619995950892e-05 2.4747268596932223e-06 -1.951196794361913e-06 -5.235300653313059e-07 4.953316836308696e-06 0.0 0.0
0.0 0.00015299910344524333 -8.519642767635593e-05 6.789476780523954e-05 1.7301659871116417e-05 -0.00012273301867350088 0.0 0.0
0.0 0.0007972951422111818 -0.0005608634561927298 0.0004517567327768494 0.00010910672341588028 -0.0005806382837586336 0.0 0.0
0.0 0.0022071998499667597 -0.0017452210022866172 0.0014554368312120229 0.0002897841710745931 -0.001455654083034712 0.0 0.0
0.0 0.00431210604196484 -0.003596300780189628 0.00312161563974867 0.00047468514044095766 -0.002643780541786735 0.0 0.0
0.0 0.007005867347496496 -0.005934008548090644 0.005317643913325731 0.00061636463476491 -0.00396182324845521 0.0 0.0
0.0 0.010222824669921516 -0.008684637765002452 0.007963001019648423 0.0007216367453540306 -0.0052814880105228595 0.0 0.0
0.0 0.014004137787898281 -0.01189357843119211 0.01108810435872171 0.0008054740724703981 -0.00659957509437459 0.0 0.0
0.0 0.018474179127752427 -0.015690763523302603 0.014813431857965617 0.0008773316653369794 -0.007976560650565557 0.0 0.0
0.0 0.02383777539933282 -0.020250112157787433 0.01930665552107951 0.0009434566367079241 -0.009487689511694439 0.0 0.0
0.0 0.030292133822715776 -0.02569936926591695 0.024689911884491583 0.001009457381425368 -0.01129138170736632 0.0 0.0
0.0 0.03750890360208703 -0.03193833815238413 0.030853474726609067 0.0010848634257750577 -0.013690776445064813 0.0 0.0
0.0 0.04520389441510158 -0.03829821347349095 0.03711600307799924 0.0011822103954917166 -0.016969234827231117 0.0 0.0
0.0 0.05123109507929637 -0.04318463358369315 0.04187501119644587 0.0013096223872472764 -0.02089244360762904 0.0 0.0
0.0 0.05225379897020219 -0.04381911217773567 0.042349281995698845 0.0014698301820368017 -0.023755352933946768 0.0 0.0
0.0 0.043444396696406956 -0.03614548014552839 0.03449230080873333 0.001653179336795059 -0.022512033868474172 0.0 0.0
0.0 0.04344439669640841 -0.036145480145525946 0.034492300808730864 0.0016531793367950663 0.022512033868498177 0.0 0.0
0.0 0.05225379897019915 -0.043819112177729 0.04234928199569253 0.001469830182036459 0.023755352933975946 0.0 0.0
0.0 0.0512310950792866 -0.043184633583681596 0.04187501119643507 0.0013096223872465238 0.02089244360765146 0.0 0.0
0.0 0.04520389441508174 -0.038298213473472335 0.037116003077981456 0.0011822103954908447 0.016969234827237323 0.0 0.0
0.0 0.03750890360206252 -0.03193833815236262 0.03085347472658829 0.0010848634257743283 0.013690776445060292 0.0 0.0
0.0 0.030292133822693273 -0.025699369265897075 0.024689911884472556 0.0010094573814245218 0.011291381707361641 0.0 0.0
0.0 0.023837775399307363 -0.020250112157765468 0.019306655521057942 0.0009434566367075278 0.00948768951168593 0.0 0.0
0.0 0.018474179127726552 -0.01569076352328 0.014813431857943619 0.000877331665336381 0.007976560650558467 0.0 0.0
0.0 0.014004137787872403 -0.011893578431169626 0.011088104358699922 0.0008054740724697049 0.006599575094365004 0.0 0.0
0.0 0.010222824669898036 -0.008684637764982548 0.007963001019629132 0.0007216367453534136 0.005281488010510638 0.0 0.0
0.0 0.007005867347476245 -0.00593400854807335 0.005317643913309229 0.0006163646347641203 0.003961823248442624 0.0 0.0
0.0 0.004312106041949082 -0.0035963007801762007 0.00312161563973625 0.00047468514043995033 0.002643780541778382 0.0 0.0
0.0 0.002207199849955773 -0.0017452210022775257 0.0014554368312040965 0.00028978417107342936 0.0014556540830285357 0.0 0.0
0.0 0.0007972951422045419 -0.0005608634561879789 0.00045175673277296805 0.00010910672341501085 0.0005806382837543286 0.0 0.0
0.0 0.0001529991034427647 -8.519642767538385e-05 6.789476780445205e-05 1.730165987093185e-05 0.00012273301867212874 0.0 0.0
0.0 2.5212619994963567e-05 2.474726859593644e-06 -1.951196794283381e-06 -5.235300653103639e-07 -4.9533168361263605e-06 0.0 0.0
0.0 6.934682310505462e-06 5.042347016716486e-07 -4.0650678400268413e-07 -9.772791766897146e-08 -1.3113344895102354e-06 0.0 0.0
0.0 6.301117768796378e-07 3.177133555832444e-08 -2.5610055487985994e-08 -6.161280070339225e-09 -1.1393767081387647e-07 0.0 0.0
0.0 0.0 0.0 0.0 0.0 0.0 0.0 0.0
0.0 0.0 0.0 0.0 0.0 0.0 0.0 0.0
0.0 0.0 0.0 0.0 0.0 0.0 0.0 0.0
0.0 0.0 0.0 0.0 0.0 0.0 0.0 0.0
0.0 0.0 0.0 0.0 0.0 0.0 0.0 0.0
0.0 3.2006597007079794e-06 2.5707668110242285e-07 -2.054760131561159e-07 -5.160066794626825e-08 5.112391327039601e-07 0.0 0.0
0.0 3.5424676029576006e-05 -7.3000427977859124e-06 5.7661574895749255e-06 1.5338853082110034e-06 -9.49513449354315e-06 0.0 0.0
0.0 0.0003394271311549009 -0.0002148564619842767 0.00017134054614222278 4.351591584205419e-05 -0.00020458699893545823 0.0 0.0
0.0 0.0014048982838915283 -0.001049145469183757 0.000858286098091786 0.0001908593710919702 -0.0007494200334765282 0.0 0.0
0.0 0.003175261927578826 -0.002707079393306508 0.002308561640830101 0.0003985177524764077 -0.0016611278628056528 0.0 0.0
0.0 0.005786578374406591 -0.005015104161490814 0.00444506760224848 0.0005700365592423317 -0.002792852070722749 0.0 0.0
0.0 0.009084162829038504 -0.00785786057652537 0.007159631961241621 0.0006982286152837488 -0.004004129836179081 0.0 0.0
0.0 0.01301835793338979 -0.011225073332599386 0.010427839283278395 0.0007972340493209883 -0.005251237897025666 0.0 0.0
0.0 0.01763322212662203 -0.015181152579926284 0.014300924553758063 0.0008802280261682126 -0.006504783526821679 0.0 0.0
0.0 0.02316800107399888 -0.019875037781606708 0.01891935713563278 0.0009556806459739232 -0.007830190478185351 0.0 0.0
0.0 0.029643142837262014 -0.025498491058938203 0.02447153956588163 0.001026951493056572 -0.009322665293286403 0.0 0.0
0.0 0.0374494861353566 -0.03218794232782206 0.031089693469021733 0.001098248858800326 -0.011029268386036477 0.0 0.0
0.0 0.04648458028465184 -0.03984941751951812 0.03866703146066776 0.0011823860588503514 -0.01315114570154165 0.0 0.0
0.0 0.05557854577133932 -0.04772128972607866 0.046425971476241175 0.001295318249837487 -0.016150118886176523 0.0 0.0
0.0 0.06281729012050419 -0.0538206671912862 0.052373547177577175 0.0014471200137090253 -0.02019085752595791 0.0 0.0
0.0 0.06424935998177109 -0.054711877804286796 0.05308556614680952 0.0016263116574772672 -0.02424945900469161 0.0 0.0
0.0 0.054495310441182256 -0.04567456110768299 0.0438632122735149 0.0018113488341680644 -0.026057646654077057 0.0 0.0
0.0 0.05449531044118179 -0.045674561107679236 0.04386321227351109 0.0018113488341681074 0.02605764665410147 0.0 0.0
0.0 0.0642493599817644 -0.05471187780427744 0.053085566146800454 0.0016263116574769727 0.02424945900472235 0.0 0.0
0.0 0.06281729012048642 -0.05382066719126855 0.05237354717755969 0.0014471200137088419 0.0201908575259803 0.0 0.0
0.0 0.05557854577131235 -0.04772128972605445 0.046425971476217076 0.001295318249837378 0.01615011888618302 0.0 0.0
0.0 0.04648458028462222 -0.039849417519492225 0.03866703146064228 0.0011823860588499294 0.013151145701539359 0.0 0.0
0.0 0.03744948613532835 -0.03218794232779722 0.031089693468997606 0.0010982488587996085 0.011029268386032895 0.0 0.0
0.0 0.02964314283723455 -0.02549849105891394 0.02447153956585837 0.001026951493055575 0.009322665293280661 0.0 0.0
0.0 0.0231680010739701 -0.019875037781581256 0.01891935713560796 0.0009556806459732863 0.007830190478178841 0.0 0.0
0.0 0.01763322212659089 -0.01518115257989907 0.014300924553731262 0.000880228026167803 0.006504783526812873 0.0 0.0
0.0 0.013018357933361622 -0.011225073332574921 0.010427839283254824 0.0007972340493200963 0.005251237897013917 0.0 0.0
0.0 0.009084162829014579 -0.007857860576504679 0.007159631961221857 0.0006982286152828186 0.004004129836167286 0.0 0.0
0.0 0.005786578374388514 -0.00501510416147479 0.004445067602233474 0.0005700365592413146 0.002792852070714941 0.0 0.0
0.0 0.0031752619275660088 -0.002707079393295258 0.0023085616408199602 0.0003985177524752973 0.001661127862799601 0.0 0.0
0.0 0.0014048982838833326 -0.0010491454691772567 0.0008582860980863695 0.0001908593710908871 0.0007494200334723579 0.0 0.0
0.0 0.00033942713115151066 -0.00021485646198234954 0.00017134054614067058 4.351591584167885e-05 0.0002045869989336672 0.0 0.0
0.0 3.54246760284002e-05 -7.300042797750009e-06 5.766157489542235e-06 1.533885308207793e-06 9.495134493489706e-06 0.0 0.0
0.0 3.200659700236418e-06 2.5707668106207243e-07 -2.0547601312382118e-07 -5.1600667938269986e-08 -5.112391326237518e-07 0.0 0.0
0.0 0.0 0.0 0.0 0.0 0.0 0.0 0.0
0.0 0.0 0.0 0.0 0.0 0.0 0.0 0.0
0.0 0.0 0.0 0.0 0.0 0.0 0.0 0.0
0.0 0.0 0.0 0.0 0.0 0.0 0.0 0.0
0.0 0.0 0.0 0.0 0.0 0.0 0.0 0.0
0.0 0.0 0.0 0.0 0.0 0.0 0.0 0.0
0.0 2.6798462832332297e-06 2.4517061012221553e-07 -1.962755119892907e-07 -4.889509813290659e-08 3.705699161879226e-07 0.0 0.0
0.0 7.091066921837424e-05 -2.665382846046824e-05 2.143874067479307e-05 5.215087785675312e-06 -2.695435614650068e-05 0.0 0.0
0.0 0.0006578054306198124 -0.0004478605647326142 0.0003599585937799701 8.790197095264447e-05 -0.00028616088786294173 0.0 0.0
0.0 0.0019637622374418353 -0.0016998922473832586 0.0014153928694109349 0.0002844993779723238 -0.000860569691803361 0.0 0.0
0.0 0.00422631455498018 -0.003744302818322421 0.003257159617065837 0.0004871432012565826 -0.0016745495187485214 0.0 0.0
0.0 0.007353715281602186 -0.00646278154866521 0.005819239695122778 0.0006435418535424308 -0.002640029466625564 0.0 0.0
0.0 0.011218498220807645 -0.009813205944134602 0.009051181205862374 0.0007620247382722302 -0.0037093180751605033 0.0 0.0
0.0 0.015853902370805664 -0.013800731983860797 0.012942295172711109 0.0008584368111496854 -0.004815094203693413 0.0 0.0
0.0 0.021344476593474885 -0.01851601620058688 0.017571594688702372 0.0009444215118845 -0.005934517948682205 0.0 0.0
0.0 0.027858580577734295 -0.024126853576948777 0.023101626858032905 0.0010252267189158639 -0.007146141339320739 0.0 0.0
0.0 0.035651826637699655 -0.030818969010114924 0.02971435438885275 0.0011046146212621692 -0.008512342330884541 0.0 0.0
0.0 0.04481570289879355 -0.03870702945300089 0.03752348083740066 0.0011835486156002305 -0.010026998113939124 0.0 0.0
0.0 0.05501131443822783 -0.047681530252641754 0.04640915023701284 0.0012723800156288828 -0.011680877931766885 0.0 0.0
0.0 0.06574956194343798 -0.056947051385182725 0.055550474816063386 0.0013965765691193609 -0.013881033611627177 0.0 0.0
0.0 0.0743729158245618 -0.0642815314272463 0.0627125036001838 0.0015690278270625044 -0.01762357000937092 0.0 0.0
0.0 0.07640025218045092 -0.06565688804558029 0.06388679786986415 0.001770090175716135 -0.023301647555100922 0.0 0.0
0.0 0.06580259703336797 -0.055525665762400936 0.05356060306605664 0.0019650626963442722 -0.029534542650646367 0.0 0.0
0.0 0.0658025970333675 -0.055525665762397376 0.053560603066052925 0.001965062696344451 0.02953454265067041 0.0 0.0
0.0 0.07640025218043917 -0.06565688804556755 0.06388679786985133 0.00177009017571622 0.02330164755512941 0.0 0.0
0.0 0.07437291582453989 -0.0642815314272257 0.06271250360016352 0.0015690278270621394 0.01762357000939134 0.0 0.0
0.0 0.06574956194340971 -0.056947051385157266 0.05555047481603892 0.0013965765691183515 0.01388103361163404 0.0 0.0
0.0 0.05501131443819495 -0.04768153025261271 0.04640915023698468 0.0012723800156279864 0.011680877931766736 0.0 0.0
0.0 0.04481570289876069 -0.0387070294529721 0.03752348083737256 0.0011835486155995373 0.010026998113936519 0.0 0.0
0.0 0.03565182663766388 -0.03081896901008401 0.029714354388821994 0.0011046146212619903 0.008512342330879396 0.0 0.0
0.0 0.027858580577698515 -0.02412685357691755 0.023101626858002336 0.001025226718915215 0.007146141339314129 0.0 0.0
0.0 0.021344476593441172 -0.018516016200557053 0.01757159468867336 0.0009444215118837019 0.005934517948675064 0.0 0.0
0.0 0.015853902370774203 -0.013800731983833173 0.012942295172684064 0.0008584368111490997 0.00481509420368279 0.0 0.0
0.0 0.01121849822077885 -0.009813205944109404 0.009051181205837647 0.0007620247382717517 0.0037093180751497337 0.0 0.0
0.0 0.007353715281581465 -0.006462781548646597 0.005819239695104979 0.000643541853541617 0.002640029466618599 0.0 0.0
0.0 0.00422631455496526 -0.0037443028183087577 0.0032571596170532947 0.0004871432012554637 0.0016745495187432291 0.0 0.0
0.0 0.001963762237432034 -0.001699892247374594 0.0014153928694034563 0.0002844993779711377 0.0008605696917994775 0.0 0.0
0.0 0.0006578054306146056 -0.0004478605647291802 0.0003599585937771551 8.790197095202515e-05 0.0002861608878607876 0.0 0.0
0.0 7.091066921718216e-05 -2.6653828460488597e-05 2.1438740674799922e-05 5.2150877856885746e-06 2.6954356146502216e-05 0.0 0.0
0.0 2.679846282662512e-06 2.4517061006807896e-07 -1.9627551194701278e-07 -4.889509812105357e-08 -3.705699161132095e-07 0.0 0.0
0.0 0.0 0.0 0.0 0.0 0.0 0.0 0.0
0.0 0.0 0.0 0.0 0.0 0.0 0.0 0.0
0.0 0.0 0.0 0.0 0.0 0.0 0.0 0.0
0.0 0.0 0.0 0.0 0.0 0.0 0.0 0.0
0.0 0.0 0.0 0.0 0.0 0.0 0.0 0.0
0.0 0.0 0.0 0.0 0.0 0.0 0.0 0.0
0.0 3.1285138629805582e-06 3.198481553894005e-07 -2.499609673796126e-07 -6.988718800979791e-08 3.1819347234759094e-07 0.0 0.0
0.0 0.00015940367969483068 -7.602452573412892e-05 6.050602007355951e-05 1.5518505660569317e-05 -4.6819795142396526e-05 0.0 0.0
0.0 0.0010548069819663422 -0.0008052719011104701 0.0006537636003490057 0.00015150830076146468 -0.00033880293896762265 0.0 0.0
0.0 0.0026803973691428063 -0.002423505990501413 0.0020525371032622843 0.000370968887239128 -0.0008171144718081869 0.0 0.0
0.0 0.005370680508139922 -0.004803630203229819 0.004246018920376547 0.0005576112828532713 -0.0014551715358389577 0.0 0.0
0.0 0.008955458099723253 -0.00792960713689176 0.007228411301871719 0.0007011958350200368 -0.0022284672610786748 0.0 0.0
0.0 0.013397322504195546 -0.011784368054502652 0.010970681045951561 0.0008136870085510863 -0.0030932453643874804 0.0 0.0
0.0 0.018755595904109076 -0.01639775158527353 0.015487093067297269 0.0009106585179762626 -0.00399462654836159 0.0 0.0
0.0 0.025072090354791732 -0.021885210349962995 0.020884157600386033 0.0010010527495769583 -0.004906340990636146 0.0 0.0
0.0 0.03272221616721457 -0.028425696346526773 0.02733654584910712 0.0010891504974196364 -0.005898106270618491 0.0 0.0
0.0 0.04157680482965443 -0.036198247081319294 0.03502097664248638 0.0011772704388329155 -0.007072303750438047 0.0 0.0
0.0 0.05195928383460653 -0.045245675683398434 0.0439790439439971 0.0012666317394013455 -0.008340712797550498 0.0 0.0
0.0 0.06361472120017897 -0.05536257426604205 0.05400036667518153 0.0013622075908605157 -0.009407444086813556 0.0 0.0
0.0 0.07562045989103304 -0.06579934796628781 0.0643182165677256 0.0014811313985621955 -0.010389388640816094 0.0 0.0
0.0 0.08563689662765922 -0.07444344593531858 0.07277358404765084 0.0016698618876677136 -0.01320740415233734 0.0 0.0
0.0 0.08873635262710863 -0.07676208769130276 0.07485823731105765 0.001903850380245139 -0.020577042955634197 0.0 0.0
0.0 0.07795304164963948 -0.06601725911029853 0.06388934686058033 0.002127912249718185 -0.032705808937709954 0.0 0.0
0.0 0.0779530416496385 -0.06601725911029496 0.06388934686057725 0.0021279122497177283 0.032705808937730334 0.0 0.0
0.0 0.08873635262709376 -0.07676208769128817 0.07485823731104325 0.0019038503802448945 0.020577042955658816 0.0 0.0
0.0 0.08563689662763475 -0.07444344593529635 0.07277358404762904 0.001669861887667254 0.013207404152355912 0.0 0.0
0.0 0.07562045989100113 -0.06579934796625955 0.06431821656769819 0.0014811313985613637 0.010389388640821798 0.0 0.0
0.0 0.06361472120014172 -0.05536257426600948 0.05400036667514948 0.0013622075908600163 0.009407444086814237 0.0 0.0
0.0 0.05195928383456595 -0.045245675683363205 0.043979043943962126 0.0012666317394010836 0.00834071279754912 0.0 0.0
0.0 0.041576804829614844 -0.03619824708128479 0.03502097664245243 0.001177270438832342 0.007072303750434163 0.0 0.0
0.0 0.03272221616717526 -0.02842569634649244 0.02733654584907338 0.0010891504974190616 0.005898106270612945 0.0 0.0
0.0 0.025072090354751123 -0.02188521034992761 0.02088415760035112 0.0010010527495764802 0.004906340990631657 0.0 0.0
0.0 0.018755595904072362 -0.016397751585241115 0.015487093067265395 0.0009106585179757149 0.003994626548352482 0.0 0.0
0.0 0.013397322504165692 -0.011784368054476049 0.010970681045925777 0.0008136870085502688 0.0030932453643790665 0.0 0.0
0.0 0.00895545809969961 -0.00792960713687041 0.007228411301851213 0.0007011958350191984 0.0022284672610733596 0.0 0.0
0.0 0.005370680508122127 -0.004803630203213503 0.004246018920361161 0.0005576112828523408 0.001455171535834241 0.0 0.0
0.0 0.0026803973691305522 -0.0024235059904900336 0.0020525371032521283 0.00037096888723790614 0.0008171144718044985 0.0 0.0
0.0 0.0010548069819592881 -0.0008052719011047416 0.0006537636003442303 0.00015150830076051059 0.0003388029389652451 0.0 0.0
0.0 0.00015940367969277493 -7.60245257333023e-05 6.050602007287914e-05 1.5518505660423272e-05 4.681979514185125e-05 0.0 0.0
0.0 3.12851386246432e-06 3.1984815533367717e-07 -2.4996096733628395e-07 -6.988718799738491e-08 -3.181934722935766e-07 0.0 0.0
0.0 0.0 0.0 0.0 0.0 0.0 0.0 0.0
0.0 0.0 0.0 0.0 0.0 0.0 0.0 0.0
0.0 0.0 0.0 0.0 0.0 0.0 0.0 0.0
0.0 0.0 0.0 0.0 0.0 0.0 0.0 0.0
0.0 0.0 0.0 0.0 0.0 0.0 0.0 0.0
0.0 0.0 0.0 0.0 0.0 0.0 0.0 0.0
0.0 7.480929744594875e-06 8.970346975284954e-07 -6.929961877200582e-07 -2.0403850980840786e-07 5.50205352796341e-07 0.0 0.0
0.0 0.0003495960572275208 -0.00019748885326531404 0.00015767740562307574 3.981144764223854e-05 -6.950356133325889e-05 0.0 0.0
0.0 0.001392546105516111 -0.0012844607528876995 0.001054502822480256 0.0002299579304074435 -0.0003052107850774305 0.0 0.0
0.0 0.0034944099047190336 -0.0031787185017690457 0.0027362504828235146 0.00044246801894553026 -0.0006200745795708592 0.0 0.0
0.0 0.006542849824113266 -0.0058783257253659125 0.0052636094212832 0.0006147163040827119 -0.0010429923537783354 0.0 0.0
0.0 0.010579958322100446 -0.009401552484759606 0.008654650433101176 0.0007469020516584295 -0.0015679583943062022 0.0 0.0
0.0 0.015597626686778186 -0.013759434371828713 0.012902999873525188 0.0008564344983035188 -0.002166967977209524 0.0 0.0
0.0 0.021664537869350662 -0.019005655039275482 0.01804932435687648 0.0009563306823990028 -0.00278903524704631 0.0 0.0
0.0 0.028977844866711698 -0.025274516646209777 0.024221938020362942 0.001052578625846823 -0.0034190186190486394 0.0 0.0
0.0 0.03746738957750419 -0.03276139386353095 0.03161306042033442 0.0011483334431965347 -0.004140344212511607 0.0 0.0
0.0 0.04759365942807819 -0.041606794259211016 0.0403608222403039 0.0012459720189071022 -0.00498471714474956 0.0 0.0
0.0 0.05930980739329088 -0.05177564005693267 0.050427942841440455 0.0013476972154922277 -0.005849958830444394 0.0 0.0
0.0 0.07211941307295183 -0.06290949651851467 0.06145553506815809 0.0014539614503565623 -0.0064445930647201825 0.0 0.0
0.0 0.08507140860694132 -0.07418520313284277 0.07261843547331787 0.0015667676595249305 -0.006396137206043857 0.0 0.0
0.0 0.09631758323070426 -0.08395463912418674 0.08223785967170669 0.001716779452480081 -0.007065351557570166 0.0 0.0
0.0 0.10136156408703405 -0.08804863500660183 0.08601930885893097 0.0020293261476708223 -0.014985243783395871 0.0 0.0
0.0 0.09134927466880187 -0.07765540822595682 0.07533582547451151 0.002319582751445291 -0.034912387090198116 0.0 0.0
0.0 0.09134927466879747 -0.0776554082259515 0.07533582547450604 0.0023195827514454507 0.034912387090212174 0.0 0.0
0.0 0.10136156408701666 -0.0880486350065858 0.08601930885891523 0.0020293261476704975 0.01498524378341571 0.0 0.0
0.0 0.09631758323067444 -0.08395463912416032 0.08223785967168093 0.001716779452479425 0.00706535155758435 0.0 0.0
0.0 0.08507140860690234 -0.07418520313280873 0.07261843547328428 0.0015667676595244335 0.0063961372060465016 0.0 0.0
0.0 0.07211941307291014 -0.06290949651847812 0.06145553506812257 0.0014539614503555553 0.006444593064720412 0.0 0.0
0.0 0.05930980739324875 -0.05177564005689579 0.05042794284140449 0.0013476972154913126 0.005849958830444358 0.0 0.0
0.0 0.04759365942803534 -0.04160679425917366 0.04036082224026725 0.0012459720189063896 0.004984717144747616 0.0 0.0
0.0 0.03746738957745836 -0.032761393863491126 0.03161306042029502 0.0011483334431961008 0.004140344212507767 0.0 0.0
0.0 0.028977844866665086 -0.025274516646169025 0.024221938020322426 0.001052578625846589 0.0034190186190460395 0.0 0.0
0.0 0.021664537869310576 -0.019005655039240392 0.01804932435684201 0.0009563306823983774 0.002789035247039811 0.0 0.0
0.0 0.015597626686746403 -0.013759434371800456 0.012902999873497897 0.0008564344983025635 0.0021669679772036905 0.0 0.0
0.0 0.01057995832207301 -0.009401552484734736 0.008654650433077088 0.0007469020516576472 0.0015679583943025246 0.0 0.0
0.0 0.006542849824093154 -0.005878325725347456 0.0052636094212657565 0.0006147163040816996 0.0010429923537749893 0.0 0.0
0.0 0.003494409904705719 -0.003178718501756415 0.0027362504828120702 0.00044246801894434317 0.0006200745795681866 0.0 0.0
0.0 0.0013925461055089119 -0.001284460752880876 0.0010545028224744897 0.00022995793040638614 0.000305210785075896 0.0 0.0
0.0 0.0003495960572236812 -0.00019748885326280254 0.00015767740562104912 3.981144764175327e-05 6.950356133248633e-05 0.0 0.0
0.0 7.48092974373735e-06 8.970346974239649e-07 -6.929961876401887e-07 -2.040385097838224e-07 -5.502053527401145e-07 0.0 0.0
0.0 0.0 0.0 0.0 0.0 0.0 0.0 0.0
0.0 0.0 0.0 0.0 0.0 0.0 0.0 0.0
0.0 0.0 0.0 0.0 0.0 0.0 0.0 0.0
0.0 0.0 0.0 0.0 0.0 0.0 0.0 0.0
0.0 0.0 0.0 0.0 0.0 0.0 0.0 0.0
0.0 0.0 0.0 0.0 0.0 0.0 0.0 0.0
0.0 1.5691202372881707e-05 -5.067142778168713e-07 4.4867858520924495e-07 5.803569260777282e-08 -3.180221232822107e-07 0.0 0.0
0.0 0.0006592333767914634 -0.000404020941397365 0.0003238348802727654 8.018606112459949e-05 -5.673677050826443e-05 0.0 0.0
0.0 0.001942216097388739 -0.0017926126158007284 0.0014904386732260593 0.00030217394257466896 -0.00014964327423224268 0.0 0.0
0.0 0.004337489132577966 -0.003952807158796611 0.003450550063820817 0.0005022570949757931 -0.0002768586896852687 0.0 0.0
0.0 0.007749181105959654 -0.006953786095479827 0.0062937113815128105 0.0006600747139670153 -0.0004439824671156877 0.0 0.0
0.0 0.012237679992087037 -0.010866071119582947 0.010081853426273773 0.000784217693309177 -0.000665889268952839 0.0 0.0
0.0 0.017853153332580207 -0.01572499233287156 0.014831999816310296 0.0008929925165612601 -0.000930104909066533 0.0 0.0
0.0 0.024708714447625263 -0.021612394917804627 0.02061590177570653 0.0009964931420980896 -0.0012028877745167837 0.0 0.0
0.0 0.03269657865127267 -0.028684564618559054 0.027584778641131614 0.0010997859774274413 -0.0015018279832428043 0.0 0.0
0.0 0.04231847176279985 -0.03710930267495681 0.03590562798561499 0.0012036746893418046 -0.0018385897721078905 0.0 0.0
0.0 0.053708121283627556 -0.047005374938987994 0.045694412955180355 0.0013109619838076085 -0.002206441555195722 0.0 0.0
0.0 0.06667880599560166 -0.05827075929640954 0.05684594003907215 0.0014248192573373885 -0.0025597662004710076 0.0 0.0
0.0 0.08063845310485622 -0.0703714066473462 0.06882665661491941 0.0015447500324268248 -0.002709437733241917 0.0 0.0
0.0 0.09434217420014529 -0.08225499557002303 0.0805912295327195 0.0016637660373034796 -0.002329500570269819 0.0 0.0
0.0 0.1060212570365163 -0.09241945327299426 0.09064284563509387 0.0017766076379003557 -0.0012405171796448663 0.0 0.0
0.0 0.1130809599507735 -0.09847154835046557 0.09652590973420086 0.001945638616264646 -0.004319468732725808 0.0 0.0
0.0 0.10715500791085855 -0.09180601544216796 0.08913185145098773 0.0026741639911802466 -0.03241622746323984 0.0 0.0
0.0 0.10715500791085397 -0.09180601544216326 0.08913185145098337 0.002674163991179839 0.032416227463245156 0.0 0.0
0.0 0.11308095995075257 -0.09847154835044705 0.09652590973418301 0.0019456386162640328 0.004319468732734318 0.0 0.0
0.0 0.10602125703647974 -0.09241945327296237 0.09064284563506254 0.0017766076378997833 0.0012405171796514142 0.0 0.0
0.0 0.0943421742001004 -0.08225499556998378 0.08059122953268107 0.0016637660373026786 0.0023295005702697732 0.0 0.0
0.0 0.08063845310480908 -0.07037140664730514 0.06882665661487883 0.0015447500324263007 0.0027094377332415667 0.0 0.0
0.0 0.06667880599555334 -0.05827075929636733 0.05684594003903078 0.0014248192573365615 0.002559766200471183 0.0 0.0
0.0 0.053708121283578575 -0.047005374938945146 0.04569441295513859 0.0013109619838065584 0.0022064415551956004 0.0 0.0
0.0 0.042318471762747806 -0.03710930267491144 0.03590562798557036 0.0012036746893410613 0.0018385897721063579 0.0 0.0
0.0 0.03269657865122307 -0.028684564618515596 0.027584778641089217 0.0010997859774263638 0.001501827983241874 0.0 0.0
0.0 0.024708714447580226 -0.021612394917765076 0.020615901775667838 0.000996493142097236 0.0012028877745132965 0.0 0.0
0.0 0.01785315333254129 -0.015724992332837685 0.01483199981627701 0.0008929925165606718 0.0009301049090637811 0.0 0.0
0.0 0.012237679992055647 -0.010866071119554992 0.010081853426246422 0.0007842176933085668 0.0006658892689517033 0.0 0.0
0.0 0.007749181105936691 -0.0069537860954587485 0.006293711381492565 0.0006600747139661851 0.00044398246711430307 0.0 0.0
0.0 0.004337489132562434 -0.003952807158782102 0.003450550063807314 0.0005022570949747898 0.0002768586896843282 0.0 0.0
0.0 0.0019422160973801808 -0.001792612615792276 0.0014904386732186414 0.00030217394257363403 0.00014964327423142005 0.0 0.0
0.0 0.000659233376786774 -0.0004040209413940936 0.0003238348802700946 8.018606112399945e-05 5.6736770507866264e-05 0.0 0.0
0.0 1.5691202372472705e-05 -5.067142781517316e-07 4.4867858546254444e-07 5.803569268917639e-08 3.180221233280702e-07 0.0 0.0
0.0 0.0 0.0 0.0 0.0 0.0 0.0 0.0
0.0 0.0 0.0 0.0 0.0 0.0 0.0 0.0
0.0 0.0 0.0 0.0 0.0 0.0 0.0 0.0