# vtk DataFile Version 3.0
Some data
ASCII
DATASET UNSTRUCTURED_GRID
POINTS 861 float
0.0 0.0 0.0
0.4 0.0 0.0
0.8 0.0 0.0
1.2000000000000002 0.0 0.0
1.6 0.0 0.0
2.0 0.0 0.0
2.4000000000000004 0.0 0.0
2.8000000000000003 0.0 0.0
3.2 0.0 0.0
3.6 0.0 0.0
4.0 0.0 0.0
4.4 0.0 0.0
4.800000000000001 0.0 0.0
5.2 0.0 0.0
5.6000000000000005 0.0 0.0
6.0 0.0 0.0
6.4 0.0 0.0
6.800000000000001 0.0 0.0
7.2 0.0 0.0
7.6000000000000005 0.0 0.0
8.0 0.0 0.0
8.4 0.0 0.0
8.8 0.0 0.0
9.200000000000001 0.0 0.0
9.600000000000001 0.0 0.0
10.0 0.0 0.0
10.4 0.0 0.0
10.8 0.0 0.0
11.200000000000001 0.0 0.0
11.600000000000001 0.0 0.0
12.0 0.0 0.0
12.4 0.0 0.0
12.8 0.0 0.0
13.200000000000001 0.0 0.0
13.600000000000001 0.0 0.0
14.0 0.0 0.0
14.4 0.0 0.0
14.8 0.0 0.0
15.200000000000001 0.0 0.0
15.600000000000001 0.0 0.0
16.0 0.0 0.0
0.0 0.1 0.0
0.4 0.1 0.0
0.8 0.1 0.0
1.2000000000000002 0.1 0.0
1.6 0.1 0.0
2.0 0.1 0.0
2.4000000000000004 0.1 0.0
2.8000000000000003 0.1 0.0
3.2 0.1 0.0
3.6 0.1 0.0
4.0 0.1 0.0
4.4 0.1 0.0
4.800000000000001 0.1 0.0
5.2 0.1 0.0
5.6000000000000005 0.1 0.0
6.0 0.1 0.0
6.4 0.1 0.0
6.800000000000001 0.1 0.0
7.2 0.1 0.0
7.6000000000000005 0.1 0.0
8.0 0.1 0.0
8.4 0.1 0.0
8.8 0.1 0.0
9.200000000000001 0.1 0.0
9.600000000000001 0.1 0.0
10.0 0.1 0.0
10.4 0.1 0.0
10.8 0.1 0.0
11.200000000000001 0.1 0.0
11.600000000000001 0.1 0.0
12.0 0.1 0.0
12.4 0.1 0.0
12.8 0.1 0.0
13.200000000000001 0.1 0.0
13.600000000000001 0.1 0.0
14.0 0.1 0.0
14.4 0.1 0.0
14.8 0.1 0.0
15.200000000000001 0.1 0.0
15.600000000000001 0.1 0.0
16.0 0.1 0.0
0.0 0.2 0.0
0.4 0.2 0.0
0.8 0.2 0.0
1.2000000000000002 0.2 0.0
1.6 0.2 0.0
2.0 0.2 0.0
2.4000000000000004 0.2 0.0
2.8000000000000003 0.2 0.0
3.2 0.2 0.0
3.6 0.2 0.0
4.0 0.2 0.0
4.4 0.2 0.0
4.800000000000001 0.2 0.0
5.2 0.2 0.0
5.6000000000000005 0.2 0.0
6.0 0.2 0.0
6.4 0.2 0.0
6.800000000000001 0.2 0.0
7.2 0.2 0.0
7.6000000000000005 0.2 0.0
8.0 0.2 0.0
8.4 0.2 0.0
8.8 0.2 0.0
9.200000000000001 0.2 0.0
9.600000000000001 0.2 0.0
10.0 0.2 0.0
10.4 0.2 0.0
10.8 0.2 0.0
11.200000000000001 0.2 0.0
11.600000000000001 0.2 0.0
12.0 0.2 0.0
12.4 0.2 0.0
12.8 0.2 0.0
13.200000000000001 0.2 0.0
13.600000000000001 0.2 0.0
14.0 0.2 0.0
14.4 0.2 0.0
14.8 0.2 0.0
15.200000000000001 0.2 0.0
15.600000000000001 0.2 0.0
16.0 0.2 0.0
0.0 0.30000000000000004 0.0
0.4 0.30000000000000004 0.0
0.8 0.30000000000000004 0.0
1.2000000000000002 0.30000000000000004 0.0
1.6 0.30000000000000004 0.0
2.0 0.30000000000000004 0.0
2.4000000000000004 0.30000000000000004 0.0
2.8000000000000003 0.30000000000000004 0.0
3.2 0.30000000000000004 0.0
3.6 0.30000000000000004 0.0
4.0 0.30000000000000004 0.0
4.4 0.30000000000000004 0.0
4.800000000000001 0.30000000000000004 0.0
5.2 0.30000000000000004 0.0
5.6000000000000005 0.30000000000000004 0.0
6.0 0.30000000000000004 0.0
6.4 0.30000000000000004 0.0
6.800000000000001 0.30000000000000004 0.0
7.2 0.30000000000000004 0.0
7.6000000000000005 0.30000000000000004 0.0
8.0 0.30000000000000004 0.0
8.4 0.30000000000000004 0.0
8.8 0.30000000000000004 0.0
9.200000000000001 0.30000000000000004 0.0
9.600000000000001 0.30000000000000004 0.0
10.0 0.30000000000000004 0.0
10.4 0.30000000000000004 0.0
10.8 0.30000000000000004 0.0
11.200000000000001 0.30000000000000004 0.0
11.600000000000001 0.30000000000000004 0.0
12.0 0.30000000000000004 0.0
12.4 0.30000000000000004 0.0
12.8 0.30000000000000004 0.0
13.200000000000001 0.30000000000000004 0.0
13.600000000000001 0.30000000000000004 0.0
14.0 0.30000000000000004 0.0
14.4 0.30000000000000004 0.0
14.8 0.30000000000000004 0.0
15.200000000000001 0.30000000000000004 0.0
15.600000000000001 0.30000000000000004 0.0
16.0 0.30000000000000004 0.0
0.0 0.4 0.0
0.4 0.4 0.0
0.8 0.4 0.0
1.2000000000000002 0.4 0.0
1.6 0.4 0.0
2.0 0.4 0.0
2.4000000000000004 0.4 0.0
2.8000000000000003 0.4 0.0
3.2 0.4 0.0
3.6 0.4 0.0
4.0 0.4 0.0
4.4 0.4 0.0
4.800000000000001 0.4 0.0
5.2 0.4 0.0
5.6000000000000005 0.4 0.0
6.0 0.4 0.0
6.4 0.4 0.0
6.800000000000001 0.4 0.0
7.2 0.4 0.0
7.6000000000000005 0.4 0.0
8.0 0.4 0.0
8.4 0.4 0.0
8.8 0.4 0.0
9.200000000000001 0.4 0.0
9.600000000000001 0.4 0.0
10.0 0.4 0.0
10.4 0.4 0.0
10.8 0.4 0.0
11.200000000000001 0.4 0.0
11.600000000000001 0.4 0.0
12.0 0.4 0.0
12.4 0.4 0.0
12.8 0.4 0.0
13.200000000000001 0.4 0.0
13.600000000000001 0.4 0.0
14.0 0.4 0.0
14.4 0.4 0.0
14.8 0.4 0.0
15.200000000000001 0.4 0.0
15.600000000000001 0.4 0.0
16.0 0.4 0.0
0.0 0.5 0.0
0.4 0.5 0.0
0.8 0.5 0.0
1.2000000000000002 0.5 0.0
1.6 0.5 0.0
2.0 0.5 0.0
2.4000000000000004 0.5 0.0
2.8000000000000003 0.5 0.0
3.2 0.5 0.0
3.6 0.5 0.0
4.0 0.5 0.0
4.4 0.5 0.0
4.800000000000001 0.5 0.0
5.2 0.5 0.0
5.6000000000000005 0.5 0.0
6.0 0.5 0.0
6.4 0.5 0.0
6.800000000000001 0.5 0.0
7.2 0.5 0.0
7.6000000000000005 0.5 0.0
8.0 0.5 0.0
8.4 0.5 0.0
8.8 0.5 0.0
9.200000000000001 0.5 0.0
9.600000000000001 0.5 0.0
10.0 0.5 0.0
10.4 0.5 0.0
10.8 0.5 0.0
11.200000000000001 0.5 0.0
11.600000000000001 0.5 0.0
12.0 0.5 0.0
12.4 0.5 0.0
12.8 0.5 0.0
13.200000000000001 0.5 0.0
13.600000000000001 0.5 0.0
14.0 0.5 0.0
14.4 0.5 0.0
14.8 0.5 0.0
15.200000000000001 0.5 0.0
15.600000000000001 0.5 0.0
16.0 0.5 0.0
0.0 0.6000000000000001 0.0
0.4 0.6000000000000001 0.0
0.8 0.6000000000000001 0.0
1.2000000000000002 0.6000000000000001 0.0
1.6 0.6000000000000001 0.0
2.0 0.6000000000000001 0.0
2.4000000000000004 0.6000000000000001 0.0
2.8000000000000003 0.6000000000000001 0.0
3.2 0.6000000000000001 0.0
3.6 0.6000000000000001 0.0
4.0 0.6000000000000001 0.0
4.4 0.6000000000000001 0.0
4.800000000000001 0.6000000000000001 0.0
5.2 0.6000000000000001 0.0
5.6000000000000005 0.6000000000000001 0.0
6.0 0.6000000000000001 0.0
6.4 0.6000000000000001 0.0
6.800000000000001 0.6000000000000001 0.0
7.2 0.6000000000000001 0.0
7.6000000000000005 0.6000000000000001 0.0
8.0 0.6000000000000001 0.0
8.4 0.6000000000000001 0.0
8.8 0.6000000000000001 0.0
9.200000000000001 0.6000000000000001 0.0
9.600000000000001 0.6000000000000001 0.0
10.0 0.6000000000000001 0.0
10.4 0.6000000000000001 0.0
10.8 0.6000000000000001 0.0
11.200000000000001 0.6000000000000001 0.0
11.600000000000001 0.6000000000000001 0.0
12.0 0.6000000000000001 0.0
12.4 0.6000000000000001 0.0
12.8 0.6000000000000001 0.0
13.200000000000001 0.6000000000000001 0.0
13.600000000000001 0.6000000000000001 0.0
14.0 0.6000000000000001 0.0
14.4 0.6000000000000001 0.0
14.8 0.6000000000000001 0.0
15.200000000000001 0.6000000000000001 0.0
15.600000000000001 0.6000000000000001 0.0
16.0 0.6000000000000001 0.0
0.0 0.7000000000000001 0.0
0.4 0.7000000000000001 0.0
0.8 0.7000000000000001 0.0
1.2000000000000002 0.7000000000000001 0.0
1.6 0.7000000000000001 0.0
2.0 0.7000000000000001 0.0
2.4000000000000004 0.7000000000000001 0.0
2.8000000000000003 0.7000000000000001 0.0
3.2 0.7000000000000001 0.0
3.6 0.7000000000000001 0.0
4.0 0.7000000000000001 0.0
4.4 0.7000000000000001 0.0
4.800000000000001 0.7000000000000001 0.0
5.2 0.7000000000000001 0.0
5.6000000000000005 0.7000000000000001 0.0
6.0 0.7000000000000001 0.0
6.4 0.7000000000000001 0.0
6.800000000000001 0.7000000000000001 0.0
7.2 0.7000000000000001 0.0
7.6000000000000005 0.7000000000000001 0.0
8.0 0.7000000000000001 0.0
8.4 0.7000000000000001 0.0
8.8 0.7000000000000001 0.0
9.200000000000001 0.7000000000000001 0.0
9.600000000000001 0.7000000000000001 0.0
10.0 0.7000000000000001 0.0
10.4 0.7000000000000001 0.0
10.8 0.7000000000000001 0.0
11.200000000000001 0.7000000000000001 0.0
11.600000000000001 0.7000000000000001 0.0
12.0 0.7000000000000001 0.0
12.4 0.7000000000000001 0.0
12.8 0.7000000000000001 0.0
13.200000000000001 0.7000000000000001 0.0
13.600000000000001 0.7000000000000001 0.0
14.0 0.7000000000000001 0.0
14.4 0.7000000000000001 0.0
14.8 0.7000000000000001 0.0
15.200000000000001 0.7000000000000001 0.0
15.600000000000001 0.7000000000000001 0.0
16.0 0.7000000000000001 0.0
0.0 0.8 0.0
0.4 0.8 0.0
0.8 0.8 0.0
1.2000000000000002 0.8 0.0
1.6 0.8 0.0
2.0 0.8 0.0
2.4000000000000004 0.8 0.0
2.8000000000000003 0.8 0.0
3.2 0.8 0.0
3.6 0.8 0.0
4.0 0.8 0.0
4.4 0.8 0.0
4.800000000000001 0.8 0.0
5.2 0.8 0.0
5.6000000000000005 0.8 0.0
6.0 0.8 0.0
6.4 0.8 0.0
6.800000000000001 0.8 0.0
7.2 0.8 0.0
7.6000000000000005 0.8 0.0
8.0 0.8 0.0
8.4 0.8 0.0
8.8 0.8 0.0
9.200000000000001 0.8 0.0
9.600000000000001 0.8 0.0
10.0 0.8 0.0
10.4 0.8 0.0
10.8 0.8 0.0
11.200000000000001 0.8 0.0
11.600000000000001 0.8 0.0
12.0 0.8 0.0
12.4 0.8 0.0
12.8 0.8 0.0
13.200000000000001 0.8 0.0
13.600000000000001 0.8 0.0
14.0 0.8 0.0
14.4 0.8 0.0
14.8 0.8 0.0
15.200000000000001 0.8 0.0
15.600000000000001 0.8 0.0
16.0 0.8 0.0
0.0 0.9 0.0
0.4 0.9 0.0
0.8 0.9 0.0
1.2000000000000002 0.9 0.0
1.6 0.9 0.0
2.0 0.9 0.0
2.4000000000000004 0.9 0.0
2.8000000000000003 0.9 0.0
3.2 0.9 0.0
3.6 0.9 0.0
4.0 0.9 0.0
4.4 0.9 0.0
4.800000000000001 0.9 0.0
5.2 0.9 0.0
5.6000000000000005 0.9 0.0
6.0 0.9 0.0
6.4 0.9 0.0
6.800000000000001 0.9 0.0
7.2 0.9 0.0
7.6000000000000005 0.9 0.0
8.0 0.9 0.0
8.4 0.9 0.0
8.8 0.9 0.0
9.200000000000001 0.9 0.0
9.600000000000001 0.9 0.0
10.0 0.9 0.0
10.4 0.9 0.0
10.8 0.9 0.0
11.200000000000001 0.9 0.0
11.600000000000001 0.9 0.0
12.0 0.9 0.0
12.4 0.9 0.0
12.8 0.9 0.0
13.200000000000001 0.9 0.0
13.600000000000001 0.9 0.0
14.0 0.9 0.0
14.4 0.9 0.0
14.8 0.9 0.0
15.200000000000001 0.9 0.0
15.600000000000001 0.9 0.0
16.0 0.9 0.0
0.0 1.0 0.0
0.4 1.0 0.0
0.8 1.0 0.0
1.2000000000000002 1.0 0.0
1.6 1.0 0.0
2.0 1.0 0.0
2.4000000000000004 1.0 0.0
2.8000000000000003 1.0 0.0
3.2 1.0 0.0
3.6 1.0 0.0
4.0 1.0 0.0
4.4 1.0 0.0
4.800000000000001 1.0 0.0
5.2 1.0 0.0
5.6000000000000005 1.0 0.0
6.0 1.0 0.0
6.4 1.0 0.0
6.800000000000001 1.0 0.0
7.2 1.0 0.0
7.6000000000000005 1.0 0.0
8.0 1.0 0.0
8.4 1.0 0.0
8.8 1.0 0.0
9.200000000000001 1.0 0.0
9.600000000000001 1.0 0.0
10.0 1.0 0.0
10.4 1.0 0.0
10.8 1.0 0.0
11.200000000000001 1.0 0.0
11.600000000000001 1.0 0.0
12.0 1.0 0.0
12.4 1.0 0.0
12.8 1.0 0.0
13.200000000000001 1.0 0.0
13.600000000000001 1.0 0.0
14.0 1.0 0.0
14.4 1.0 0.0
14.8 1.0 0.0
15.200000000000001 1.0 0.0
15.600000000000001 1.0 0.0
16.0 1.0 0.0
0.0 1.1 0.0
0.4 1.1 0.0
0.8 1.1 0.0
1.2000000000000002 1.1 0.0
1.6 1.1 0.0
2.0 1.1 0.0
2.4000000000000004 1.1 0.0
2.8000000000000003 1.1 0.0
3.2 1.1 0.0
3.6 1.1 0.0
4.0 1.1 0.0
4.4 1.1 0.0
4.800000000000001 1.1 0.0
5.2 1.1 0.0
5.6000000000000005 1.1 0.0
6.0 1.1 0.0
6.4 1.1 0.0
6.800000000000001 1.1 0.0
7.2 1.1 0.0
7.6000000000000005 1.1 0.0
8.0 1.1 0.0
8.4 1.1 0.0
8.8 1.1 0.0
9.200000000000001 1.1 0.0
9.600000000000001 1.1 0.0
10.0 1.1 0.0
10.4 1.1 0.0
10.8 1.1 0.0
11.200000000000001 1.1 0.0
11.600000000000001 1.1 0.0
12.0 1.1 0.0
12.4 1.1 0.0
12.8 1.1 0.0
13.200000000000001 1.1 0.0
13.600000000000001 1.1 0.0
14.0 1.1 0.0
14.4 1.1 0.0
14.8 1.1 0.0
15.200000000000001 1.1 0.0
15.600000000000001 1.1 0.0
16.0 1.1 0.0
0.0 1.2000000000000002 0.0
0.4 1.2000000000000002 0.0
0.8 1.2000000000000002 0.0
1.2000000000000002 1.2000000000000002 0.0
1.6 1.2000000000000002 0.0
2.0 1.2000000000000002 0.0
2.4000000000000004 1.2000000000000002 0.0
2.8000000000000003 1.2000000000000002 0.0
3.2 1.2000000000000002 0.0
3.6 1.2000000000000002 0.0
4.0 1.2000000000000002 0.0
4.4 1.2000000000000002 0.0
4.800000000000001 1.2000000000000002 0.0
5.2 1.2000000000000002 0.0
5.6000000000000005 1.2000000000000002 0.0
6.0 1.2000000000000002 0.0
6.4 1.2000000000000002 0.0
6.800000000000001 1.2000000000000002 0.0
7.2 1.2000000000000002 0.0
7.6000000000000005 1.2000000000000002 0.0
8.0 1.2000000000000002 0.0
8.4 1.2000000000000002 0.0
8.8 1.2000000000000002 0.0
9.200000000000001 1.2000000000000002 0.0
9.600000000000001 1.2000000000000002 0.0
10.0 1.2000000000000002 0.0
10.4 1.2000000000000002 0.0
10.8 1.2000000000000002 0.0
11.200000000000001 1.2000000000000002 0.0
11.600000000000001 1.2000000000000002 0.0
12.0 1.2000000000000002 0.0
12.4 1.2000000000000002 0.0
12.8 1.2000000000000002 0.0
13.200000000000001 1.2000000000000002 0.0
13.600000000000001 1.2000000000000002 0.0
14.0 1.2000000000000002 0.0
14.4 1.2000000000000002 0.0
14.8 1.2000000000000002 0.0
15.200000000000001 1.2000000000000002 0.0
15.600000000000001 1.2000000000000002 0.0
16.0 1.2000000000000002 0.0
0.0 1.3 0.0
0.4 1.3 0.0
0.8 1.3 0.0
1.2000000000000002 1.3 0.0
1.6 1.3 0.0
2.0 1.3 0.0
2.4000000000000004 1.3 0.0
2.8000000000000003 1.3 0.0
3.2 1.3 0.0
3.6 1.3 0.0
4.0 1.3 0.0
4.4 1.3 0.0
4.800000000000001 1.3 0.0
5.2 1.3 0.0
5.6000000000000005 1.3 0.0
6.0 1.3 0.0
6.4 1.3 0.0
6.800000000000001 1.3 0.0
7.2 1.3 0.0
7.6000000000000005 1.3 0.0
8.0 1.3 0.0
8.4 1.3 0.0
8.8 1.3 0.0
9.200000000000001 1.3 0.0
9.600000000000001 1.3 0.0
10.0 1.3 0.0
10.4 1.3 0.0
10.8 1.3 0.0
11.200000000000001 1.3 0.0
11.600000000000001 1.3 0.0
12.0 1.3 0.0
12.4 1.3 0.0
12.8 1.3 0.0
13.200000000000001 1.3 0.0
13.600000000000001 1.3 0.0
14.0 1.3 0.0
14.4 1.3 0.0
14.8 1.3 0.0
15.200000000000001 1.3 0.0
15.600000000000001 1.3 0.0
16.0 1.3 0.0
0.0 1.4000000000000001 0.0
0.4 1.4000000000000001 0.0
0.8 1.4000000000000001 0.0
1.2000000000000002 1.4000000000000001 0.0
1.6 1.4000000000000001 0.0
2.0 1.4000000000000001 0.0
2.4000000000000004 1.4000000000000001 0.0
2.8000000000000003 1.4000000000000001 0.0
3.2 1.4000000000000001 0.0
3.6 1.4000000000000001 0.0
4.0 1.4000000000000001 0.0
4.4 1.4000000000000001 0.0
4.800000000000001 1.4000000000000001 0.0
5.2 1.4000000000000001 0.0
5.6000000000000005 1.4000000000000001 0.0
6.0 1.4000000000000001 0.0
6.4 1.4000000000000001 0.0
6.800000000000001 1.4000000000000001 0.0
7.2 1.4000000000000001 0.0
7.6000000000000005 1.4000000000000001 0.0
8.0 1.4000000000000001 0.0
8.4 1.4000000000000001 0.0
8.8 1.4000000000000001 0.0
9.200000000000001 1.4000000000000001 0.0
9.600000000000001 1.4000000000000001 0.0
10.0 1.4000000000000001 0.0
10.4 1.4000000000000001 0.0
10.8 1.4000000000000001 0.0
11.200000000000001 1.4000000000000001 0.0
11.600000000000001 1.4000000000000001 0.0
12.0 1.4000000000000001 0.0
12.4 1.4000000000000001 0.0
12.8 1.4000000000000001 0.0
13.200000000000001 1.4000000000000001 0.0
13.600000000000001 1.4000000000000001 0.0
14.0 1.4000000000000001 0.0
14.4 1.4000000000000001 0.0
14.8 1.4000000000000001 0.0
15.200000000000001 1.4000000000000001 0.0
15.600000000000001 1.4000000000000001 0.0
16.0 1.4000000000000001 0.0
0.0 1.5 0.0
0.4 1.5 0.0
0.8 1.5 0.0
1.2000000000000002 1.5 0.0
1.6 1.5 0.0
2.0 1.5 0.0
2.4000000000000004 1.5 0.0
2.8000000000000003 1.5 0.0
3.2 1.5 0.0
3.6 1.5 0.0
4.0 1.5 0.0
4.4 1.5 0.0
4.800000000000001 1.5 0.0
5.2 1.5 0.0
5.6000000000000005 1.5 0.0
6.0 1.5 0.0
6.4 1.5 0.0
6.800000000000001 1.5 0.0
7.2 1.5 0.0
7.6000000000000005 1.5 0.0
8.0 1.5 0.0
8.4 1.5 0.0
8.8 1.5 0.0
9.200000000000001 1.5 0.0
9.600000000000001 1.5 0.0
10.0 1.5 0.0
10.4 1.5 0.0
10.8 1.5 0.0
11.200000000000001 1.5 0.0
11.600000000000001 1.5 0.0
12.0 1.5 0.0
12.4 1.5 0.0
12.8 1.5 0.0
13.200000000000001 1.5 0.0
13.600000000000001 1.5 0.0
14.0 1.5 0.0
14.4 1.5 0.0
14.8 1.5 0.0
15.200000000000001 1.5 0.0
15.600000000000001 1.5 0.0
16.0 1.5 0.0
0.0 1.6 0.0
0.4 1.6 0.0
0.8 1.6 0.0
1.2000000000000002 1.6 0.0
1.6 1.6 0.0
2.0 1.6 0.0
2.4000000000000004 1.6 0.0
2.8000000000000003 1.6 0.0
3.2 1.6 0.0
3.6 1.6 0.0
4.0 1.6 0.0
4.4 1.6 0.0
4.800000000000001 1.6 0.0
5.2 1.6 0.0
5.6000000000000005 1.6 0.0
6.0 1.6 0.0
6.4 1.6 0.0
6.800000000000001 1.6 0.0
7.2 1.6 0.0
7.6000000000000005 1.6 0.0
8.0 1.6 0.0
8.4 1.6 0.0
8.8 1.6 0.0
9.200000000000001 1.6 0.0
9.600000000000001 1.6 0.0
10.0 1.6 0.0
10.4 1.6 0.0
10.8 1.6 0.0
11.200000000000001 1.6 0.0
11.600000000000001 1.6 0.0
12.0 1.6 0.0
12.4 1.6 0.0
12.8 1.6 0.0
13.200000000000001 1.6 0.0
13.600000000000001 1.6 0.0
14.0 1.6 0.0
14.4 1.6 0.0
14.8 1.6 0.0
15.200000000000001 1.6 0.0
15.600000000000001 1.6 0.0
16.0 1.6 0.0
0.0 1.7000000000000002 0.0
0.4 1.7000000000000002 0.0
0.8 1.7000000000000002 0.0
1.2000000000000002 1.7000000000000002 0.0
1.6 1.7000000000000002 0.0
2.0 1.7000000000000002 0.0
2.4000000000000004 1.7000000000000002 0.0
2.8000000000000003 1.7000000000000002 0.0
3.2 1.7000000000000002 0.0
3.6 1.7000000000000002 0.0
4.0 1.7000000000000002 0.0
4.4 1.7000000000000002 0.0
4.800000000000001 1.7000000000000002 0.0
5.2 1.7000000000000002 0.0
5.6000000000000005 1.7000000000000002 0.0
6.0 1.7000000000000002 0.0
6.4 1.7000000000000002 0.0
6.800000000000001 1.7000000000000002 0.0
7.2 1.7000000000000002 0.0
7.6000000000000005 1.7000000000000002 0.0
8.0 1.7000000000000002 0.0
8.4 1.7000000000000002 0.0
8.8 1.7000000000000002 0.0
9.200000000000001 1.7000000000000002 0.0
9.600000000000001 1.7000000000000002 0.0
10.0 1.7000000000000002 0.0
10.4 1.7000000000000002 0.0
10.8 1.7000000000000002 0.0
11.200000000000001 1.7000000000000002 0.0
11.600000000000001 1.7000000000000002 0.0
12.0 1.7000000000000002 0.0
12.4 1.7000000000000002 0.0
12.8 1.7000000000000002 0.0
13.200000000000001 1.7000000000000002 0.0
13.600000000000001 1.7000000000000002 0.0
14.0 1.7000000000000002 0.0
14.4 1.7000000000000002 0.0
14.8 1.7000000000000002 0.0
15.200000000000001 1.7000000000000002 0.0
15.600000000000001 1.7000000000000002 0.0
16.0 1.7000000000000002 0.0
0.0 1.8 0.0
0.4 1.8 0.0
0.8 1.8 0.0
1.2000000000000002 1.8 0.0
1.6 1.8 0.0
2.0 1.8 0.0
2.4000000000000004 1.8 0.0
2.8000000000000003 1.8 0.0
3.2 1.8 0.0
3.6 1.8 0.0
4.0 1.8 0.0
4.4 1.8 0.0
4.800000000000001 1.8 0.0
5.2 1.8 0.0
5.6000000000000005 1.8 0.0
6.0 1.8 0.0
6.4 1.8 0.0
6.800000000000001 1.8 0.0
7.2 1.8 0.0
7.6000000000000005 1.8 0.0
8.0 1.8 0.0
8.4 1.8 0.0
8.8 1.8 0.0
9.200000000000001 1.8 0.0
9.600000000000001 1.8 0.0
10.0 1.8 0.0
10.4 1.8 0.0
10.8 1.8 0.0
11.200000000000001 1.8 0.0
11.600000000000001 1.8 0.0
12.0 1.8 0.0
12.4 1.8 0.0
12.8 1.8 0.0
13.200000000000001 1.8 0.0
13.600000000000001 1.8 0.0
14.0 1.8 0.0
14.4 1.8 0.0
14.8 1.8 0.0
15.200000000000001 1.8 0.0
15.600000000000001 1.8 0.0
16.0 1.8 0.0
0.0 1.9000000000000001 0.0
0.4 1.9000000000000001 0.0
0.8 1.9000000000000001 0.0
1.2000000000000002 1.9000000000000001 0.0
1.6 1.9000000000000001 0.0
2.0 1.9000000000000001 0.0
2.4000000000000004 1.9000000000000001 0.0
2.8000000000000003 1.9000000000000001 0.0
3.2 1.9000000000000001 0.0
3.6 1.9000000000000001 0.0
4.0 1.9000000000000001 0.0
4.4 1.9000000000000001 0.0
4.800000000000001 1.9000000000000001 0.0
5.2 1.9000000000000001 0.0
5.6000000000000005 1.9000000000000001 0.0
6.0 1.9000000000000001 0.0
6.4 1.9000000000000001 0.0
6.800000000000001 1.9000000000000001 0.0
7.2 1.9000000000000001 0.0
7.6000000000000005 1.9000000000000001 0.0
8.0 1.9000000000000001 0.0
8.4 1.9000000000000001 0.0
8.8 1.9000000000000001 0.0
9.200000000000001 1.9000000000000001 0.0
9.600000000000001 1.9000000000000001 0.0
10.0 1.9000000000000001 0.0
10.4 1.9000000000000001 0.0
10.8 1.9000000000000001 0.0
11.200000000000001 1.9000000000000001 0.0
11.600000000000001 1.9000000000000001 0.0
12.0 1.9000000000000001 0.0
12.4 1.9000000000000001 0.0
12.8 1.9000000000000001 0.0
13.200000000000001 1.9000000000000001 0.0
13.600000000000001 1.9000000000000001 0.0
14.0 1.9000000000000001 0.0
14.4 1.9000000000000001 0.0
14.8 1.9000000000000001 0.0
15.200000000000001 1.9000000000000001 0.0
15.600000000000001 1.9000000000000001 0.0
16.0 1.9000000000000001 0.0
0.0 2.0 0.0
0.4 2.0 0.0
0.8 2.0 0.0
1.2000000000000002 2.0 0.0
1.6 2.0 0.0
2.0 2.0 0.0
2.4000000000000004 2.0 0.0
2.8000000000000003 2.0 0.0
3.2 2.0 0.0
3.6 2.0 0.0
4.0 2.0 0.0
4.4 2.0 0.0
4.800000000000001 2.0 0.0
5.2 2.0 0.0
5.6000000000000005 2.0 0.0
6.0 2.0 0.0
6.4 2.0 0.0
6.800000000000001 2.0 0.0
7.2 2.0 0.0
7.6000000000000005 2.0 0.0
8.0 2.0 0.0
8.4 2.0 0.0
8.8 2.0 0.0
9.200000000000001 2.0 0.0
9.600000000000001 2.0 0.0
10.0 2.0 0.0
10.4 2.0 0.0
10.8 2.0 0.0
11.200000000000001 2.0 0.0
11.600000000000001 2.0 0.0
12.0 2.0 0.0
12.4 2.0 0.0
12.8 2.0 0.0
13.200000000000001 2.0 0.0
13.600000000000001 2.0 0.0
14.0 2.0 0.0
14.4 2.0 0.0
14.8 2.0 0.0
15.200000000000001 2.0 0.0
15.600000000000001 2.0 0.0
16.0 2.0 0.0
CELLS 800 4000
4 0 1 42 41
4 1 2 43 42
4 2 3 44 43
4 3 4 45 44
4 4 5 46 45
4 5 6 47 46
4 6 7 48 47
4 7 8 49 48
4 8 9 50 49
4 9 10 51 50
4 10 11 52 51
4 11 12 53 52
4 12 13 54 53
4 13 14 55 54
4 14 15 56 55
4 15 16 57 56
4 16 17 58 57
4 17 18 59 58
4 18 19 60 59
4 19 20 61 60
4 20 21 62 61
4 21 22 63 62
4 22 23 64 63
4 23 24 65 64
4 24 25 66 65
4 25 26 67 66
4 26 27 68 67
4 27 28 69 68
4 28 29 70 69
4 29 30 71 70
4 30 31 72 71
4 31 32 73 72
4 32 33 74 73
4 33 34 75 74
4 34 35 76 75
4 35 36 77 76
4 36 37 78 77
4 37 38 79 78
4 38 39 80 79
4 39 40 81 80
4 41 42 83 82
4 42 43 84 83
4 43 44 85 84
4 44 45 86 85
4 45 46 87 86
4 46 47 88 87
4 47 48 89 88
4 48 49 90 89
4 49 50 91 90
4 50 51 92 91
4 51 52 93 92
4 52 53 94 93
4 53 54 95 94
4 54 55 96 95
4 55 56 97 96
4 56 57 98 97
4 57 58 99 98
4 58 59 100 99
4 59 60 101 100
4 60 61 102 101
4 61 62 103 102
4 62 63 104 103
4 63 64 105 104
4 64 65 106 105
4 65 66 107 106
4 66 67 108 107
4 67 68 109 108
4 68 69 110 109
4 69 70 111 110
4 70 71 112 111
4 71 72 113 112
4 72 73 114 113
4 73 74 115 114
4 74 75 116 115
4 75 76 117 116
4 76 77 118 117
4 77 78 119 118
4 78 79 120 119
4 79 80 121 120
4 80 81 122 121
4 82 83 124 123
4 83 84 125 124
4 84 85 126 125
4 85 86 127 126
4 86 87 128 127
4 87 88 129 128
4 88 89 130 129
4 89 90 131 130
4 90 91 132 131
4 91 92 133 132
4 92 93 134 133
4 93 94 135 134
4 94 95 136 135
4 95 96 137 136
4 96 97 138 137
4 97 98 139 138
4 98 99 140 139
4 99 100 141 140
4 100 101 142 141
4 101 102 143 142
4 102 103 144 143
4 103 104 145 144
4 104 105 146 145
4 105 106 147 146
4 106 107 148 147
4 107 108 149 148
4 108 109 150 149
4 109 110 151 150
4 110 111 152 151
4 111 112 153 152
4 112 113 154 153
4 113 114 155 154
4 114 115 156 155
4 115 116 157 156
4 116 117 158 157
4 117 118 159 158
4 118 119 160 159
4 119 120 161 160
4 120 121 162 161
4 121 122 163 162
4 123 124 165 164
4 124 125 166 165
4 125 126 167 166
4 126 127 168 167
4 127 128 169 168
4 128 129 170 169
4 129 130 171 170
4 130 131 172 171
4 131 132 173 172
4 132 133 174 173
4 133 134 175 174
4 134 135 176 175
4 135 136 177 176
4 136 137 178 177
4 137 138 179 178
4 138 139 180 179
4 139 140 181 180
4 140 141 182 181
4 141 142 183 182
4 142 143 184 183
4 143 144 185 184
4 144 145 186 185
4 145 146 187 186
4 146 147 188 187
4 147 148 189 188
4 148 149 190 189
4 149 150 191 190
4 150 151 192 191
4 151 152 193 192
4 152 153 194 193
4 153 154 195 194
4 154 155 196 195
4 155 156 197 196
4 156 157 198 197
4 157 158 199 198
4 158 159 200 199
4 159 160 201 200
4 160 161 202 201
4 161 162 203 202
4 162 163 204 203
4 164 165 206 205
4 165 166 207 206
4 166 167 208 207
4 167 168 209 208
4 168 169 210 209
4 169 170 211 210
4 170 171 212 211
4 171 172 213 212
4 172 173 214 213
4 173 174 215 214
4 174 175 216 215
4 175 176 217 216
4 176 177 218 217
4 177 178 219 218
4 178 179 220 219
4 179 180 221 220
4 180 181 222 221
4 181 182 223 222
4 182 183 224 223
4 183 184 225 224
4 184 185 226 225
4 185 186 227 226
4 186 187 228 227
4 187 188 229 228
4 188 189 230 229
4 189 190 231 230
4 190 191 232 231
4 191 192 233 232
4 192 193 234 233
4 193 194 235 234
4 194 195 236 235
4 195 196 237 236
4 196 197 238 237
4 197 198 239 238
4 198 199 240 239
4 199 200 241 240
4 200 201 242 241
4 201 202 243 242
4 202 203 244 243
4 203 204 245 244
4 205 206 247 246
4 206 207 248 247
4 207 208 249 248
4 208 209 250 249
4 209 210 251 250
4 210 211 252 251
4 211 212 253 252
4 212 213 254 253
4 213 214 255 254
4 214 215 256 255
4 215 216 257 256
4 216 217 258 257
4 217 218 259 258
4 218 219 260 259
4 219 220 261 260
4 220 221 262 261
4 221 222 263 262
4 222 223 264 263
4 223 224 265 264
4 224 225 266 265
4 225 226 267 266
4 226 227 268 267
4 227 228 269 268
4 228 229 270 269
4 229 230 271 270
4 230 231 272 271
4 231 232 273 272
4 232 233 274 273
4 233 234 275 274
4 234 235 276 275
4 235 236 277 276
4 236 237 278 277
4 237 238 279 278
4 238 239 280 279
4 239 240 281 280
4 240 241 282 281
4 241 242 283 282
4 242 243 284 283
4 243 244 285 284
4 244 245 286 285
4 246 247 288 287
4 247 248 289 288
4 248 249 290 289
4 249 250 291 290
4 250 251 292 291
4 251 252 293 292
4 252 253 294 293
4 253 254 295 294
4 254 255 296 295
4 255 256 297 296
4 256 257 298 297
4 257 258 299 298
4 258 259 300 299
4 259 260 301 300
4 260 261 302 301
4 261 262 303 302
4 262 263 304 303
4 263 264 305 304
4 264 265 306 305
4 265 266 307 306
4 266 267 308 307
4 267 268 309 308
4 268 269 310 309
4 269 270 311 310
4 270 271 312 311
4 271 272 313 312
4 272 273 314 313
4 273 274 315 314
4 274 275 316 315
4 275 276 317 316
4 276 277 318 317
4 277 278 319 318
4 278 279 320 319
4 279 280 321 320
4 280 281 322 321
4 281 282 323 322
4 282 283 324 323
4 283 284 325 324
4 284 285 326 325
4 285 286 327 326
4 287 288 329 328
4 288 289 330 329
4 289 290 331 330
4 290 291 332 331
4 291 292 333 332
4 292 293 334 333
4 293 294 335 334
4 294 295 336 335
4 295 296 337 336
4 296 297 338 337
4 297 298 339 338
4 298 299 340 339
4 299 300 341 340
4 300 301 342 341
4 301 302 343 342
4 302 303 344 343
4 303 304 345 344
4 304 305 346 345
4 305 306 347 346
4 306 307 348 347
4 307 308 349 348
4 308 309 350 349
4 309 310 351 350
4 310 311 352 351
4 311 312 353 352
4 312 313 354 353
4 313 314 355 354
4 314 315 356 355
4 315 316 357 356
4 316 317 358 357
4 317 318 359 358
4 318 319 360 359
4 319 320 361 360
4 320 321 362 361
4 321 322 363 362
4 322 323 364 363
4 323 324 365 364
4 324 325 366 365
4 325 326 367 366
4 326 327 368 367
4 328 329 370 369
4 329 330 371 370
4 330 331 372 371
4 331 332 373 372
4 332 333 374 373
4 333 334 375 374
4 334 335 376 375
4 335 336 377 376
4 336 337 378 377
4 337 338 379 378
4 338 339 380 379
4 339 340 381 380
4 340 341 382 381
4 341 342 383 382
4 342 343 384 383
4 343 344 385 384
4 344 345 386 385
4 345 346 387 386
4 346 347 388 387
4 347 348 389 388
4 348 349 390 389
4 349 350 391 390
4 350 351 392 391
4 351 352 393 392
4 352 353 394 393
4 353 354 395 394
4 354 355 396 395
4 355 356 397 396
4 356 357 398 397
4 357 358 399 398
4 358 359 400 399
4 359 360 401 400
4 360 361 402 401
4 361 362 403 402
4 362 363 404 403
4 363 364 405 404
4 364 365 406 405
4 365 366 407 406
4 366 367 408 407
4 367 368 409 408
4 369 370 411 410
4 370 371 412 411
4 371 372 413 412
4 372 373 414 413
4 373 374 415 414
4 374 375 416 415
4 375 376 417 416
4 376 377 418 417
4 377 378 419 418
4 378 379 420 419
4 379 380 421 420
4 380 381 422 421
4 381 382 423 422
4 382 383 424 423
4 383 384 425 424
4 384 385 426 425
4 385 386 427 426
4 386 387 428 427
4 387 388 429 428
4 388 389 430 429
4 389 390 431 430
4 390 391 432 431
4 391 392 433 432
4 392 393 434 433
4 393 394 435 434
4 394 395 436 435
4 395 396 437 436
4 396 397 438 437
4 397 398 439 438
4 398 399 440 439
4 399 400 441 440
4 400 401 442 441
4 401 402 443 442
4 402 403 444 443
4 403 404 445 444
4 404 405 446 445
4 405 406 447 446
4 406 407 448 447
4 407 408 449 448
4 408 409 450 449
4 410 411 452 451
4 411 412 453 452
4 412 413 454 453
4 413 414 455 454
4 414 415 456 455
4 415 416 457 456
4 416 417 458 457
4 417 418 459 458
4 418 419 460 459
4 419 420 461 460
4 420 421 462 461
4 421 422 463 462
4 422 423 464 463
4 423 424 465 464
4 424 425 466 465
4 425 426 467 466
4 426 427 468 467
4 427 428 469 468
4 428 429 470 469
4 429 430 471 470
4 430 431 472 471
4 431 432 473 472
4 432 433 474 473
4 433 434 475 474
4 434 435 476 475
4 435 436 477 476
4 436 437 478 477
4 437 438 479 478
4 438 439 480 479
4 439 440 481 480
4 440 441 482 481
4 441 442 483 482
4 442 443 484 483
4 443 444 485 484
4 444 445 486 485
4 445 446 487 486
4 446 447 488 487
4 447 448 489 488
4 448 449 490 489
4 449 450 491 490
4 451 452 493 492
4 452 453 494 493
4 453 454 495 494
4 454 455 496 495
4 455 456 497 496
4 456 457 498 497
4 457 458 499 498
4 458 459 500 499
4 459 460 501 500
4 460 461 502 501
4 461 462 503 502
4 462 463 504 503
4 463 464 505 504
4 464 465 506 505
4 465 466 507 506
4 466 467 508 507
4 467 468 509 508
4 468 469 510 509
4 469 470 511 510
4 470 471 512 511
4 471 472 513 512
4 472 473 514 513
4 473 474 515 514
4 474 475 516 515
4 475 476 517 516
4 476 477 518 517
4 477 478 519 518
4 478 479 520 519
4 479 480 521 520
4 480 481 522 521
4 481 482 523 522
4 482 483 524 523
4 483 484 525 524
4 484 485 526 525
4 485 486 527 526
4 486 487 528 527
4 487 488 529 528
4 488 489 530 529
4 489 490 531 530
4 490 491 532 531
4 492 493 534 533
4 493 494 535 534
4 494 495 536 535
4 495 496 537 536
4 496 497 538 537
4 497 498 539 538
4 498 499 540 539
4 499 500 541 540
4 500 501 542 541
4 501 502 543 542
4 502 503 544 543
4 503 504 545 544
4 504 505 546 545
4 505 506 547 546
4 506 507 548 547
4 507 508 549 548
4 508 509 550 549
4 509 510 551 550
4 510 511 552 551
4 511 512 553 552
4 512 513 554 553
4 513 514 555 554
4 514 515 556 555
4 515 516 557 556
4 516 517 558 557
4 517 518 559 558
4 518 519 560 559
4 519 520 561 560
4 520 521 562 561
4 521 522 563 562
4 522 523 564 563
4 523 524 565 564
4 524 525 566 565
4 525 526 567 566
4 526 527 568 567
4 527 528 569 568
4 528 529 570 569
4 529 530 571 570
4 530 531 572 571
4 531 532 573 572
4 533 534 575 574
4 534 535 576 575
4 535 536 577 576
4 536 537 578 577
4 537 538 579 578
4 538 539 580 579
4 539 540 581 580
4 540 541 582 581
4 541 542 583 582
4 542 543 584 583
4 543 544 585 584
4 544 545 586 585
4 545 546 587 586
4 546 547 588 587
4 547 548 589 588
4 548 549 590 589
4 549 550 591 590
4 550 551 592 591
4 551 552 593 592
4 552 553 594 593
4 553 554 595 594
4 554 555 596 595
4 555 556 597 596
4 556 557 598 597
4 557 558 599 598
4 558 559 600 599
4 559 560 601 600
4 560 561 602 601
4 561 562 603 602
4 562 563 604 603
4 563 564 605 604
4 564 565 606 605
4 565 566 607 606
4 566 567 608 607
4 567 568 609 608
4 568 569 610 609
4 569 570 611 610
4 570 571 612 611
4 571 572 613 612
4 572 573 614 613
4 574 575 616 615
4 575 576 617 616
4 576 577 618 617
4 577 578 619 618
4 578 579 620 619
4 579 580 621 620
4 580 581 622 621
4 581 582 623 622
4 582 583 624 623
4 583 584 625 624
4 584 585 626 625
4 585 586 627 626
4 586 587 628 627
4 587 588 629 628
4 588 589 630 629
4 589 590 631 630
4 590 591 632 631
4 591 592 633 632
4 592 593 634 633
4 593 594 635 634
4 594 595 636 635
4 595 596 637 636
4 596 597 638 637
4 597 598 639 638
4 598 599 640 639
4 599 600 641 640
4 600 601 642 641
4 601 602 643 642
4 602 603 644 643
4 603 604 645 644
4 604 605 646 645
4 605 606 647 646
4 606 607 648 647
4 607 608 649 648
4 608 609 650 649
4 609 610 651 650
4 610 611 652 651
4 611 612 653 652
4 612 613 654 653
4 613 614 655 654
4 615 616 657 656
4 616 617 658 657
4 617 618 659 658
4 618 619 660 659
4 619 620 661 660
4 620 621 662 661
4 621 622 663 662
4 622 623 664 663
4 623 624 665 664
4 624 625 666 665
4 625 626 667 666
4 626 627 668 667
4 627 628 669 668
4 628 629 670 669
4 629 630 671 670
4 630 631 672 671
4 631 632 673 672
4 632 633 674 673
4 633 634 675 674
4 634 635 676 675
4 635 636 677 676
4 636 637 678 677
4 637 638 679 678
4 638 639 680 679
4 639 640 681 680
4 640 641 682 681
4 641 642 683 682
4 642 643 684 683
4 643 644 685 684
4 644 645 686 685
4 645 646 687 686
4 646 647 688 687
4 647 648 689 688
4 648 649 690 689
4 649 650 691 690
4 650 651 692 691
4 651 652 693 692
4 652 653 694 693
4 653 654 695 694
4 654 655 696 695
4 656 657 698 697
4 657 658 699 698
4 658 659 700 699
4 659 660 701 700
4 660 661 702 701
4 661 662 703 702
4 662 663 704 703
4 663 664 705 704
4 664 665 706 705
4 665 666 707 706
4 666 667 708 707
4 667 668 709 708
4 668 669 710 709
4 669 670 711 710
4 670 671 712 711
4 671 672 713 712
4 672 673 714 713
4 673 674 715 714
4 674 675 716 715
4 675 676 717 716
4 676 677 718 717
4 677 678 719 718
4 678 679 720 719
4 679 680 721 720
4 680 681 722 721
4 681 682 723 722
4 682 683 724 723
4 683 684 725 724
4 684 685 726 725
4 685 686 727 726
4 686 687 728 727
4 687 688 729 728
4 688 689 730 729
4 689 690 731 730
4 690 691 732 731
4 691 692 733 732
4 692 693 734 733
4 693 694 735 734
4 694 695 736 735
4 695 696 737 736
4 697 698 739 738
4 698 699 740 739
4 699 700 741 740
4 700 701 742 741
4 701 702 743 742
4 702 703 744 743
4 703 704 745 744
4 704 705 746 745
4 705 706 747 746
4 706 707 748 747
4 707 708 749 748
4 708 709 750 749
4 709 710 751 750
4 710 711 752 751
4 711 712 753 752
4 712 713 754 753
4 713 714 755 754
4 714 715 756 755
4 715 716 757 756
4 716 717 758 757
4 717 718 759 758
4 718 719 760 759
4 719 720 761 760
4 720 721 762 761
4 721 722 763 762
4 722 723 764 763
4 723 724 765 764
4 724 725 766 765
4 725 726 767 766
4 726 727 768 767
4 727 728 769 768
4 728 729 770 769
4 729 730 771 770
4 730 731 772 771
4 731 732 773 772
4 732 733 774 773
4 733 734 775 774
4 734 735 776 775
4 735 736 777 776
4 736 737 778 777
4 738 739 780 779
4 739 740 781 780
4 740 741 782 781
4 741 742 783 782
4 742 743 784 783
4 743 744 785 784
4 744 745 786 785
4 745 746 787 786
4 746 747 788 787
4 747 748 789 788
4 748 749 790 789
4 749 750 791 790
4 750 751 792 791
4 751 752 793 792
4 752 753 794 793
4 753 754 795 794
4 754 755 796 795
4 755 756 797 796
4 756 757 798 797
4 757 758 799 798
4 758 759 800 799
4 759 760 801 800
4 760 761 802 801
4 761 762 803 802
4 762 763 804 803
4 763 764 805 804
4 764 765 806 805
4 765 766 807 806
4 766 767 808 807
4 767 768 809 808
4 768 769 810 809
4 769 770 811 810
4 770 771 812 811
4 771 772 813 812
4 772 773 814 813
4 773 774 815 814
4 774 775 816 815
4 775 776 817 816
4 776 777 818 817
4 777 778 819 818
4 779 780 821 820
4 780 781 822 821
4 781 782 823 822
4 782 783 824 823
4 783 784 825 824
4 784 785 826 825
4 785 786 827 826
4 786 787 828 827
4 787 788 829 828
4 788 789 830 829
4 789 790 831 830
4 790 791 832 831
4 791 792 833 832
4 792 793 834 833
4 793 794 835 834
4 794 795 836 835
4 795 796 837 836
4 796 797 838 837
4 797 798 839 838
4 798 799 840 839
4 799 800 841 840
4 800 801 842 841
4 801 802 843 842
4 802 803 844 843
4 803 804 845 844
4 804 805 846 845
4 805 806 847 846
4 806 807 848 847
4 807 808 849 848
4 808 809 850 849
4 809 810 851 850
4 810 811 852 851
4 811 812 853 852
4 812 813 854 853
4 813 814 855 854
4 814 815 856 855
4 815 816 857 856
4 816 817 858 857
4 817 818 859 858
4 818 819 860 859
CELL_TYPES 800
9
9
9
9
9
9
9
9
9
9
9
9
9
9
9
9
9
9
9
9
9
9
9
9
9
9
9
9
9
9
9
9
9
9
9
9
9
9
9
9
9
9
9
9
9
9
9
9
9
9
9
9
9
9
9
9
9
9
9
9
9
9
9
9
9
9
9
9
9
9
9
9
9
9
9
9
9
9
9
9
9
9
9
9
9
9
9
9
9
9
9
9
9
9
9
9
9
9
9
9
9
9
9
9
9
9
9
9
9
9
9
9
9
9
9
9
9
9
9
9
9
9
9
9
9
9
9
9
9
9
9
9
9
9
9
9
9
9
9
9
9
9
9
9
9
9
9
9
9
9
9
9
9
9
9
9
9
9
9
9
9
9
9
9
9
9
9
9
9
9
9
9
9
9
9
9
9
9
9
9
9
9
9
9
9
9
9
9
9
9
9
9
9
9
9
9
9
9
9
9
9
9
9
9
9
9
9
9
9
9
9
9
9
9
9
9
9
9
9
9
9
9
9
9
9
9
9
9
9
9
9
9
9
9
9
9
9
9
9
9
9
9
9
9
9
9
9
9
9
9
9
9
9
9
9
9
9
9
9
9
9
9
9
9
9
9
9
9
9
9
9
9
9
9
9
9
9
9
9
9
9
9
9
9
9
9
9
9
9
9
9
9
9
9
9
9
9
9
9
9
9
9
9
9
9
9
9
9
9
9
9
9
9
9
9
9
9
9
9
9
9
9
9
9
9
9
9
9
9
9
9
9
9
9
9
9
9
9
9
9
9
9
9
9
9
9
9
9
9
9
9
9
9
9
9
9
9
9
9
9
9
9
9
9
9
9
9
9
9
9
9
9
9
9
9
9
9
9
9
9
9
9
9
9
9
9
9
9
9
9
9
9
9
9
9
9
9
9
9
9
9
9
9
9
9
9
9
9
9
9
9
9
9
9
9
9
9
9
9
9
9
9
9
9
9
9
9
9
9
9
9
9
9
9
9
9
9
9
9
9
9
9
9
9
9
9
9
9
9
9
9
9
9
9
9
9
9
9
9
9
9
9
9
9
9
9
9
9
9
9
9
9
9
9
9
9
9
9
9
9
9
9
9
9
9
9
9
9
9
9
9
9
9
9
9
9
9
9
9
9
9
9
9
9
9
9
9
9
9
9
9
9
9
9
9
9
9
9
9
9
9
9
9
9
9
9
9
9
9
9
9
9
9
9
9
9
9
9
9
9
9
9
9
9
9
9
9
9
9
9
9
9
9
9
9
9
9
9
9
9
9
9
9
9
9
9
9
9
9
9
9
9
9
9
9
9
9
9
9
9
9
9
9
9
9
9
9
9
9
9
9
9
9
9
9
9
9
9
9
9
9
9
9
9
9
9
9
9
9
9
9
9
9
9
9
9
9
9
9
9
9
9
9
9
9
9
9
9
9
9
9
9
9
9
9
9
9
9
9
9
9
9
9
9
9
9
9
9
9
9
9
9
9
9
9
9
9
9
9
9
9
9
9
9
9
9
9
9
9
9
9
9
9
9
9
9
9
9
9
9
9
9
9
9
9
9
9
9
9
9
9
9
9
9
9
9
9
9
9
9
9
9
9
9
9
9
9
9
9
9
9
9
9
9
9
9
9
9
9
9
9
9
9
9
9
9
9
9
9
9
9
9
9
9
9
9
9
9
9
9
9
9
9
9
9
9
9
9
9
9
9
9
9
9
9
9
9
9
9
9
9
9
9
9
9
9
9
9
9
9
9
9
9
9
9
9
9
9
9
9
9
9
9
9
9
9
9
9
9
9
9
9
9
9
9
9
9
9
9
9
POINT_DATA 861
SCALARS Disp float 2
LOOKUP_TABLE default
0.0 0.0
0.006048305428743736 -0.2752965097924158
0.007438447667268543 -0.5410422698456623
0.008236720856975618 -0.8056723818000044
0.009286538017895833 -1.0699155540834735
0.011032654833467541 -1.3333225429213746
0.01416090079634431 -1.5952913254437857
0.019518123703682458 -1.855062127605114
0.028103684542485505 -2.1116819144602386
0.041006616272987496 -2.3639026303573885
0.059309310485591606 -2.610036167437002
0.08402124483346125 -2.8478747125929345
0.11604831766453623 -3.0747299233860788
0.15618318202679465 -3.28755996627961
0.20509918036287042 -3.483058801436098
0.2632810181312697 -3.6577300196074134
0.3309028255675879 -3.8079841473139755
0.4076849122234148 -3.930293454855326
0.4927747187629298 -4.021434950612474
0.584702271508775 -4.078741064826302
0.6811408529874395 -4.100414144059003
0.7775794344660987 -4.078741064826172
0.8695069872119241 -4.021434950612211
0.9545967937514054 -3.930293454854946
1.031378880407189 -3.8079841473134977
1.0990006878434606 -3.657730019606869
1.1571825256118122 -3.4830588014355017
1.2060985239478408 -3.287559966278978
1.2462333883100527 -3.0747299233854317
1.2782604611410835 -2.8478747125922927
1.3029723954889132 -2.6100361674363826
1.3212750897014842 -2.363902630356806
1.3341780214319605 -2.111681914459701
1.3427635822707447 -1.855062127604629
1.34812080517807 -1.5952913254433585
1.3512490511409392 -1.3333225429210132
1.3529951679565069 -1.0699155540831773
1.354044985117426 -0.8056723817997784
1.354843258307133 -0.5410422698455043
1.356233400545656 -0.275296509792329
1.3622817059743964 0.0
0.06866747121885144 -0.0025010091511354846
0.07292253402202277 -0.27558516670368877
0.07364235656845126 -0.5411052588426664
0.07434797420673586 -0.8057640813809545
0.07526471932121884 -1.070071358445088
0.07674391705216965 -1.3336766012668015
0.0794301685792068 -1.5960341356560934
0.08412288022060958 -1.8564218139947588
0.09175997332219224 -2.113913589211536
0.10333523683678217 -2.3672661677293925
0.11981429562385862 -2.6147779625076
0.1420828764567228 -2.854218944744618
0.17094126078822877 -3.0828773854892053
0.20710944210853718 -3.297686966779421
0.2512016621926588 -3.4953090065835006
0.30367005318688145 -3.6721914048878195
0.36469671521466274 -3.8246560690995377
0.43406650951975534 -3.9490537495967097
0.5110490634818445 -4.042013459838433
0.5942386392691963 -4.100691979845016
0.6811408529874237 -4.122934446090688
0.7680430667056457 -4.100691979844884
0.8512326424929788 -4.042013459838164
0.9282151964550386 -3.94905374959632
0.9975849907600934 -3.82465606909905
1.0586116527878333 -3.672191404887264
1.111080043782013 -3.4953090065828927
1.155172263866092 -3.297686966778778
1.1913404451863585 -3.0828773854885476
1.2201988295178248 -2.8542189447439665
1.242467410350653 -2.614777962506972
1.2589464691376995 -2.367266167728803
1.270521732652266 -2.1139135892109935
1.2781588257538314 -1.8564218139942708
1.2828515373952227 -1.5960341356556642
1.2855377889222532 -1.333676601266439
1.2870169866532009 -1.0700713584447916
1.2879337317676833 -0.8057640813807284
1.2886393494059676 -0.5411052588425084
1.2893591719523958 -0.27558516670360156
1.2936142347555615 -0.0025010091511329735
0.13632231290375266 -0.004493248805168297
0.1394553323322745 -0.2757293635706205
0.13986595323678883 -0.5411370997491691
0.14044083201365629 -0.8058446219855969
0.1412351890286948 -1.0701945917977946
0.1424744358112293 -1.3339567233915597
0.14473011270286085 -1.5966501771426622
0.1487613319947684 -1.8575898692255066
0.1554330808934122 -2.1158702479180946
0.16564683987989087 -2.370245713900673
0.18025716045791432 -2.6189975038648874
0.20003628052511158 -2.8598741475462512
0.2256808478796902 -3.090146027513892
0.25782656232669393 -3.3067290582635245
0.29703305869281565 -3.506256466528349
0.3437221360091161 -3.685129083471862
0.3980953359413248 -3.8395937340644095
0.4600181197671667 -3.9658938317673327
0.5288681352636047 -4.060515028292734
0.6033039450103128 -4.1203997196127675
0.681140852987408 -4.143152662415659
0.7589777609644984 -4.1203997196126325
0.8334135707111897 -4.06051502829246
0.9022635862076016 -3.9658938317669348
0.9641863700334107 -3.839593734063913
1.0185595699655827 -3.685129083471297
1.065248647281845 -3.506256466527731
1.1044551436479284 -3.306729058262872
1.1366008580948952 -3.0901460275132244
1.1622454254494388 -2.8598741475455904
1.182024545516604 -2.618997503864252
1.1966348660946005 -2.3702457139000774
1.2068486250810584 -2.115870247917547
1.2135203739796867 -1.857589869225015
1.217551593271584 -1.5966501771422312
1.2198072701632101 -1.3339567233911962
1.221046516945742 -1.0701945917974982
1.2218408739607802 -0.8058446219853708
1.2224157527376476 -0.5411370997490111
1.2228263736421618 -0.2757293635705329
1.225959393070678 -0.004493248805162957
0.2034412033770872 -0.006097368552212129
0.2058174249533737 -0.27582779549912656
0.20606720327837832 -0.5411544654045969
0.2065165379989908 -0.8059092301767219
0.20719314294403082 -1.0702938547539493
0.20822103614014978 -1.3341714712997679
0.21007117959605098 -1.597143807109521
0.21344918546582758 -1.858567243452162
0.21914985166197082 -2.1175480745595547
0.22798254002387244 -2.3728342752709883
0.24069573964958896 -2.622686158739832
0.25795256765584407 -2.8648319032951703
0.28035025312089373 -3.096527044388619
0.3084391030025798 -3.314674957698394
0.34271370688458763 -3.5158881823258756
0.38357267679017865 -3.6965298721866513
0.4312411802264913 -3.8527858591586357
0.485663397366198 -3.980805467488029
0.5463342474409031 -4.076931259923749
0.612108672672956 -4.137915336650638
0.6811408529873932 -4.161183774085438
0.7501730333018254 -4.137915336650499
0.8159474585338635 -4.0769312599234695
0.8766183086085453 -3.980805467487624
0.9310405257482233 -3.852785859158131
0.9787090291845042 -3.696529872186078
1.0195679990900615 -3.5158881823252495
1.053842602972036 -3.3146749576977323
1.0819314528536894 -3.0965270443879436
1.1043291383187086 -2.8648319032945024
1.121585966324936 -2.6226861587391896
1.1342991659506287 -2.3728342752703875
1.1431318543125117 -2.1175480745590036
1.1488325205086414 -1.8585672434516678
1.1522105263784093 -1.5971438071090882
1.1540606698343059 -1.3341714712994037
1.1550885630304233 -1.070293854753653
1.1557651679754628 -0.8059092301764957
1.1562145026960753 -0.541154465404439
1.15646428102108 -0.27582779549903863
1.1588405025973612 -0.006097368552204228
0.2702550764661818 -0.007395852840325507
0.27206359768964256 -0.2759039972192637
0.27222629603825665 -0.5411644049426243
0.27257027945082435 -0.8059591871737585
0.2731346914100075 -1.0703738295174043
0.27397611990222526 -1.3343332391861966
0.2754605669335545 -1.5975235122525187
0.2782010783751384 -1.8593569760285353
0.2829373891145956 -2.1189470221851128
0.2903833974804577 -2.375028769028453
0.30118612371113185 -2.6258395675327275
0.3159040667577536 -2.8690870085651756
0.3350345548635398 -3.10201497370525
0.35904407359228235 -3.321518672141819
0.3883660353754254 -3.524196120723796
0.4233627064636792 -3.7063837898246934
0.4642782298099189 -3.864220423792441
0.5111379841467069 -3.99377481022348
0.563593542954837 -4.091263934505822
0.6207587381448724 -4.153277392689506
0.6811408529873786 -4.1770902474943075
0.7415229678298796 -4.153277392689365
0.798688163019902 -4.091263934505538
0.8511437218280116 -3.9937748102230692
0.898003476164775 -3.86422042379193
0.9389189995109872 -3.7063837898241125
0.973915670599212 -3.524196120723162
1.0032376323823264 -3.32151867214115
1.0272471511110413 -3.102014973704567
1.046377639216801 -2.8690870085645006
1.0610955822633992 -2.62583956753208
1.0718983084940532 -2.375028769027847
1.079344316859899 -2.1189470221845577
1.0840806275993446 -1.8593569760280386
1.0868211390409213 -1.5975235122520848
1.088305586072247 -1.3343332391858322
1.0891470145644637 -1.070373829517108
1.0897114265236465 -0.8059591871735324
1.0900554099362143 -0.5411644049424665
1.0902181082848283 -0.2759039972191754
1.0920266295082848 -0.007395852840315289
0.3368678394109614 -0.008440791279880042
0.3382290748163433 -0.2759660129289064
0.33834135947868577 -0.5411716272684118
0.33859880133585923 -0.8059962455528529
0.33905500718596765 -1.0704382007368238
0.33973358631879447 -1.3344534072383696
0.3408914130787103 -1.5978031818166631
0.34303807172256834 -1.8599654975294424
0.3468228404844033 -2.120070205983888
0.3528904212011617 -2.3768301977179296
0.36178421604289207 -2.628457162047342
0.3739609057172282 -2.872638416505045
0.3898211227595559 -3.1066082207021353
0.4097463027401344 -3.3272580885702583
0.4341052347680332 -3.531177927621718
0.4632291474558207 -3.714685429488284
0.4973615211149087 -3.8738859263820125
0.5365995159950646 -4.004788157930618
0.5807854568785807 -4.103510435895551
0.629339420936873 -4.166505579729684
0.6811408529873637 -4.190909171954031
0.7329422850378499 -4.166505579729541
0.78149624909613 -4.103510435895263
0.8256821899796296 -4.004788157930203
0.8649201848597646 -3.873885926381495
0.8990525585188288 -3.714685429487696
0.9281764712065922 -3.5311779276210773
0.9525354032344672 -3.3272580885695833
0.9724605832150227 -3.1066082207014456
0.9883208002573286 -2.872638416504364
1.000497489931645 -2.6284571620466894
1.0093912847733588 -2.37683019771732
1.0154588654901036 -2.12007020598333
1.019243634251929 -1.8599654975289435
1.0213902928957814 -1.5978031818162282
1.0225481196556945 -1.334453407238005
1.0232266987885208 -1.0704382007365276
1.0236829046386289 -0.8059962455526266
1.0239403464958023 -0.5411716272682541
1.0240526311581448 -0.2759660129288179
1.0254138665635233 -0.008440791279867913
0.4033336637734444 -0.009271995164760412
0.4043379013060289 -0.2760170251689622
0.40441778507976595 -0.5411785007558999
0.40460189182743966 -0.8060219047670834
0.40495220666744747 -1.070489155996976
0.40548543429435724 -1.33454180999224
0.4063548541368471 -1.5979996070212525
0.40795917777633667 -1.8604078631528231
0.4108369110047878 -2.1209245980620524
0.4155453786385659 -2.3782433630095134
0.4225466676614675 -2.6305426616797125
0.43219531315239673 -2.875489188453175
0.4447970193729044 -3.1103097086605844
0.46064943534064806 -3.3318958544323634
0.4800565736517008 -3.536835140414838
0.503308823083419 -3.721434387655742
0.5306457473945551 -3.881775769076046
0.5622203598287115 -4.0138317000262
0.5980608142674688 -4.113658545498194
0.637935311875051 -4.177600701100123
0.6811408529873487 -4.202656786665492
0.7243463940996421 -4.177600701099977
0.7642208917072142 -4.113658545497903
0.8000613461459581 -4.01383170002578
0.831635958580097 -3.8817757690755244
0.8589728828912141 -3.721434387655149
0.8822251323229124 -3.5368351404141922
0.9016322706339464 -3.331895854431683
0.917484686601672 -3.1103097086598903
0.9300863928221623 -2.8754891884524896
0.9397350383130757 -2.6305426616790557
0.946736327335964 -2.3782433630089
0.9514447949697314 -2.1209245980614915
0.9543225281981753 -1.860407863152323
0.9559268518376608 -1.5979996070208164
0.9567962716801487 -1.334541809991875
0.957329499307058 -1.0704891559966796
0.9576798141470657 -0.8060219047668572
0.9578639208947393 -0.5411785007557421
0.9579438046684763 -0.27601702516887355
0.9589480422010582 -0.009271995164746732
0.4696885320622288 -0.009921564239611423
0.4704080004903687 -0.27605944240086444
0.4704633514750092 -0.5411855215655141
0.4705815269401878 -0.8060374360173997
0.47082744728826453 -1.0705270093598451
0.47122326137835285 -1.334606193694588
0.47184515484643713 -1.5981293344379683
0.4729608995935857 -1.8607046192330339
0.4749946770822952 -2.121526097722284
0.47839337447811314 -2.3792779314066204
0.48353233321809835 -2.6321040224609646
0.4906796326734569 -2.877646904771082
0.5000518450314321 -3.113127317732221
0.5118611642804352 -3.33543965601717
0.5263416402989698 -3.5411746102033215
0.5437432688531972 -3.726635259164127
0.564295023937574 -3.8878893282122466
0.5881795268701739 -4.020893747314354
0.6155840212051196 -4.121685855352152
0.6466417827246497 -4.186542886480953
0.681140852987333 -4.212328281210028
0.7156399232500137 -4.186542886480806
0.7466976847695357 -4.121685855351858
0.7741021791044708 -4.02089374731393
0.7979866820370565 -3.8878893282117213
0.8185384371214193 -3.7266352591635292
0.8359400656756312 -3.5411746102026713
0.8504205416941526 -3.3354396560164856
0.8622298609431421 -3.1131273177315237
0.8716020733011043 -2.8776469047703936
0.8787493727564515 -2.632104022460305
0.8838883314964265 -2.3792779314060044
0.8872870288922369 -2.121526097721721
0.8893208063809412 -1.8607046192325325
0.8904365511280868 -1.5981293344375322
0.8910584445961701 -1.334606193694223
0.891454258686258 -1.0705270093595487
0.8917001790343347 -0.8060374360171735
0.8918183544995132 -0.5411855215653565
0.8918737054841538 -0.27605944240077557
0.8925931739122916 -0.009921564239596498
0.535954691027408 -0.010419523823882539
0.5364559076987871 -0.2760954388272779
0.5364852435303084 -0.541191856996777
0.536541057435914 -0.806043845218239
0.5366849055324218 -1.0705511277677435
0.5369422916399247 -1.334650923588371
0.5373466509610199 -1.5982098115500922
0.5380380598293292 -1.8608807440912745
0.5393023634368899 -2.1218997234482777
0.5414662996859235 -2.379953075974882
0.5448011475938506 -2.6331553728501818
0.5494930968611866 -2.879124765564436
0.5556782721039187 -3.1150746535808835
0.5634904819688904 -3.3379034036400217
0.5730899067819001 -3.544208816316654
0.5846744763357349 -3.7302984182827212
0.5984658553319502 -3.8922344906209956
0.6146745169806352 -4.025968730908651
0.6335562622477541 -4.127561573391947
0.6555791074595606 -4.193288679551186
0.6811408529873169 -4.219895144722742
0.706702598515071 -4.193288679551038
0.7287254437268724 -4.127561573391651
0.7476071889939839 -4.025968730908224
0.7638158506426587 -3.892234490620467
0.7776072296388644 -3.730298418282121
0.7891917991926889 -3.544208816316001
0.79879122400569 -3.3379034036393342
0.8066034338706534 -3.115074653580183
0.8127886091133777 -2.879124765563745
0.8174805583807061 -2.63315537284952
0.8208154062886265 -2.379953075974265
0.8229793425376555 -2.1218997234477137
0.8242436461452131 -1.8608807440907724
0.8249350550135208 -1.5982098115496557
0.8253394143346152 -1.334650923588006
0.825596800442118 -1.0705511277674469
0.8257406485386257 -0.8060438452180126
0.8257964624442313 -0.5411918569966192
0.8258257982757524 -0.2760954388271891
0.8263270149471302 -0.010419523823866614
0.602148178906083 -0.010795813605497657
0.6024918350613477 -0.27612773291403453
0.6024901676021142 -0.5411956820513258
0.6024846107735714 -0.8060418832131581
0.6025291807316882 -1.0705611996465088
0.6026443574675651 -1.3346763892937972
0.6028430970359053 -1.5982546399537547
0.6031731102713818 -1.8609666367280082
0.6037579925287797 -2.1220819830949154
0.6047846105007437 -2.38030172868249
0.6064015613573708 -2.6337236855651223
0.608709783917882 -2.879946041201667
0.6117675970890338 -3.1161739200616347
0.6156403134718916 -3.339310019105471
0.6204180106543141 -3.545959813025718
0.6262342965777877 -3.732441800015254
0.6332887443737049 -3.8948266671938434
0.6418439198386151 -4.029068549445028
0.6522047297210146 -4.131260255735714
0.6649315739330205 -4.197766541691975
0.6811408529873003 -4.225295191840888
0.6973501320415793 -4.197766541691827
0.710076976253583 -4.131260255735416
0.7204377861359774 -4.0290685494446
0.7289929616008818 -3.894826667193313
0.7360474093967942 -3.7324418000146515
0.7418636953202633 -3.545959813025063
0.7466413925026824 -3.3393100191047824
0.750514108885537 -3.116173920060933
0.7535719220566852 -2.879946041200974
0.755880144617193 -2.6337236855644597
0.7574970954738173 -2.380301728681872
0.7585237134457793 -2.1220819830943514
0.759108595703176 -1.860966636727506
0.7594386089386519 -1.5982546399533182
0.759637348506992 -1.334676389293432
0.7597525252428687 -1.070561199646212
0.7597970952009855 -0.8060418832129319
0.7597915383724427 -0.541195682051168
0.7597898709132089 -0.2761277329139457
0.760133527068473 -0.010795813605481036
0.6682865653850096 -0.011076493447447345
0.6685189967304763 -0.2761594480947123
0.6684831953293011 -0.5411950282866366
0.66841677765493 -0.8060320143525506
0.6683645819890197 -1.070557308328762
0.6683377384400425 -1.33468175570287
0.6683272927740753 -1.598268700383538
0.6683235014285308 -1.860992048500204
0.6683220179829741 -2.122129243277911
0.6683218853145032 -2.380389487799976
0.6683219913512639 -2.633869383182594
0.6683203766492305 -2.8801647049222674
0.6683108474238968 -3.116476586393965
0.668291062528338 -3.339709117337455
0.6682785350269975 -3.54647512948904
0.668345373849285 -3.7331075937982523
0.6686644768089908 -3.8957006270449273
0.6695580501483287 -4.030232860193616
0.6714702509134525 -4.132812139205231
0.6748964336450841 -4.19990670098499
0.6811408529872831 -4.2284223728943
0.6873852723294824 -4.199906700984841
0.6908114550611134 -4.132812139204932
0.6927236558262357 -4.030232860193187
0.6936172291655732 -3.895700627044397
0.6939363321252803 -3.7331075937976497
0.6940031709475686 -3.5464751294883845
0.6939906434462292 -3.339709117336766
0.6939708585506724 -3.1164765863932633
0.6939613293253404 -2.8801647049215746
0.6939597146233081 -2.633869383181931
0.6939598206600697 -2.380389487799358
0.6939596879915993 -2.1221292432773464
0.6939582045460428 -1.8609920484997016
0.6939544132004986 -1.5982687003831018
0.6939439675345315 -1.3346817557025048
0.6939171239855544 -1.0705573083284654
0.6938649283196441 -0.8060320143523242
0.693798510645273 -0.5411950282864787
0.6937627092440977 -0.27615944809462356
0.6939951405895639 -0.011076493447430266
0.7343810895481822 -0.011287182443615235
0.7345364031433279 -0.2761913911283453
0.7344687750972223 -0.5411891228528392
0.7343427380404105 -0.8060144068656225
0.7341964711849276 -1.07053983962919
0.7340297980541706 -1.3346667687535427
0.7338106808666415 -1.5982521039170594
0.7334727862709585 -1.860965843044056
0.7328855064935911 -2.122081773360807
0.7318590781733251 -2.380301733827476
0.7302425994363975 -2.6337235336333507
0.7279296208392053 -2.87994348783712
0.7248520126366067 -3.116166818742544
0.7209410544922448 -3.3393005074486046
0.7161430711124424 -3.5459660414208343
0.7104667977372437 -3.7325167276148568
0.7040429515403954 -3.8950800399443555
0.6971871571298267 -4.02967879662468
0.6903885973884278 -4.132425481499765
0.6843523418676096 -4.1998242957601395
0.6811408529872658 -4.229370124969771
0.6779293641069208 -4.199824295759991
0.6718931085861031 -4.1324254814994665
0.6650945488447083 -4.0296787966242515
0.6582387544341455 -3.8950800399438257
0.6518149082373048 -3.732516727614255
0.6461386348621118 -3.5459660414201792
0.6413406514823159 -3.339300507447917
0.6374296933379604 -3.116166818741844
0.6343520851353689 -2.879943487836428
0.6320391065381823 -2.633723533632688
0.6304226278012597 -2.380301733826858
0.6293961994809967 -2.122081773360243
0.6288089197036311 -1.8609658430435536
0.628471025107949 -1.598252103916623
0.6282519079204205 -1.3346667687531775
0.6280852347896637 -1.0705398396288937
0.6279389679341808 -0.8060144068653962
0.6278129308773691 -0.5411891228526813
0.6277453028312634 -0.27619139112825664
0.627900616426409 -0.011287182443597882
0.80044311937871 -0.011447640954311895
0.8005466864411367 -0.27622190658848034
0.800450702767629 -0.5411783246158486
0.8002679077064431 -0.8059892089985965
0.8000309414126758 -1.0705094000281044
0.7997281598064347 -1.3346318827125452
0.7993038179276121 -1.5982045262963986
0.7986052727647963 -1.860878957863622
0.7973401758607682 -2.1218994037896004
0.7951775679963198 -2.3799532458542783
0.791842498774676 -2.6331546589090995
0.787144960446462 -2.879119279030331
0.7809424042737683 -3.115060367313409
0.7730989918818663 -3.3378850510210367
0.7634887589867888 -3.5442233489598554
0.7520474330019764 -3.7304520384758435
0.7388577671015872 -3.892740622645639
0.7242151708935006 -4.02716440368659
0.7086945367199513 -4.129894009520807
0.6935059240103075 -4.197636165648036
0.6811408529872494 -4.2283149593582685
0.66877578196419 -4.197636165647887
0.6535871692545485 -4.129894009520509
0.6380665350810066 -4.027164403686164
0.6234239388729308 -3.892740622645112
0.6102342729725546 -3.7304520384752435
0.5987929469877533 -3.544223348959202
0.5891827140926874 -3.337885051020351
0.5813393017007965 -3.1150603673127106
0.5751367455281144 -2.8791192790296405
0.5704392071999108 -2.6331546589084387
0.5671041379782754 -2.379953245853662
0.5649415301138332 -2.1218994037890373
0.5636764332098088 -1.8608789578631195
0.5629778880469951 -1.598204526295962
0.5625535461681734 -1.33463188271218
0.5622507645619326 -1.0705094000278075
0.5620137982681654 -0.8059892089983702
0.5618310032069797 -0.5411783246156907
0.5617350195334719 -0.27622190658839174
0.5618385865958986 -0.01144764095429434
0.8664903169719373 -0.01156736444543814
0.8665547181884583 -0.27624934306316123
0.866433743542595 -0.5411631592828432
0.8661977051037456 -0.8059567859850743
0.865873906272778 -1.0704668106602224
0.8654403404045935 -1.3345780201844861
0.8648000512384081 -1.5981207077311983
0.8636796794084353 -1.8607021521873894
0.8616479763808123 -2.121526137613604
0.858250688141849 -2.3792781992666603
0.8531102762863791 -2.6321024551119345
0.8459576391257688 -2.8776388589049104
0.8365749930304167 -3.1131078557643495
0.8247514037281333 -3.335415881661066
0.8102782189845528 -3.541199458630151
0.7930064394208497 -3.7268606936109787
0.7729472010448482 -3.88861847608022
0.7503961915201407 -4.022620454721176
0.7261532370336208 -4.125172145486485
0.7018968520115464 -4.193228024207425
0.6811408529872329 -4.22531788497585
0.6603848539629196 -4.193228024207277
0.6361284689408497 -4.1251721454861885
0.6118855144543403 -4.022620454720752
0.5893345049296477 -3.8886184760796962
0.5692752665536635 -3.7268606936103823
0.5520034869899769 -3.5411994586295013
0.5375303022464126 -3.335415881660384
0.5257067129441457 -3.113107855763655
0.5163240668488097 -2.877638858904224
0.5091714296882139 -2.6321024551112773
0.5040310178327567 -2.379278199266046
0.5006337295938026 -2.1215261376130425
0.4986020265661851 -1.8607021521868878
0.4974816547362157 -1.5981207077307624
0.49684136557003167 -1.334578020184121
0.49640779970184756 -1.0704668106599255
0.4960840008708801 -0.8059567859848481
0.495847962432031 -0.5411631592826851
0.4957269877861676 -0.27624934306307264
0.49579138900268854 -0.011567364445420452
0.9325353944917486 -0.011652786244185854
0.9325667523811096 -0.276272214273073
0.932422559496333 -0.5411439749857674
0.9321368227551965 -0.805917690350784
0.9317304786397445 -1.0704131020990229
0.9311692110249958 -1.3345046789651187
0.9302846961195286 -1.5979876974649725
0.9286809261877039 -1.8604057558936349
0.9258065239419068 -2.1209252421836706
0.9210985883793633 -2.3782434417553837
0.9140945359893089 -2.6305400288742864
0.9044420969596184 -2.8754795732343545
0.8918409805720746 -3.110288884814533
0.876000537915405 -3.331873018231322
0.856627792791555 -3.536872607392357
0.8334778803537953 -3.7217145223229977
0.8064814806292666 -3.8826776701299495
0.7759754458626718 -4.016023924805568
0.7430268197045035 -4.118256568226958
0.7099527289017422 -4.186683980520653
0.6811408529872167 -4.220476062936269
0.6523289770726929 -4.186683980520505
0.6192548862699389 -4.118256568226663
0.5863062601117839 -4.016023924805147
0.5558002253452075 -3.8826776701294303
0.5288038256207004 -3.7217145223224057
0.5056539131829622 -3.536872607391712
0.4862811680591336 -3.3318730182306444
0.47044072540248544 -3.110288884813843
0.4578396090149617 -2.8754795732336715
0.44818716998529 -2.6305400288736327
0.4411831175952518 -2.378243441754772
0.4364751820327204 -2.1209252421831106
0.4336007797869312 -1.8604057558931342
0.4319970098551113 -1.5979876974645366
0.4311124949496462 -1.3345046789647539
0.43055122733489826 -1.0704131020987262
0.4301448832194466 -0.8059176903505578
0.42985914647831014 -0.5411439749856093
0.42971495359353357 -0.27627221427298443
0.42974631148289466 -0.011652786244168073
0.9985863368673449 -0.011709739869499615
0.9985890951944526 -0.2762893134563451
0.9984224201724694 -0.5411209274188585
0.9980902905780509 -0.8058725477104924
0.9976066640964061 -1.070349522101949
0.9969121898536835 -1.334408417785502
0.9957467664537083 -1.5977892960750737
0.9936030664981779 -1.8599645187123892
0.9898215204267579 -2.1200713248070238
0.9837530925404896 -2.3768297438171375
0.9748557848651475 -2.628453444020476
0.9626781845221789 -2.872628723513209
0.9468320190772007 -3.1065910773191305
0.9269495424375179 -3.3272447033037946
0.9026583424577156 -3.5312312234692564
0.8736161108147712 -3.7150002033139575
0.8396852716698566 -3.8749069357235966
0.8012527364638907 -4.007371866297951
0.7596950457230974 -4.109174187794107
0.7179536861211837 -4.178054571773327
0.6811408529872007 -4.213808154072726
0.6443280198532204 -4.178054571773181
0.6025866602513169 -4.109174187793815
0.5610289695105402 -4.007371866297534
0.5225964343045963 -3.8749069357230836
0.48866559515970703 -3.7150002033133718
0.4596233635167889 -3.531231223468617
0.4353321635370132 -3.327244703303123
0.41544968689735645 -3.1065910773184457
0.3996035214524033 -2.8726287235125314
0.38742592110945717 -2.6284534440198266
0.37852861343413463 -2.37682974381653
0.37246018554788135 -2.1200713248064664
0.3686786394764718 -1.8599645187118903
0.3665349395209476 -1.5977892960746387
0.3653695161209756 -1.3344084177851374
0.36467504187825384 -1.0703495221016526
0.3641914153966093 -0.8058725477102664
0.3638592858021909 -0.5411209274187004
0.363692610780208 -0.2762893134562565
0.36369536910731576 -0.011709739869481782
1.0646486145019556 -0.011743809844663947
1.0646272167032134 -0.2762999205070988
1.0644388342265543 -0.5410940061681568
1.0640630137701186 -0.805822107473466
1.0635049014865543 -1.0702762098108125
1.0626631092324021 -1.3342825436631092
1.0611791059383262 -1.5975092088262244
1.0584424257364446 -1.8593571471874468
1.0537075778345013 -2.1189482773008996
1.0462593382106082 -2.3750275007073807
1.0354532086661927 -2.625835027338348
1.0207388350256825 -2.8690791150451855
1.001636130833529 -3.102006749168555
0.9776972481244193 -3.321523637014203
0.948480213016588 -3.524271219869195
0.9135778684809016 -3.706720828400841
0.8727865073662039 -3.865316180383772
0.8265337956854963 -3.9966824489203434
0.7764764772381884 -4.09794864429798
0.7260890975717179 -4.167343642438501
0.6811408529871852 -4.205281838592553
0.6361926084026558 -4.1673436424383565
0.5858052287361983 -4.097948644297691
0.53574791028891 -3.9966824489199317
0.48949519860822793 -3.865316180383265
0.4487038374935601 -3.7067208284002615
0.4138014929579046 -3.5242712198685626
0.38458445785010414 -3.321523637013538
0.3606455751410253 -3.1020067491678778
0.34154287094890157 -2.869079115044514
0.3268284973084176 -2.625835027337705
0.3160223677640247 -2.375027500706777
0.30857412814014995 -2.1189482773003454
0.3038392802382193 -1.8593571471869503
0.3011026000363456 -1.5975092088257905
0.2996185967422736 -1.334282543662745
0.29877680448812294 -1.0702762098105163
0.29821869220455893 -0.8058221074732399
0.29784287174812346 -0.5410940061679989
0.29765448927146454 -0.27629992050701024
0.2976330914727222 -0.011743809844646074
1.1307257638729613 -0.011760532174682094
1.1306856336474345 -0.2763038384423173
1.1304774170167398 -0.5410632164439501
1.1300601501066636 -0.8057670260689318
1.1294271635758855 -1.0701923820793897
1.1284167862122834 -1.3341186339805318
1.1265730604963926 -1.597130191178814
1.123197072890397 -1.858567993478424
1.1174953439008306 -2.1175490063869065
1.108659199468313 -2.3728320526290374
1.095943859032696 -2.622681409760913
1.0786963895974675 -2.864827918582974
1.0563386234775742 -3.0965321644357098
1.02834071437485 -3.314705766821791
0.9942074133788468 -3.5159950216330884
0.953501302717305 -3.6968935297046577
0.9059974710096141 -3.8539377314598546
0.852117155856601 -3.983989742185585
0.7936680380507898 -4.084589225626149
0.7345324519595465 -4.154513797265078
0.6811408529871695 -4.194823304832401
0.6277492540147971 -4.154513797264935
0.5686136679235686 -4.084589225625866
0.5101645501177806 -3.9839897421851798
0.45628423496479703 -3.8539377314593555
0.40878040325714005 -3.6968935297040857
0.36807429259563396 -3.5159950216324636
0.3339409915996662 -3.314705766821134
0.3059430824969775 -3.0965321644350405
0.2835853163771184 -2.8648279185823102
0.2663378469419202 -2.622681409760276
0.2536225065063291 -2.372832052628439
0.24478636207383225 -2.1175490063863567
0.2390846330842805 -1.8585679934779302
0.2357086454782948 -1.5971301911783817
0.23386491976240914 -1.3341186339801685
0.23285454239880873 -1.0701923820790935
0.23222155586803106 -0.8057670260687054
0.23180428895795535 -0.5410632164437922
0.2315960723272608 -0.2763038384422288
0.231555942101734 -0.01176053217466418
1.196819315338781 -0.01176550099798768
1.1967678268411797 -0.27630147306522534
1.1965442049833275 -0.5410287155550203
1.1960871262535036 -0.8057078719622535
1.1953731659890243 -1.0700951539005157
1.1941667480851792 -1.33390568068534
1.1919200314776681 -1.596637252046883
1.187887671827992 -1.8575903541933163
1.1812118971563097 -2.1158703555427802
1.1709939549026105 -2.37024258611313
1.1563837795147507 -2.6189934736006704
1.1366204020267485 -2.859876182950862
1.1110254645605737 -3.0901676999512473
1.0789835544678386 -3.3067909753126505
1.0399493128215427 -3.5064074677420356
0.9935067326179451 -3.685544344749415
0.9394863666230374 -3.840827553862399
0.8782804230565964 -3.9693466611140957
0.8115830412633244 -4.069094616910466
0.7435056469748363 -4.139487151598822
0.6811408529871538 -4.1823081568239004
0.6187760589994766 -4.139487151598682
0.5506986647110056 -4.069094616910188
0.4840012829177605 -3.969346661113697
0.42279533935135344 -3.840827553861908
0.36877497335648396 -3.6855443447488527
0.3223323931529266 -3.50640746774142
0.28329815150667087 -3.3067909753120026
0.2512562414139758 -3.090167699950587
0.22566130394783943 -2.859876182950207
0.20589792645987137 -2.6189934736000406
0.1912877510720406 -2.3702425861125382
0.18106980881836476 -2.1158703555422345
0.17439403414669943 -1.8575903541928254
0.17036167449703488 -1.5966372520464527
0.1681149578895296 -1.3339056806849774
0.16690853998568692 -1.07009515390022
0.1661945797212083 -0.8057078719620272
0.1657375009913848 -0.5410287155548623
0.16551387913353283 -0.27630147306513686
0.16546239063593166 -0.011765500997969736
1.2629281665908505 -0.011764381227032482
1.2628761559179074 -0.276294030976957
1.2626462392081044 -0.5409911050050521
1.2621495337273472 -0.8056443521369104
1.2613400696926291 -1.069979953291216
1.2599039655581703 -1.3336299395124653
1.2572264536926572 -1.5960212888244778
1.2525282210031563 -1.8564210501349854
1.2448845661108403 -2.1139124483192715
1.2333049683991057 -2.3672623590739827
1.2168288619018162 -2.6147757439436883
1.1945821824920113 -2.854228918717349
1.1657810204108003 -3.0829178129874584
1.1297255826236685 -3.29778358193254
1.0858334372797926 -3.4955170461437093
1.0337181531696753 -3.6726981542785295
0.9733355031707354 -3.826049327353368
0.9051806914387991 -3.952849024817219
0.8306793807604402 -4.051481012832114
0.7533668725853531 -4.12212968128036
0.6811408529871377 -4.167533091525497
0.6089148333889288 -4.122129681280223
0.531602325213861 -4.051481012831841
0.45710101453553276 -3.952849024816829
0.3889462028036352 -3.8260493273528864
0.32856355280473787 -3.6726981542779775
0.2764482686946655 -3.4955170461431035
0.23255612335083486 -3.297783581931902
0.19650068556374736 -3.0829178129868082
0.1676995234825792 -2.854228918716703
0.1454528440728123 -2.614775743943067
0.1289767375755546 -2.3672623590733974
0.11739713986384552 -2.113912448318731
0.10975348497154908 -1.856421050134498
0.10505525228206088 -1.5960212888240497
0.10237774041655504 -1.3336299395121038
0.10094163628209908 -1.0699799532909207
0.10013217224738209 -0.8056443521366842
0.09963546676662521 -0.540991105004894
0.09940555005682261 -0.2762940309768685
0.09935353938387952 -0.01176438122701452
1.3290472510056248 -0.011762724230934057
1.329011726039737 -0.27628406984428827
1.3287928788948626 -0.540951676519845
1.3282522834632435 -0.8055743235168128
1.3273220059616326 -1.0698383354256051
1.3256251991342267 -1.33328158946523
1.3225010988070773 -1.5952772869505616
1.3171343430163285 -1.855059332578329
1.3085405419605611 -2.111679246702941
1.295633519780655 -2.363898458931259
1.2773365396063345 -2.610036827964883
1.252651764262274 -2.847894261390623
1.2206884565709584 -3.0747908542192315
1.1806759995272174 -3.2876946356920786
1.1319918971899736 -3.4833373369800475
1.074275343338022 -3.6583733603048563
1.0076111024816192 -3.809646731421746
0.9327383236046326 -3.9346111456290553
0.8511885213703827 -4.031914929424211
0.7654132964171102 -4.102279312397431
0.681140852987121 -4.149999999999993
0.596868409557139 -4.102279312397297
0.5110931846038886 -4.031914929423945
0.42954338236967365 -3.934611145628674
0.35467060349273133 -3.809646731421276
0.2880063626363757 -3.658373360304316
0.23028980878447372 -3.483337336979454
0.18160570644728 -3.2876946356914525
0.14159324940358797 -3.0747908542185924
0.10962994171231932 -2.8478942613899885
0.08494516636830042 -2.6100368279642705
0.06664818619401489 -2.363898458930681
0.05374116401413633 -2.111679246702406
0.04514736295839064 -1.8550593325778453
0.039780607167656 -1.5952772869501357
0.03665650684051487 -1.33328158946487
0.03495970001311242 -1.0698383354253098
0.034029422511502906 -0.8055743235165866
0.03348882707988434 -0.540951676519687
0.03326997993501029 -0.27628406984419973
0.033234454969122695 -0.011762724230916123
SCALARS Stress float 6
LOOKUP_TABLE default
-1271.804208704581 -2075.2787456871474 -1597.5810153559892 -28.16649108433551 0.0 0.0
1370.8935998699014 806.8643621456744 1027.9872736623656 -20.290014592808966 0.0 0.0
624.989864576659 169.5811587627467 258.2436342851905 -41.87730329431863 0.0 0.0
499.0546642887501 31.92310376789293 165.58079633562647 -0.972086108636137 0.0 0.0
625.7874212393294 83.5145459072589 259.13496008795175 2.964764620249681 0.0 0.0
749.7927280701551 137.13773249351019 389.25454883179407 1.7887284425033396 0.0 0.0
881.9670599134646 194.09603737142777 513.3038850612165 0.4489341786726908 0.0 0.0
1018.1302898460885 268.4311057217911 629.2464975468589 -1.0252265439112829 0.0 0.0
1164.174327243334 358.1978049565139 749.5619671286094 -2.744975755350388 0.0 0.0
1327.8137202033083 470.2465695949995 887.769064623624 -4.6176188061333026 0.0 0.0
1514.626397556007 609.8096537061713 1050.7314460446457 -6.387588625744947 0.0 0.0
1724.5857711225422 777.1508452054032 1238.9821120932106 -7.74387468228311 0.0 0.0
1952.116929014669 965.3668574218693 1446.4164437648096 -8.571519156210591 0.0 0.0
2189.655213627616 1166.6993001438514 1665.432173633511 -9.199590333925494 0.0 0.0
2427.5405612852933 1371.3107066998734 1886.2705602995306 -9.597661203801767 0.0 0.0
2654.55697935067 1568.0287246519872 2097.7661469165387 -9.676750512975346 0.0 0.0
2858.9474266489015 1745.4805506011342 2288.396902530425 -9.269451115320509 0.0 0.0
3029.091985451331 1892.5534931626423 2446.814061555587 -8.334869363792947 0.0 0.0
3163.4385965971837 2008.2480907482916 2571.616736211645 -7.264270840687557 0.0 0.0
3247.2089516331885 2078.612964330999 2648.436880782101 -9.53530614988984 0.0 0.0
3238.4243780845754 2068.9115037996553 2639.380808019565 2.248157215944957e-11 0.0 0.0
3247.2089516321303 2078.6129643299823 2648.436880780972 9.535306150122763 0.0 0.0
3163.4385965962583 2008.248090747406 2571.6167362109063 7.264270840625608 0.0 0.0
3029.0919854522153 1892.553493163665 2446.8140615558937 8.334869363859513 0.0 0.0
2858.9474266459533 1745.480550598261 2288.3969025280558 9.269451115235393 0.0 0.0
2654.556979348211 1568.0287246496673 2097.7661469146674 9.676750512921547 0.0 0.0
2427.540561285098 1371.310706699846 1886.2705602992164 9.597661203803533 0.0 0.0
2189.6552136254845 1166.699300141913 1665.432173631704 9.199590334184606 0.0 0.0
1952.1169290136893 965.3668574210834 1446.4164437637785 8.571519156080656 0.0 0.0
1724.5857711215358 777.1508452046502 1238.9821120922832 7.743874682159911 0.0 0.0
1514.626397554682 609.8096537050939 1050.7314460436048 6.387588625903112 0.0 0.0
1327.8137202021164 470.2465695940476 887.7690646226164 4.617618806087373 0.0 0.0
1164.1743272422348 358.19780495572616 749.5619671277109 2.7449757552356395 0.0 0.0
1018.1302898441952 268.43110572014336 629.2464975455377 1.025226543901585 0.0 0.0
881.9670599121858 194.09603737037486 513.3038850602273 -0.4489341786961756 0.0 0.0
749.7927280694531 137.13773249309833 389.25454883115367 -1.7887284425085888 0.0 0.0
625.7874212384797 83.51454590662945 259.1349600872897 -2.964764620344697 0.0 0.0
499.05466428834256 31.923103767638178 165.58079633540387 0.9720861088835377 0.0 0.0
624.9898645760702 169.5811587623258 258.2436342848233 41.87730329410953 0.0 0.0
1370.8935998695426 806.8643621453625 1027.9872736619134 20.29001459300102 0.0 0.0
-1271.8042087017702 -2075.278745684385 -1597.5810153532357 28.166491083887923 0.0 0.0
-1619.5436053116605 -2394.5351232511157 -1900.21478039378 -30.360650911997137 0.0 0.0
935.7340028956341 445.2970783991508 646.1378166933737 -28.137588933486846 0.0 0.0
436.92657844618117 66.7759201183117 150.12285811396018 -36.456512225737264 0.0 0.0
439.4492226275425 7.2974359236439446 136.62959794780653 -15.61319148931573 0.0 0.0
554.3200842754909 37.55423713096988 207.99567118632945 -16.73710168903058 0.0 0.0
657.6986957459166 54.155626960077754 306.1002880739795 -22.531221049885442 0.0 0.0
746.5572814701151 73.79927192669051 394.366179687153 -24.067610908829483 0.0 0.0
831.6446238272678 95.41414768487888 459.71514187205094 -24.415438079741893 0.0 0.0
909.3090616674358 116.20443045535887 511.37574834530886 -25.075081591290715 0.0 0.0
981.2341888533005 136.82010382899853 558.188287649459 -25.915073856187618 0.0 0.0
1050.3651029082778 159.3845297351842 604.1840601054375 -26.388114311285964 0.0 0.0
1118.9815351365385 185.29953239460528 651.4847769081105 -26.39651576119833 0.0 0.0
1186.6465827867548 214.67401088441414 700.0226191799549 -26.000828645917334 0.0 0.0
1250.7434717605897 243.022485697957 746.2549605258628 -25.4088163718614 0.0 0.0
1305.8757920292344 265.3497803923856 784.9936209176229 -24.63456890627818 0.0 0.0
1347.6578679297465 277.24658194032327 811.8440277605596 -23.448087569258767 0.0 0.0
1373.3661723763666 276.2463361492929 824.2058234366068 -21.60425389327981 0.0 0.0
1383.374841144515 263.2098573180619 822.6906885086795 -19.163780573570804 0.0 0.0
1372.0149863877318 233.2396651320526 802.1322412326347 -16.905983448367103 0.0 0.0
1296.01270799099 144.33157780153036 720.3871890292911 -17.617958379052197 0.0 0.0
1169.268771533363 17.492850224663016 594.7096343856842 -1.3641532348174223e-11 0.0 0.0
1296.0127079906188 144.33157780120234 720.3871890289738 17.617958379197365 0.0 0.0
1372.0149863870165 233.23966513139382 802.1322412322492 16.905983448462976 0.0 0.0
1383.3748411456506 263.2098573192855 822.6906885095036 19.16378057365294 0.0 0.0
1373.3661723755229 276.2463361485417 824.2058234360672 21.60425389316808 0.0 0.0
1347.6578679289864 277.2465819397332 811.8440277601069 23.44808756923222 0.0 0.0
1305.87579202915 265.34978039245505 784.9936209176001 24.634568906363338 0.0 0.0
1250.743471758531 243.02248569607687 746.2549605243937 25.408816372026752 0.0 0.0
1186.646582786982 214.67401088485107 700.022619180064 26.00082864582739 0.0 0.0
1118.9815351363652 185.29953239467847 651.4847769080193 26.396515761213415 0.0 0.0
1050.365102908156 159.38452973533066 604.1840601054281 26.388114311485943 0.0 0.0
981.2341888520358 136.82010382794644 558.1882876486231 25.915073856040678 0.0 0.0
909.3090616670798 116.20443045529393 511.37574834503096 25.07508159120958 0.0 0.0
831.644623826869 95.41414768481071 459.715141871765 24.415438079837422 0.0 0.0
746.5572814690192 73.79927192583006 394.3661796863573 24.06761090884414 0.0 0.0
657.6986957452339 54.155626959706076 306.1002880734005 22.53122104989207 0.0 0.0
554.3200842748298 37.55423713049913 207.995671185844 16.737101688985245 0.0 0.0
439.44922262716966 7.297435923471763 136.62959794765726 15.61319148942068 0.0 0.0
436.92657844602485 66.7759201183621 150.12285811392488 36.45651222570832 0.0 0.0
935.734002895106 445.297078398662 646.1378166927464 28.13758893358016 0.0 0.0
-1619.5436053095857 -2394.5351232490225 -1900.2147803916512 30.360650911549364 0.0 0.0
-1360.351319029822 -2100.438544501335 -1613.834353508112 -68.70254410489369 0.0 0.0
752.1256383053502 353.56505854853276 502.51252269926187 -96.29497593427563 0.0 0.0
303.01824159584146 76.12071859159076 113.7819358498361 -40.06267698096316 0.0 0.0
377.1054260595 1.9623173750807597 113.83263708835965 -37.35262862804527 0.0 0.0
509.16369194356736 27.7085059975663 177.88940338825347 -39.200034168362194 0.0 0.0
624.0261127138303 48.494742779724945 274.6313584443323 -42.55929876494682 0.0 0.0
716.4782292044464 68.48670209884287 370.1665498400042 -44.58385231667739 0.0 0.0
801.3768363889033 86.30778988091816 438.0968493155789 -45.470447673656295 0.0 0.0
875.9628216584948 103.43832039373255 487.82791610302553 -46.854957934562805 0.0 0.0
943.9242024637136 120.02867169561569 530.8279996658799 -48.07606994405188 0.0 0.0
1009.6258826109655 139.64238604072037 573.6415540313465 -48.39264265190022 0.0 0.0
1075.2117281622623 163.69699156915806 618.4995424978714 -47.88063632845502 0.0 0.0
1140.2396069905421 190.22243246639474 664.3168379977506 -46.967871335011196 0.0 0.0
1200.9830230622304 216.37708410334398 707.7943536055387 -45.762258456035916 0.0 0.0
1254.3448352540702 237.43975908968656 745.0096012329651 -44.233279459465805 0.0 0.0
1296.0891077837828 249.67156312828138 771.9943623259459 -42.09133520229957 0.0 0.0
1323.6200704107919 250.63863829269258 786.255992335672 -38.999394072563234 0.0 0.0
1332.8674631239367 236.79786532820373 784.039519674234 -35.18399558405677 0.0 0.0
1310.5489419642681 195.88865305903232 752.7029686544396 -31.65720567881924 0.0 0.0
1267.7153219216789 140.4278107417772 703.9134306581345 -29.473817970954645 0.0 0.0
1120.5676555551088 -6.110750000821355 558.3580789392043 2.8771651727765857e-11 0.0 0.0
1267.715321922626 140.4278107427912 703.9134306588527 29.473817971010114 0.0 0.0
1310.5489419629153 195.88865305776656 752.7029686535693 31.657205679059935 0.0 0.0
1332.8674631245299 236.7978653288669 784.0395196747196 35.18399558422893 0.0 0.0
1323.620070409751 250.6386382917422 786.2559923349738 38.99939407250875 0.0 0.0
1296.089107783553 249.6715631282076 771.9943623257944 42.0913352023429 0.0 0.0
1254.3448352532655 237.4397590890021 745.0096012323987 44.233279459399945 0.0 0.0
1200.9830230619975 216.37708410337547 707.7943536053588 45.76225845624274 0.0 0.0
1140.2396069902375 190.22243246627397 664.3168379975382 46.967871335035284 0.0 0.0
1075.2117281619549 163.6969915690758 618.4995424977351 47.880636328522826 0.0 0.0
1009.6258826107598 139.64238604076556 573.641554031243 48.39264265189087 0.0 0.0
943.9242024623934 120.0286716945441 530.8279996650081 48.07606994400775 0.0 0.0
875.9628216576174 103.43832039307608 487.8279161024612 46.854957934489185 0.0 0.0
801.3768363892391 86.30778988157408 438.0968493157608 45.4704476736699 0.0 0.0
716.478229203711 68.48670209837387 370.16654983939804 44.58385231656726 0.0 0.0
624.0261127134191 48.49474277964682 274.63135844390536 42.559298764844925 0.0 0.0
509.1636919426312 27.70850599680229 177.88940338765883 39.2000341684707 0.0 0.0
377.1054260592288 1.962317374922798 113.83263708823834 37.35262862786262 0.0 0.0
303.0182415958001 76.12071859148436 113.78193584979131 40.06267698093998 0.0 0.0
752.1256383046501 353.56505854808705 502.51252269856235 96.29497593412103 0.0 0.0
-1360.3513190278134 -2100.438544499233 -1613.8343535059566 68.70254410459404 0.0 0.0
-1114.8402058956042 -1824.225730353942 -1347.167181285289 -82.4190338222453 0.0 0.0
575.2434767140063 257.9878067893363 371.43453319552657 -145.70383941638755 0.0 0.0
219.52543258926875 64.07662115888596 85.08061612444641 -61.54456458882728 0.0 0.0
313.5120927709547 7.631708786691244 96.15551907136685 -60.03168650235922 0.0 0.0
453.5517332936487 16.128985480085575 147.5363204262848 -64.18527079239985 0.0 0.0
578.0359838663484 41.36126120046853 238.0861758530617 -63.85545981438748 0.0 0.0
682.9174338246866 61.25721373689322 340.0809063457913 -66.42025553869169 0.0 0.0
766.2296083551417 77.3759005850072 412.79752468750064 -66.73069379067567 0.0 0.0
838.5097019547094 90.92357026276173 461.97765901577645 -68.25655326207483 0.0 0.0
902.8895287367211 103.86071889222772 501.7919251823357 -69.46838161296762 0.0 0.0
964.8030323060766 120.19391888360288 541.1111491916067 -69.45592392889391 0.0 0.0
1027.4152881881664 141.42956471279211 583.0735193532529 -68.53683610855668 0.0 0.0
1089.2579137823163 166.07050040755945 626.3906991259907 -67.10807490676758 0.0 0.0
1147.1725635562475 189.06419482442436 666.8871481913774 -65.39676579052527 0.0 0.0
1198.3841794210691 208.67156544763475 702.2923837620908 -63.1821944057618 0.0 0.0
1240.726566316509 222.03795907730344 730.1404312174858 -60.207173068085936 0.0 0.0
1269.7435414269478 224.3787274383554 745.8537710696039 -56.283921898848405 0.0 0.0
1278.2536195216906 209.59748746476797 742.8697616524968 -51.57843240104686 0.0 0.0
1262.7119896269642 175.1865971384383 718.1329472401934 -46.325464047636935 0.0 0.0
1237.262273521772 136.44871605237955 686.234785136904 -39.76050580880228 0.0 0.0
1031.502323719683 -68.23920521589751 482.99957792186143 1.6831158689001313e-10 0.0 0.0
1237.262273522331 136.4487160529086 686.2347851372384 39.76050580873195 0.0 0.0
1262.7119896245126 175.18659713607502 718.132947238381 46.32546404765909 0.0 0.0
1278.2536195216219 209.59748746476205 742.8697616525327 51.5784324012162 0.0 0.0
1269.743541425593 224.37872743705282 745.8537710687203 56.283921898715136 0.0 0.0
1240.726566316215 222.03795907718762 730.1404312173107 60.20717306808289 0.0 0.0
1198.3841794206546 208.67156544739092 702.2923837618466 63.18219440587148 0.0 0.0
1147.172563556839 189.06419482524524 666.887148191761 65.3967657907354 0.0 0.0
1089.2579137818398 166.07050040730732 626.3906991256481 67.10807490686344 0.0 0.0
1027.4152881880916 141.42956471296367 583.0735193533361 68.5368361086235 0.0 0.0
964.8030323058262 120.193918883577 541.1111491914414 69.45592392880084 0.0 0.0
902.8895287362645 103.86071889206308 501.7919251820363 69.46838161313389 0.0 0.0
838.5097019538081 90.9235702620577 461.97765901515123 68.25655326183426 0.0 0.0
766.2296083548323 77.37590058498262 412.7975246872569 66.73069379067832 0.0 0.0
682.9174338241417 61.25721373663602 340.08090634526934 66.4202555386103 0.0 0.0
578.0359838658346 41.36126120022427 238.08617585258727 63.85545981416375 0.0 0.0
453.5517332927981 16.128985479342774 147.53632042578155 64.1852707924241 0.0 0.0
313.5120927707773 7.6317087864963735 96.1555190712534 60.03168650219582 0.0 0.0
219.5254325891319 64.07662115860198 85.08061612432014 61.54456458870435 0.0 0.0
575.2434767133706 257.9878067890224 371.4345331949328 145.70383941618658 0.0 0.0
-1114.8402058939544 -1824.2257303520776 -1347.1671812833833 82.41903382216469 0.0 0.0
-900.9314018787537 -1584.3501034230192 -1112.6237845420824 -80.97760990602798 0.0 0.0
444.76898930609127 173.10370715543857 268.59596163570467 -178.31283399595407 0.0 0.0
160.61682511985887 49.97659118876338 63.17802489258669 -92.16972627544762 0.0 0.0
255.53631790573286 13.859999447200918 80.81234966414634 -84.67754706043655 0.0 0.0
388.13679673077013 9.217458779157461 120.43106942959305 -90.38112056753017 0.0 0.0
522.8189615788878 28.722742426619234 197.29065170667332 -89.12097413600561 0.0 0.0
637.9221221646376 52.70120833211577 301.53894721884717 -88.49405225923677 0.0 0.0
725.2659618220392 69.07639543547354 383.0363126923969 -88.40517240765982 0.0 0.0
796.299047526038 79.00658266345883 433.31524980384074 -89.2141378431262 0.0 0.0
857.2121327191759 88.06273602772077 470.37813673427115 -90.05284903367276 0.0 0.0
915.6929196535705 100.87475664085963 506.342353238818 -89.60826355583258 0.0 0.0
974.8047991051435 119.10931968778641 545.0723267755825 -88.2680377600019 0.0 0.0
1033.5520042039875 140.67828364848316 585.3331999379358 -86.49605088533157 0.0 0.0
1088.5181425637336 162.18351774986394 623.6464799541153 -84.26075184184644 0.0 0.0
1137.799459716913 179.85360805437716 657.129237244264 -81.4140511485987 0.0 0.0
1179.5389532379625 192.42568302808564 684.2636312105644 -77.84408161378069 0.0 0.0
1210.4067090864385 196.96168910026273 702.0120952627464 -73.43411496068478 0.0 0.0
1224.1232486569752 187.11395593048746 704.1074045137675 -68.06059695344076 0.0 0.0
1217.1202886142373 160.4292023493754 687.4818283844231 -60.85761073386793 0.0 0.0
1199.9497373988254 128.4603608557614 663.0509744699503 -50.29502328646261 0.0 0.0
922.3532593763746 -147.4588763775094 389.25449865103144 1.1252865306232707e-10 0.0 0.0
1199.9497373993268 128.46036085628327 663.0509744702853 50.29502328649736 0.0 0.0
1217.120288614041 160.42920234928846 687.481828384285 60.85761073386512 0.0 0.0
1224.1232486556532 187.11395592926456 704.107404512907 68.06059695366405 0.0 0.0
1210.4067090869294 196.9616891008888 702.0120952630416 73.43411496077692 0.0 0.0
1179.5389532388012 192.42568302905627 684.2636312112454 77.84408161371758 0.0 0.0
1137.799459717692 179.85360805537323 657.12923724488 81.41405114873216 0.0 0.0
1088.5181425623725 162.18351774865206 623.6464799531359 84.26075184182378 0.0 0.0
1033.552004204538 140.67828364930716 585.3331999382885 86.49605088557792 0.0 0.0
974.8047991054912 119.10931968837016 545.0723267758132 88.26803776004516 0.0 0.0
915.6929196540473 100.87475664158714 506.34235323905847 89.60826355575762 0.0 0.0
857.2121327191659 88.06273602809924 470.37813673429923 90.05284903392814 0.0 0.0
796.299047524834 79.00658266246259 433.31524980305915 89.21413784307842 0.0 0.0
725.2659618218831 69.07639543565304 383.03631269221313 88.40517240766924 0.0 0.0
637.9221221640536 52.701208331814954 301.5389472182848 88.49405225917344 0.0 0.0
522.8189615784237 28.72274242643579 197.29065170628644 89.12097413584722 0.0 0.0
388.13679672987087 9.217458778194294 120.43106942904772 90.38112056732542 0.0 0.0
255.53631790567218 13.859999447164506 80.8123496641123 84.67754706049651 0.0 0.0
160.61682511978483 49.97659118855063 63.178024892500616 92.16972627535515 0.0 0.0
444.768989305474 173.10370715515555 268.59596163518756 178.31283399576628 0.0 0.0
-900.9314018771862 -1584.3501034212047 -1112.6237845403075 80.97760990602522 0.0 0.0
-712.6028552234249 -1372.424135502122 -903.7845636344053 -76.62384497129807 0.0 0.0
342.1969967326871 106.9952744280771 189.18789692074037 -197.5842900800379 0.0 0.0
116.29499410121512 34.35080705926072 45.19374034814275 -121.56504402976907 0.0 0.0
203.9717077773106 18.51387903942916 66.75024692239461 -109.61484964421425 0.0 0.0
318.0974314254535 6.151413676614644 96.67557030338548 -116.39229522550278 0.0 0.0
452.7943830366996 16.81655465940674 156.71573015991402 -115.66529511079868 0.0 0.0
576.7444737921245 43.357858736069275 254.96412299664473 -111.83797765723313 0.0 0.0
676.7874253175164 58.35735609611049 344.7795364247455 -111.08015603828608 0.0 0.0
746.4747607377676 67.48391878081517 399.82005225460654 -109.71548858129091 0.0 0.0
806.0871514486206 72.44801787760862 435.83960207724624 -109.82748121425693 0.0 0.0
861.0674908299084 81.6521845078741 468.5977797408424 -108.82132614110503 0.0 0.0
916.6965381927153 96.82334836800244 504.0970913553146 -107.02667262054675 0.0 0.0
971.9935304135435 115.71447141613017 541.3277491515029 -104.9023474916733 0.0 0.0
1023.8974488841527 134.12242652641515 576.5944035247027 -102.36239786215779 0.0 0.0
1070.8674072534045 150.20362379829524 608.1576886467834 -99.00652826395611 0.0 0.0
1111.6541490920347 162.39072784967362 634.6395122328363 -94.81846809215013 0.0 0.0
1144.973585311513 168.69037365816746 654.4531690439456 -90.18925598654799 0.0 0.0
1166.7095904412274 166.61153311036898 664.414221943383 -84.47878524820129 0.0 0.0
1169.6737366148407 148.93804232501265 657.3013287592249 -75.77143908643352 0.0 0.0
1157.5186357171085 119.62119519500169 636.7117105356427 -61.844399453804385 0.0 0.0
795.2240465847619 -239.90001108595635 280.1180996485052 1.60362390033697e-10 0.0 0.0
1157.518635717181 119.62119519507107 636.7117105358599 61.844399453918044 0.0 0.0
1169.6737366159132 148.9380423262011 657.3013287600241 75.77143908652099 0.0 0.0
1166.7095904409352 166.61153311024722 664.4142219432231 84.47878524853081 0.0 0.0
1144.9735853121206 168.6903736588881 654.4531690443434 90.18925598669583 0.0 0.0
1111.6541490925974 162.39072785035108 634.6395122333456 94.81846809211329 0.0 0.0
1070.867407253509 150.2036237985376 608.1576886468881 99.00652826395732 0.0 0.0
1023.8974488836943 134.12242652616632 576.5944035244078 102.36239786219268 0.0 0.0
971.9935304132741 115.71447141602351 541.3277491512886 104.90234749175845 0.0 0.0
916.6965381930618 96.82334836856964 504.0970913554856 107.02667262056296 0.0 0.0
861.0674908304624 81.65218450866618 468.59777974114604 108.82132614103597 0.0 0.0
806.087151448844 72.4480178780592 435.83960207735583 109.82748121419168 0.0 0.0
746.4747607372276 67.48391878057717 399.82005225421375 109.71548858123741 0.0 0.0
676.7874253174044 58.3573560963399 344.77953642459977 111.08015603828179 0.0 0.0
576.7444737918022 43.35785873627214 254.96412299630867 111.83797765731805 0.0 0.0
452.7943830362295 16.816554659222177 156.71573015957358 115.66529511070146 0.0 0.0
318.0974314250429 6.151413676371142 96.67557030320962 116.3922952253314 0.0 0.0
203.97170777727436 18.51387903946456 66.75024692239452 109.61484964417122 0.0 0.0
116.29499410117496 34.35080705912384 45.19374034808964 121.56504402959182 0.0 0.0
342.1969967321494 106.99527442768077 189.18789692027195 197.58429007983767 0.0 0.0
-712.602855222062 -1372.424135500514 -903.7845636328469 76.62384497125554 0.0 0.0
-549.4420109698408 -1179.387911810156 -717.8055608177482 -72.54248330614212 0.0 0.0
260.95528604983963 54.90539442340469 128.141456082674 -209.70995820167957 0.0 0.0
80.82683432781859 19.371791909069515 30.059706888820184 -145.85901889674196 0.0 0.0
156.08883472161563 21.632149588959415 53.31634662324566 -132.67194333428472 0.0 0.0
247.73149572334006 6.586898037504092 75.8740905092986 -139.20208426397093 0.0 0.0
371.8066683533828 4.982423923684031 117.8994355519583 -145.03530602332242 0.0 0.0
500.8565320525419 28.9530270275723 200.8985638938032 -138.39288527105435 0.0 0.0
610.0292292624765 48.44828487524468 295.00376934609363 -133.55173647455842 0.0 0.0
689.783762915994 53.35427936911487 358.5081506185167 -131.45076093740988 0.0 0.0
746.2940886899904 56.984899472254654 395.9847005365158 -128.67011078257698 0.0 0.0
799.5366183292913 62.61819005880844 426.90322869972965 -126.99435261125336 0.0 0.0
851.6142853422205 74.49301989358452 459.1418493176691 -124.75649010193979 0.0 0.0
902.9903981433465 90.20207702484925 492.89131727567116 -122.30306569797118 0.0 0.0
951.6213761743882 106.28643978725499 525.3949910049677 -119.53086603855645 0.0 0.0
995.7764056514505 120.13555305392912 554.4989265179934 -115.91336973159318 0.0 0.0
1034.7652742353046 129.96725095109377 578.9268744884072 -111.36971120955639 0.0 0.0
1070.256209954745 139.54027660535567 601.4094036619275 -106.18960409015683 0.0 0.0
1102.3609350834658 146.88890087855324 621.1935002704058 -100.5839032188051 0.0 0.0
1117.8354986859047 139.80434211427544 625.656546660326 -91.48567647874675 0.0 0.0
1110.6024675826259 112.51210193915368 608.6427522295709 -75.23525419598394 0.0 0.0
648.4388121226061 -344.5850129098214 155.29945116229214 1.6429169136245036e-10 0.0 0.0
1110.6024675812225 112.51210193777587 608.6427522287833 75.23525419614734 0.0 0.0
1117.835498686605 139.8043421151451 625.6565466607143 91.48567647902405 0.0 0.0
1102.360935084389 146.8889008796114 621.193500271096 100.58390321897997 0.0 0.0
1070.2562099541906 139.54027660487722 601.4094036616041 106.18960409013138 0.0 0.0
1034.7652742352777 129.9672509513075 578.9268744884952 111.36971120977213 0.0 0.0
995.776405651039 120.13555305363636 554.4989265175757 115.91336973155902 0.0 0.0
951.621376174879 106.28643978812289 525.3949910053169 119.5308660388668 0.0 0.0
902.9903981423754 90.2020770239462 492.8913172749839 122.30306569798407 0.0 0.0
851.6142853421023 74.49301989359518 459.14184931765 124.75649010181124 0.0 0.0
799.5366183289713 62.61819005884395 426.90322869958266 126.99435261139494 0.0 0.0
746.2940886893255 56.98489947171622 395.98470053613784 128.67011078248146 0.0 0.0
689.7837629165847 53.35427937010428 358.50815061883367 131.450760937477 0.0 0.0
610.0292292620011 48.448284875003004 295.0037693456492 133.551736474383 0.0 0.0
500.85653205222206 28.953027027590473 200.89856389348412 138.39288527101596 0.0 0.0
371.8066683528732 4.9824239234736805 117.89943555167386 145.03530602314802 0.0 0.0
247.73149572342115 6.586898038175149 75.87409050952711 139.2020842637729 0.0 0.0
156.08883472153278 21.63214958896782 53.31634662322372 132.67194333414162 0.0 0.0
80.82683432766997 19.37179190887743 30.059706888717944 145.85901889657336 0.0 0.0
260.95528604944343 54.905394423321844 128.1414560823966 209.7099582015531 0.0 0.0
-549.4420109687454 -1179.387911808859 -717.8055608164515 72.54248330606792 0.0 0.0
-405.57919746579535 -1010.874558037365 -553.0323571274012 -76.2827435404452 0.0 0.0
192.16615710456256 15.493541907629734 80.56828818635799 -213.7841224186132 0.0 0.0
50.68437655332283 7.056825739431397 17.32222665152727 -164.16127137009812 0.0 0.0
109.86728648895586 22.984003287640924 39.85746561889244 -152.3642085737867 0.0 0.0
181.02752606049015 8.489357753058776 56.63771312081022 -158.8548815414406 0.0 0.0
279.9582978236684 -0.7566866810374586 84.08162238797314 -171.68650960406114 0.0 0.0
403.85582561418914 12.899035939703179 143.75770086649126 -167.29863197100963 0.0 0.0
522.5786166637945 33.282730486384786 230.3877041324019 -157.4970208942869 0.0 0.0
613.1892094300648 40.82636545720441 303.4677623795123 -151.88298730906567 0.0 0.0
675.9599782925384 39.176669460812015 346.6160237029485 -147.89706711867674 0.0 0.0
726.6632199621711 42.865117937593524 377.60510801770084 -143.9942306414381 0.0 0.0
775.7659731056491 52.24767050979077 407.73846156475105 -141.19318456613416 0.0 0.0
823.2969618666353 64.68434618514071 438.1136455611276 -138.41777801937147 0.0 0.0
867.656617784045 77.62485717396507 466.9675481066066 -135.53925047672962 0.0 0.0
909.0689047296123 89.36410160073271 493.69259710726345 -132.0356119215759 0.0 0.0
945.9432341749706 98.17617510968137 516.6687973938344 -127.30713223323086 0.0 0.0
981.2363054547103 106.27296269329355 538.3481300896 -121.60190702569705 0.0 0.0
1022.8288401225992 122.9033705725943 567.3138753944243 -115.92248282574502 0.0 0.0
1057.2110964544313 133.86676938477592 590.2623088258367 -107.90318817362692 0.0 0.0
1059.7061410514643 112.16568647437754 581.201908699431 -91.4992416071922 0.0 0.0
476.3888932297539 -460.89476967369995 12.448561671074444 -6.764722115804034e-11 0.0 0.0
1059.7061410507547 112.16568647370414 581.2019086990495 91.49924160713115 0.0 0.0
1057.2110964561614 133.86676938685417 590.2623088271192 107.90318817406788 0.0 0.0
1022.8288401225741 122.90337057258887 567.3138753944129 115.92248282592911 0.0 0.0
981.2363054539524 106.27296269263891 538.3481300889632 121.60190702567604 0.0 0.0
945.94323417531 98.17617511025756 516.6687973941183 127.30713223340099 0.0 0.0
909.0689047293077 89.36410160053397 493.6925971070457 132.03561192158986 0.0 0.0
867.656617784496 77.62485717461126 466.96754810684644 135.53925047683182 0.0 0.0
823.2969618666283 64.6843461853306 438.11364556108276 138.41777801931897 0.0 0.0
775.7659731053509 52.2476705096267 407.7384615645567 141.19318456608826 0.0 0.0
726.6632199613819 42.86511793696772 377.60510801712593 143.99423064140953 0.0 0.0
675.9599782906578 39.17666945892279 346.6160237017859 147.897067118413 0.0 0.0
613.1892094301778 40.82636545777753 303.4677623795331 151.882987309216 0.0 0.0
522.5786166632607 33.28273048610095 230.38770413194524 157.49702089416962 0.0 0.0
403.85582561380244 12.899035939647199 143.75770086620756 167.29863197098095 0.0 0.0
279.9582978233699 -0.7566866809951578 84.08162238789309 171.6865096038017 0.0 0.0
181.02752606062398 8.489357753536652 56.637713120998285 158.854881541309 0.0 0.0
109.86728648906733 22.984003287939498 39.8574656190159 152.36420857353488 0.0 0.0
50.684376553302066 7.056825739390915 17.32222665150888 164.16127136999927 0.0 0.0
192.16615710421672 15.493541907395235 80.56828818609247 213.78412241848196 0.0 0.0
-405.57919746485186 -1010.8745580361775 -553.0323571262878 76.282743540386 0.0 0.0
-292.9395149080448 -849.4445728972072 -416.71848768635226 -81.33015591945819 0.0 0.0
133.2337438901263 -16.474182221636912 44.109469719109946 -211.53097548284995 0.0 0.0
22.794608119316006 -1.397937033311884 6.420700089337106 -177.08403458639543 0.0 0.0
64.64910772670535 22.79567100033919 26.225983198185787 -168.0780752863168 0.0 0.0
115.6981224480872 11.53258541415828 38.064952985102046 -174.0796044930367 0.0 0.0
183.63820368057395 -0.2809927080740371 54.744683878793275 -191.32016714184644 0.0 0.0
283.48547646152025 -0.8904075869389403 88.9962600370621 -198.7449190589719 0.0 0.0
403.93221086848536 11.719930304560108 151.62441880948742 -186.33165316514373 0.0 0.0
507.24725749889217 21.87281197168076 223.81640932299808 -172.2437186119289 0.0 0.0
579.4971801464362 21.3416569863544 276.4080712930801 -164.68694400912494 0.0 0.0
632.6589349944556 22.693102512242508 312.23843663878455 -159.18366912038462 0.0 0.0
679.6320158847752 28.95826280935958 341.77146363764166 -155.82963275023448 0.0 0.0
723.2113886294638 38.846642375306196 369.80183777438594 -152.7895984048431 0.0 0.0
762.7907086013228 48.5966498455717 394.9765945380142 -149.93223101730482 0.0 0.0
800.2010435568518 58.06361706607242 418.7247626638051 -146.88387050612042 0.0 0.0
835.9828180457495 66.48559194383463 441.1473059742476 -142.74005245653254 0.0 0.0
870.5557789757139 73.69702306496323 462.42514703166364 -136.76796355275889 0.0 0.0
913.1375582010095 89.71472907865841 491.6467084134336 -130.06111561813307 0.0 0.0
971.1004826846444 121.71667711360848 536.5509306274556 -124.24731150602024 0.0 0.0
1002.5359988741357 124.06439625376733 554.6307895433528 -112.38327325486775 0.0 0.0
269.7915212024461 -584.4022161275091 -150.4839725278881 1.3813661325912108e-10 0.0 0.0
1002.535998874412 124.06439625410795 554.6307895437246 112.38327325514646 0.0 0.0
971.1004826845575 121.71667711365515 536.5509306273909 124.24731150635569 0.0 0.0
913.1375582002968 89.71472907808331 491.64670841300756 130.06111561829374 0.0 0.0
870.5557789744909 73.6970230637699 462.425147030789 136.76796355294627 0.0 0.0
835.9828180453368 66.48559194348607 441.14730597405435 142.74005245649667 0.0 0.0
800.2010435569847 58.06361706650185 418.7247626639407 146.88387050628396 0.0 0.0
762.7907086021994 48.5966498466687 394.97659453855726 149.9322310173434 0.0 0.0
723.2113886300068 38.84664237611098 369.80183777475037 152.78959840500275 0.0 0.0
679.6320158848707 28.95826280965405 341.7714636376857 155.8296327502409 0.0 0.0
632.6589349937105 22.693102511510972 312.2384366382443 159.18366912025135 0.0 0.0
579.4971801453902 21.341656985447738 276.4080712923486 164.68694400891656 0.0 0.0
507.2472574982296 21.872811971096723 223.81640932249 172.24371861186165 0.0 0.0
403.93221086802595 11.71993030441407 151.62441880917046 186.33165316513686 0.0 0.0
283.4854764612355 -0.8904075867060337 88.99626003699461 198.74491905890574 0.0 0.0
183.63820368034635 -0.28099270780053587 54.7446838788255 191.32016714149623 0.0 0.0
115.69812244794612 11.53258541414806 38.06495298506375 174.0796044928228 0.0 0.0
64.64910772654714 22.795671000089154 26.225983198062984 168.07807528605073 0.0 0.0
22.794608119312134 -1.3979370332488763 6.420700089353669 177.08403458633185 0.0 0.0
133.23374388962768 -16.474182222128853 44.10946971875867 211.53097548260314 0.0 0.0
-292.9395149074144 -849.4445728961507 -416.7184876855113 81.33015591952714 0.0 0.0
-201.80229435797347 -705.9728887635915 -305.07868170948944 -94.4718117307928 0.0 0.0
80.26360666399572 -41.8705640822675 15.326723851562514 -203.25659782646107 0.0 0.0
-4.268262305861379 -5.2942087830893305 -2.8809334202703374 -184.58444846852476 0.0 0.0
19.972514544749476 21.537256001317598 12.450599659156943 -178.94105482251595 0.0 0.0
50.363485875226054 14.57919454834988 19.447600776089587 -184.89893408266732 0.0 0.0
88.4907337942905 3.2258387096179058 27.40083138375553 -203.97201524847628 0.0 0.0
143.2393123995883 -2.5027941813562484 42.51190055307501 -219.85799699591328 0.0 0.0
230.08191199306896 -6.429882651838801 69.89663138038132 -219.6075373947722 0.0 0.0
337.79086728418883 -13.079398789000578 108.67660077405233 -201.61509722415974 0.0 0.0
424.2673415785728 -14.244079247948012 151.1776928029903 -179.10966161667895 0.0 0.0
482.65658552332627 -5.0978272317159465 190.64879639047572 -169.00426684259554 0.0 0.0
527.0920257124537 3.7095323262142372 223.1223796731384 -166.168400763768 0.0 0.0
564.4532616242788 11.779513888140109 250.5161630390548 -165.18008726048743 0.0 0.0
598.0784901081764 19.68861548861578 274.4571291196991 -164.35104065667701 0.0 0.0
630.3417506518891 27.7382154059148 297.37654416021854 -163.1984859709589 0.0 0.0
664.0533826945693 35.984363105494694 321.2320399931152 -161.03043434024514 0.0 0.0
700.6159677540666 43.5230754253198 346.53443501001 -156.07197306688067 0.0 0.0
739.8688856242685 49.81478684834845 372.48395718497096 -148.11894917418874 0.0 0.0
804.4637302672437 79.21599036461998 419.68955516340424 -141.50537275817337 0.0 0.0
901.9472135438612 137.7091524567382 500.3670909166957 -140.4136559130346 0.0 0.0
-4.618949245899671 -707.6244063263097 -344.2282554659423 7.16582349014061e-11 0.0 0.0
901.9472135433792 137.70915245627515 500.3670909165173 140.4136559131623 0.0 0.0
804.4637302669154 79.21599036435904 419.68955516311314 141.50537275837772 0.0 0.0
739.8688856232445 49.814786847042015 372.4839571842626 148.11894917423064 0.0 0.0
700.6159677528215 43.52307542388909 346.53443500902836 156.07197306691302 0.0 0.0
664.0533826935399 35.98436310442446 321.23203999253104 161.0304343401454 0.0 0.0
630.3417506529428 27.738215407314286 297.3765441610542 163.19848597121884 0.0 0.0
598.0784901083576 19.68861548882376 274.4571291198654 164.35104065674952 0.0 0.0
564.4532616240784 11.77951388807908 250.51616303888957 165.1800872605376 0.0 0.0
527.0920257119773 3.709532325516271 223.12237967283568 166.1684007637432 0.0 0.0
482.6565855230648 -5.097827231994717 190.64879639024733 169.00426684240438 0.0 0.0
424.26734157883914 -14.244079247367388 151.177692803161 179.10966161664243 0.0 0.0
337.7908672837459 -13.079398789158834 108.67660077380772 201.61509722409534 0.0 0.0
230.0819119929643 -6.429882651335114 69.89663138047568 219.6075373947847 0.0 0.0
143.23931239920117 -2.5027941817001174 42.51190055285563 219.8579969957143 0.0 0.0
88.4907337943872 3.2258387102535404 27.400831383988066 203.972015248135 0.0 0.0
50.363485875062594 14.579194548109768 19.447600775970415 184.89893408243682 0.0 0.0
19.972514544695134 21.537256001199115 12.450599659105004 178.94105482227346 0.0 0.0
-4.268262305997712 -5.294208783259554 -2.8809334203647485 184.5844484684047 0.0 0.0
80.26360666369857 -41.8705640824156 15.326723851405356 203.25659782629694 0.0 0.0
-201.80229435747572 -705.97288876273 -305.0786817088902 94.47181173084698 0.0 0.0
-140.9432519269329 -573.6747290897353 -223.26493244376638 -107.63775855019057 0.0 0.0
31.526883872425476 -60.305423663458555 -7.473280803635173 -188.38416891053322 0.0 0.0
-30.641328406938612 -5.892822643322775 -10.954774949631211 -188.5164583198452 0.0 0.0
-24.02300622207033 19.844089998273684 -1.2635526131546544 -185.27411514050428 0.0 0.0
-14.214138491458346 17.292813271156522 0.9218592131123069 -190.58740527804554 0.0 0.0
-6.80456978383887 7.371570901549634 0.17859017798463084 -208.63672218542067 0.0 0.0
-3.0329973639172216 1.0658299675506036 -0.5908730600527408 -226.21333001750162 0.0 0.0
-1.0932385853115818 0.08757282752826878 -0.3068688010589504 -229.12082599697567 0.0 0.0
-0.3748778161563777 0.00602898607156277 -0.11688716592875537 -221.61607548084243 0.0 0.0
-0.017074667416466127 -0.00812371462652095 -0.004308902492951461 -217.2720987000316 0.0 0.0
-0.4452070942513302 0.012437228368781916 -0.1303164987743557 -211.92088808665235 0.0 0.0
-0.9831974277965543 0.16515349779748334 0.23650069233445947 -198.9098952803111 0.0 0.0
-1.9170254889326372 0.8815039482568778 0.4674937094874281 -189.67315696771138 0.0 0.0
-0.11897143648371866 2.669316625426447 1.0335489137311242 -182.7127444711123 0.0 0.0
9.14068022033183 6.794983734701134 2.4379238475272302 -177.75497765431354 0.0 0.0
33.09511278799215 14.411637788132836 6.387864161737795 -173.48145897100744 0.0 0.0
81.64290657355798 27.470369437603352 15.377534612234257 -168.08869183859227 0.0 0.0
169.35356487125597 37.453725078723 21.183576209413417 -158.88333603358512 0.0 0.0
390.0737317841757 -4.407767073052355 37.75931063246246 -153.8345366738024 0.0 0.0
619.058255117605 32.788274608459375 247.89459600996423 -201.0241132765913 0.0 0.0
-685.1694542794942 -955.1718370414949 -741.4673531339156 1.0335554634366417e-10 0.0 0.0
619.058255115845 32.78827460560646 247.89459600868682 201.02411327652638 0.0 0.0
390.0737317851243 -4.407767071934558 37.7593106331106 153.8345366741714 0.0 0.0
169.3535648703919 37.45372507752489 21.183576208492468 158.88333603387164 0.0 0.0
81.64290657317125 27.470369436999277 15.37753461179426 168.08869183879477 0.0 0.0
33.09511278843205 14.411637788728626 6.387864162077719 173.48145897092294 0.0 0.0
9.140680220679414 6.794983735015819 2.4379238477820024 177.75497765435568 0.0 0.0
-0.11897143676416988 2.6693166247480633 1.0335489133831857 182.7127444712048 0.0 0.0
-1.9170254892552805 0.8815039472749859 0.46749370898943 189.67315696800725 0.0 0.0
-0.9831974277951048 0.16515349728001638 0.2365006921241246 198.90989528033992 0.0 0.0
-0.4452070940855677 0.012437228033675751 -0.13031649887554408 211.92088808663001 0.0 0.0
-0.017074666661045512 -0.008123713686270406 -0.004308901968094858 217.27209869975192 0.0 0.0
-0.37487781569966927 0.006028986643548784 -0.11688716561724632 221.61607548093602 0.0 0.0
-1.0932385849377475 0.0875728281180228 -0.30686880076068324 229.12082599693844 0.0 0.0
-3.032997363785501 1.0658299676951923 -0.5908730599705336 226.2133300172516 0.0 0.0
-6.804569783630646 7.371570901980861 0.1785901781765018 208.63672218523033 0.0 0.0
-14.214138491617902 17.292813270748837 0.9218592129418341 190.5874052778673 0.0 0.0
-24.023006221901195 19.844089998631592 -1.2635526129978627 185.2741151403342 0.0 0.0
-30.64132840703229 -5.892822643510278 -10.95477494971718 188.5164583197406 0.0 0.0
31.526883872091247 -60.30542366364535 -7.473280803810226 188.384168910278 0.0 0.0
-140.9432519268003 -573.674729089132 -223.2649324434839 107.63775855022654 0.0 0.0
-109.7424695461947 -454.5099336477693 -169.4743700351958 -113.60018867259483 0.0 0.0
-6.485678780149337 -71.49609792104027 -23.360989568860784 -172.38154201159819 0.0 0.0
-55.560451515262116 -5.416415003155449 -18.304645834923203 -187.64718918043064 0.0 0.0
-66.89498284160814 18.30898711452898 -14.59056457207565 -186.78315001895427 0.0 0.0
-77.58831663911351 19.272503633542467 -17.500926749902334 -190.65798896709543 0.0 0.0
-100.8951580844755 11.306097846661272 -26.847412878550763 -205.5822700919668 0.0 0.0
-148.79326076789658 4.695409548676924 -43.59929543965787 -220.97775512536663 0.0 0.0
-231.5242466366808 6.481728815056494 -70.4648738805482 -220.00334338129113 0.0 0.0
-338.0169908025806 12.913132142039316 -108.86498158375983 -201.6421182054967 0.0 0.0
-424.2608426333468 14.224436551214154 -151.17564042036372 -179.07393380900305 0.0 0.0
-483.15662506446455 4.976831951204012 -190.92035697487088 -169.01976770865625 0.0 0.0
-527.869089917352 -3.6542533694732313 -224.02867674203128 -166.01413196572145 0.0 0.0
-565.5508502590203 -10.444979698974535 -251.3104355022549 -164.52002403055403 0.0 0.0
-596.4708032432413 -14.673747020832309 -271.77811129448963 -163.55145770026266 0.0 0.0
-618.0805179407408 -15.190107145145276 -283.68852382714994 -163.6966337828939 0.0 0.0
-628.2830904870435 -10.67107500958386 -284.73226101373734 -165.69554017792169 0.0 0.0
-625.5563800148079 -1.2622440782766375 -272.945757321943 -170.18553775886787 0.0 0.0
-618.097269284996 6.04179296528261 -250.77460109357258 -179.58282392666527 0.0 0.0
-595.6285336932251 57.17531943276998 -187.9821135674345 -193.458080742864 0.0 0.0
-321.62863223914417 175.88693736811615 42.23978653363821 -159.2590812402835 0.0 0.0
-1253.7058707139338 -1222.9363735234597 -1269.1850161161242 -1.7994494783124537e-10 0.0 0.0
-321.6286322394993 175.88693736672158 42.239786533144496 159.25908124093706 0.0 0.0
-595.6285336916924 57.17531943484995 -187.98211356625862 193.45808074289218 0.0 0.0
-618.0972692857658 6.041792963989906 -250.77460109407497 179.58282392690813 0.0 0.0
-625.5563800149899 -1.2622440785829383 -272.9457573220905 170.18553775903538 0.0 0.0
-628.2830904843696 -10.67107500650826 -284.73226101187305 165.69554017758773 0.0 0.0
-618.0805179405131 -15.19010714501026 -283.6885238269429 163.6966337829734 0.0 0.0
-596.4708032424558 -14.673747020184607 -271.77811129396713 163.55145770017916 0.0 0.0
-565.5508502594079 -10.444979699906902 -251.3104355025165 164.52002403065927 0.0 0.0
-527.8690899162275 -3.6542533683114584 -224.02867674117041 166.01413196555592 0.0 0.0
-483.1566250646168 4.976831950757642 -190.92035697485804 169.01976770863376 0.0 0.0
-424.26084263243183 14.224436552004455 -151.17564041976954 179.07393380885281 0.0 0.0
-338.0169908023085 12.91313214152968 -108.8649815837411 201.64211820567076 0.0 0.0
-231.52424663581553 6.4817288156851545 -70.46487388005819 220.00334338122462 0.0 0.0
-148.79326076709089 4.6954095494994155 -43.599295439172224 220.97775512516432 0.0 0.0
-100.89515808409814 11.306097846908166 -26.847412878374456 205.58227009173012 0.0 0.0
-77.58831663897095 19.27250363367546 -17.50092674982347 190.65798896691382 0.0 0.0
-66.89498284156281 18.308987114528065 -14.590564572065588 186.78315001878917 0.0 0.0
-55.56045151532004 -5.416415003225266 -18.30464583496386 187.64718918022737 0.0 0.0
-6.485678780309796 -71.4960979212062 -23.360989568955578 172.3815420114984 0.0 0.0
-109.74246954612155 -454.5099336471375 -169.47437003502418 113.60018867243336 0.0 0.0
-91.91671799779218 -347.32141943772916 -131.7580390885164 -106.90774358440702 0.0 0.0
-30.88688777298436 -76.91579717580161 -32.337534016887936 -159.39849410438953 0.0 0.0
-78.91217737350033 -5.1974169087737865 -25.21818991135095 -183.6342157230959 0.0 0.0
-107.9290594410779 16.95127115925942 -27.32085719341561 -183.3151084459032 0.0 0.0
-139.77582055147357 20.66910080685579 -35.66329534108414 -186.21556084409497 0.0 0.0
-193.34649651826405 14.452557787059181 -53.686816792275295 -196.23996139573148 0.0 0.0
-285.4532534926386 2.078111583481287 -89.93879446147395 -198.39591531869183 0.0 0.0
-404.15402671468553 -11.932669710807769 -151.96245368551328 -186.926624691737 0.0 0.0
-507.23939057770104 -22.074167192138994 -223.91255452002673 -172.36349809474353 0.0 0.0
-579.4288002941814 -21.3735345597635 -276.40944191420783 -164.68210529347203 0.0 0.0
-632.7122416218292 -22.671987205406225 -312.29918629376857 -159.10620983773381 0.0 0.0
-680.102767319247 -28.83702829937313 -342.0469369241549 -155.326885365823 0.0 0.0
-723.6957738257549 -37.872509261106515 -369.75462429946754 -151.62131723995336 0.0 0.0
-760.4561707674789 -44.44947183862621 -392.05819290997283 -148.72513513249336 0.0 0.0
-787.912585057803 -45.965512694151556 -406.88922547199707 -147.70203831100665 0.0 0.0
-802.8200444059659 -40.017544990824575 -411.4473291597857 -149.0029333400262 0.0 0.0
-805.8374087716705 -28.55753135316874 -406.8592173336715 -152.87354185290963 0.0 0.0
-797.3850861963346 -14.00660689272749 -394.77253667349646 -159.21791658104752 0.0 0.0
-747.4381647696034 33.510357994657255 -346.011462020959 -166.58272988586785 0.0 0.0
-628.4816998863737 135.7757714846054 -237.66752275195307 -174.30848428994216 0.0 0.0
-2050.149721407803 -1521.9694539659158 -1753.6196186464326 8.324008149429574e-11 0.0 0.0
-628.4816998851481 135.77577148577268 -237.66752275104736 174.30848429019915 0.0 0.0
-747.438164769126 33.51035799539703 -346.0114620206732 166.5827298860496 0.0 0.0
-797.385086195593 -14.00660689234958 -394.77253667298135 159.21791658104797 0.0 0.0
-805.8374087720415 -28.5575313538927 -406.8592173339708 152.87354185320893 0.0 0.0
-802.8200444038961 -40.01754498848261 -411.44732915846396 149.0029333397343 0.0 0.0
-787.9125850581911 -45.96551269483908 -406.88922547223063 147.70203831114063 0.0 0.0
-760.4561707667551 -44.44947183777945 -392.0581929094282 148.72513513229015 0.0 0.0
-723.6957738253759 -37.87250926109603 -369.7546242992973 151.62131724003683 0.0 0.0
-680.1027673189885 -28.837028299277854 -342.04693692398286 155.3268853658888 0.0 0.0
-632.7122416227052 -22.671987206561916 -312.29918629435736 159.1062098376555 0.0 0.0
-579.4288002937373 -21.373534559705817 -276.40944191391696 164.68210529338342 0.0 0.0
-507.2393905776687 -22.074167192891128 -223.91255451998117 172.36349809493268 0.0 0.0
-404.15402671385164 -11.932669710291812 -151.96245368493004 186.92662469178708 0.0 0.0
-285.453253492208 2.078111583303513 -89.9387944613453 198.3959153186745 0.0 0.0
-193.34649651794047 14.452557786955229 -53.6868167922231 196.23996139549692 0.0 0.0
-139.77582055117978 20.66910080728487 -35.66329534087038 186.21556084392597 0.0 0.0
-107.92905944109945 16.951271159017217 -27.320857193498394 183.31510844563053 0.0 0.0
-78.91217737327118 -5.197416908333876 -25.218189911152884 183.6342157229151 0.0 0.0
-30.886887772982952 -76.9157971758277 -32.33753401689449 159.39849410426024 0.0 0.0
-91.91671799757924 -347.32141943725446 -131.75803908830912 106.90774358428169 0.0 0.0
-75.00607919209477 -257.57984698779757 -99.77577785396771 -95.65930608572131 0.0 0.0
-48.062812452629416 -75.88213211760831 -37.18266025038968 -145.72604807470316 0.0 0.0
-100.40072048970359 -5.197292107343898 -31.661090145203108 -175.18948287268904 0.0 0.0
-147.32459626812312 15.680322382974925 -39.45740021919123 -175.93932506905267 0.0 0.0
-199.55692990108844 20.57445342838797 -53.62563779312567 -175.1482192726292 0.0 0.0
-282.23390234147513 11.971513619358461 -82.8876391935591 -175.4439797502335 0.0 0.0
-403.94561311005083 -10.829620169262302 -143.56581075440272 -169.99018595032655 0.0 0.0
-522.69249225869 -33.76674471670881 -230.58262405412685 -158.13375124537083 0.0 0.0
-613.1353350283368 -41.032151801718435 -303.5480399625015 -151.95136829010792 0.0 0.0
-675.8536446519546 -39.12185410084517 -346.57681303061594 -147.92652155148377 0.0 0.0
-726.4925552866256 -42.643967932220406 -377.44402479900884 -143.90596994800012 0.0 0.0
-775.8030858880422 -51.867856284392516 -407.6166028617329 -140.61748152917414 0.0 0.0
-823.4815309619273 -63.83696686274472 -437.87237850761056 -136.99984592678015 0.0 0.0
-865.9846455289083 -74.6042643599622 -464.81289448982494 -133.8845451109686 0.0 0.0
-899.4918615253523 -79.8248736286096 -484.4320381529728 -132.6258054092798 0.0 0.0
-919.2415197767557 -76.21193141945628 -492.6423790030068 -134.29656768883476 0.0 0.0
-923.6719531075748 -62.36042059870195 -487.9912750127938 -138.92222741976846 0.0 0.0
-903.0657323472826 -30.30234893287337 -461.66222318222844 -144.6779878447805 0.0 0.0
-845.5474625047337 30.24814627204981 -403.1846420110711 -149.07627287893908 0.0 0.0
-683.6479212985042 181.1974780062834 -249.82676724468763 -150.1633720166767 0.0 0.0
-2493.33582869232 -1754.5170412846333 -2099.9048554139977 1.056505993801693e-10 0.0 0.0
-683.6479212972861 181.1974780073283 -249.82676724376606 150.16337201688543 0.0 0.0
-845.5474625065126 30.24814626998517 -403.18464201231745 149.0762728794016 0.0 0.0
-903.0657323456776 -30.302348931273087 -461.6622231811357 144.67798784475193 0.0 0.0
-923.6719531072038 -62.36042059862592 -487.991275012591 138.92222742000547 0.0 0.0
-919.2415197764753 -76.21193141926665 -492.64237900286975 134.29656768880835 0.0 0.0
-899.4918615257981 -79.8248736293686 -484.43203815326405 132.6258054094903 0.0 0.0
-865.9846455283675 -74.60426435948283 -464.8128944893564 133.88454511083592 0.0 0.0
-823.4815309609223 -63.83696686199247 -437.87237850700774 136.99984592686658 0.0 0.0
-775.8030858884626 -51.86785628505957 -407.6166028619254 140.6174815291409 0.0 0.0
-726.4925552868615 -42.64396793263498 -377.4440247991793 143.90596994775623 0.0 0.0
-675.8536446508301 -39.12185410001824 -346.57681302993035 147.92652155145228 0.0 0.0
-613.1353350273353 -41.032151800965636 -303.54803996171614 151.95136828998616 0.0 0.0
-522.6924922581189 -33.766744716560595 -230.5826240536477 158.13375124541352 0.0 0.0
-403.945613109024 -10.829620168608741 -143.5658107537392 169.9901859502853 0.0 0.0
-282.23390234106387 11.971513619317836 -82.88763919342766 175.44397975009352 0.0 0.0
-199.55692990105115 20.57445342795444 -53.62563779326251 175.14821927244026 0.0 0.0
-147.3245962681022 15.68032238276946 -39.45740021925161 175.9393250688368 0.0 0.0
-100.40072048958018 -5.1972921071114655 -31.661090145095503 175.18948287256814 0.0 0.0
-48.06281245265738 -75.88213211765792 -37.18266025041387 145.72604807448855 0.0 0.0
-75.00607919190695 -257.5798469874357 -99.7757778538028 95.65930608565151 0.0 0.0
-61.03339604249705 -182.61367969016422 -73.09412271979836 -82.19004578303596 0.0 0.0
-61.032725496315095 -70.08087368604168 -39.334255912062375 -130.15977059750355 0.0 0.0
-120.3707464181906 -5.120730658069699 -37.634879158024646 -162.67300653710865 0.0 0.0
-184.43086318291566 13.676902545721873 -51.200888276238096 -163.4192142437667 0.0 0.0
-258.56942595085417 18.859697978595495 -71.82620771965216 -159.72691847110053 0.0 0.0
-368.95624466105926 5.027395169617897 -115.67922818358987 -151.53431022527653 0.0 0.0
-498.6042683481645 -27.903443374616693 -200.14117127349166 -139.40471799511727 0.0 0.0
-610.2609850712694 -49.22019596957082 -295.2927424721619 -133.88335414233265 0.0 0.0
-689.7814566054036 -53.514168946513465 -358.63348821050033 -131.50836861436062 0.0 0.0
-746.1352703380076 -56.84183338854679 -395.87674283893557 -128.70332565730052 0.0 0.0
-799.136258021727 -62.140667298413334 -426.5024833737109 -126.90460774945001 0.0 0.0
-851.0321393138539 -73.63928784056874 -458.4622293632548 -124.17317202555539 0.0 0.0
-902.6181013268948 -89.17913046524815 -492.23105779405626 -120.85042043990511 0.0 0.0
-951.0425216168908 -104.80467209730483 -524.4492759312354 -117.6895946103067 0.0 0.0
-990.9572202161303 -115.2696638219617 -549.8461897299202 -116.15440379437534 0.0 0.0
-1015.2855184292675 -113.57716551232696 -561.3566749347141 -117.77922738841505 0.0 0.0
-1015.1067567995267 -93.60421287209778 -551.4596957226919 -122.02767959583954 0.0 0.0
-981.5167204396178 -45.40306375322683 -510.77223572055755 -127.01837918933589 0.0 0.0
-894.8623934280979 47.398222732294 -421.8396989390369 -129.28565493305817 0.0 0.0
-715.292566677343 218.4908824859775 -248.2964288671702 -127.66468183172482 0.0 0.0
-2844.039930630572 -1995.2265592785243 -2401.2511454382948 -1.5778311990288785e-10 0.0 0.0
-715.292566677262 218.49088248581512 -248.29642886712617 127.66468183196278 0.0 0.0
-894.8623934281381 47.39822273209995 -421.83969893909943 129.28565493334435 0.0 0.0
-981.5167204400806 -45.40306375382394 -510.7722357209309 127.01837918948857 0.0 0.0
-1015.1067567996213 -93.60421287236804 -551.4596957229 122.02767959595599 0.0 0.0
-1015.2855184292865 -113.57716551253498 -561.3566749348508 117.77922738846482 0.0 0.0
-990.9572202165963 -115.26966382265326 -549.8461897301954 116.15440379455309 0.0 0.0
-951.0425216168442 -104.80467209742508 -524.4492759311786 117.68959461034551 0.0 0.0
-902.6181013257161 -89.17913046424168 -492.23105779338795 120.85042043991994 0.0 0.0
-851.0321393134664 -73.63928784042267 -458.4622293629613 124.17317202557412 0.0 0.0
-799.1362580210694 -62.140667297903505 -426.5024833732796 126.9046077492542 0.0 0.0
-746.1352703377394 -56.84183338848814 -395.8767428387964 128.70332565722975 0.0 0.0
-689.7814566043961 -53.5141689456198 -358.63348820978484 131.50836861412594 0.0 0.0
-610.2609850707759 -49.220195969403164 -295.29274247167757 133.8833541422604 0.0 0.0
-498.60426834697336 -27.903443373517806 -200.14117127260297 139.40471799499386 0.0 0.0
-368.95624466051754 5.027395169951093 -115.67922818324996 151.53431022510347 0.0 0.0
-258.569425950808 18.859697977895774 -71.82620771986083 159.72691847092273 0.0 0.0
-184.43086318265054 13.676902545773345 -51.200888276159446 163.419214243561 0.0 0.0
-120.37074641810584 -5.120730658043931 -37.63487915799029 162.67300653694176 0.0 0.0
-61.03272549623193 -70.08087368601788 -39.33425591203027 130.15977059742062 0.0 0.0
-61.03339604233225 -182.6136796899383 -73.09412271968117 82.1900457829875 0.0 0.0
-50.657049337919425 -121.73609859328239 -51.71794437936054 -67.91030123685324 0.0 0.0
-71.14863809791174 -60.9386844877883 -39.62619677571001 -112.43560201387095 0.0 0.0
-139.04933410663259 -4.669022253868464 -43.112484864558205 -145.9917551550124 0.0 0.0
-219.79847020506395 11.342958024009 -62.43484206379886 -146.9400596857066 0.0 0.0
-315.88300615192804 13.299607982601811 -91.49883403480044 -137.5713872822963 0.0 0.0
-446.8189761995111 -7.416571562780602 -152.86222390040678 -123.43845169710589 0.0 0.0
-575.5603202373111 -42.49589862170994 -253.92428146125923 -113.0149119775533 0.0 0.0
-677.2800700093326 -59.18662674615754 -345.29030461836703 -111.22741232781307 0.0 0.0
-746.4357506554427 -67.51139340897794 -399.874372561582 -109.77047325777134 0.0 0.0
-805.8651258989526 -72.2143588916005 -435.65262120873706 -109.85842783663249 0.0 0.0
-860.4199958094275 -80.93640989906626 -467.9572658892927 -108.70403785349524 0.0 0.0
-915.4553007029324 -95.43473416668775 -502.8181096741512 -106.4656234854613 0.0 0.0
-970.8033802537482 -114.25122701252428 -540.0075807026301 -103.62436497199658 0.0 0.0
-1024.2444118693784 -134.0946907469066 -576.7557417640639 -100.70761804555136 0.0 0.0
-1071.0723143741816 -150.38425972157958 -608.4693822134763 -98.85635783744353 0.0 0.0
-1099.1325961632385 -151.4945391564279 -623.3073017009838 -99.60927612940907 0.0 0.0
-1093.674362746387 -123.07837041817456 -606.6318706923123 -103.27558611701205 0.0 0.0
-1040.478883122483 -53.92358451094782 -545.7990360306086 -107.43229804239054 0.0 0.0
-927.6245295184186 65.71300220061745 -430.1851144339787 -109.103963554823 0.0 0.0
-741.0227997887629 244.101492886171 -248.6039476533179 -109.41240182418312 0.0 0.0
-3142.0875948182934 -2221.274634369627 -2667.118329000416 -4.214584237161034e-11 0.0 0.0
-741.0227997882068 244.101492886567 -248.60394765289504 109.41240182431376 0.0 0.0
-927.6245295164435 65.71300220261207 -430.18511443265186 109.10396355489425 0.0 0.0
-1040.4788831221322 -53.92358451072492 -545.7990360303196 107.43229804239843 0.0 0.0
-1093.6743627468768 -123.07837041883491 -606.6318706926925 103.27558611710856 0.0 0.0
-1099.1325961625491 -151.4945391558674 -623.3073017006607 99.60927612945088 0.0 0.0
-1071.0723143748937 -150.38425972249811 -608.4693822139135 98.85635783754829 0.0 0.0
-1024.2444118690855 -134.0946907468027 -576.7557417638054 100.70761804550077 0.0 0.0
-970.8033802530672 -114.25122701203551 -540.0075807022864 103.6243649720345 0.0 0.0
-915.4553007030295 -95.4347341671434 -502.8181096742114 106.46562348570458 0.0 0.0
-860.4199958092704 -80.93640989919061 -467.9572658892246 108.70403785351193 0.0 0.0
-805.8651258983751 -72.21435889121683 -435.6526212083625 109.85842783641972 0.0 0.0
-746.4357506552469 -67.5113934091832 -399.87437256144557 109.77047325786552 0.0 0.0
-677.2800700092444 -59.18662674654917 -345.29030461821964 111.22741232793763 0.0 0.0
-575.5603202369907 -42.49589862186086 -253.9242814608631 113.01491197753626 0.0 0.0
-446.8189761988686 -7.416571562407196 -152.86222389995567 123.43845169693361 0.0 0.0
-315.88300615171 13.299607982255342 -91.49883403484493 137.57138728223308 0.0 0.0
-219.79847020481583 11.342958024296417 -62.434842063640424 146.94005968558486 0.0 0.0
-139.04933410650065 -4.669022253829552 -43.112484864505625 145.9917551549252 0.0 0.0
-71.14863809789195 -60.93868448793787 -39.62619677574893 112.43560201374115 0.0 0.0
-50.65704933785053 -121.7360985931548 -51.7179443793016 67.9103012366789 0.0 0.0
-43.705617527793 -74.54669892125833 -35.47569493471539 -53.31858676966448 0.0 0.0
-78.97893074391756 -49.80963622229772 -38.63657008986458 -92.69639534297788 0.0 0.0
-156.5792803129761 -3.689095390604219 -48.08102020954762 -125.20903096990305 0.0 0.0
-253.8239212472885 7.67035579502336 -73.75029314631703 -125.60729527909388 0.0 0.0
-375.1441747709432 6.053699119681697 -112.99980402383224 -112.45169405445017 0.0 0.0
-511.4659853821102 -24.257856834538895 -193.4388630007672 -93.28085183965753 0.0 0.0
-637.263702247038 -52.23592579334346 -300.6653162838411 -89.12902218802304 0.0 0.0
-725.548266451606 -69.49465420730532 -383.34905931902915 -88.42107803409631 0.0 0.0
-796.284293683552 -78.99807110844452 -433.3512885616507 -89.25955883009405 0.0 0.0
-856.9132849400826 -87.73516010233939 -470.1043149007512 -90.07782652257623 0.0 0.0
-914.8122889782019 -99.9411943993072 -505.4753582943628 -89.45979919594276 0.0 0.0
-973.0368375766302 -117.30570188527852 -543.3187803657519 -87.75825947441304 0.0 0.0
-1031.5799974405184 -138.75092013834907 -583.3786871585776 -85.53890615494562 0.0 0.0
-1088.7225821627678 -162.50616087047715 -623.8786875455289 -83.07644881650161 0.0 0.0
-1140.8153138904709 -183.01444500822058 -660.2779278785237 -80.94628064437592 0.0 0.0
-1174.314025446115 -187.86728003828472 -679.7007027565405 -80.50073243635573 0.0 0.0
-1165.373144300159 -154.9977516274721 -659.1639418468047 -82.804154175907 0.0 0.0
-1093.630424986618 -65.76856911994003 -579.059554991102 -86.62632985663997 0.0 0.0
-956.2645846119638 79.09699769348519 -438.36331429865265 -89.93101563855649 0.0 0.0
-757.4862948508661 269.0499644713533 -244.39255587495995 -94.13358319806287 0.0 0.0
-3398.6138084100453 -2424.688815822718 -2899.88000561749 6.754774517503392e-11 0.0 0.0
-757.4862948488342 269.04996447332553 -244.39255587361083 94.1335831981369 0.0 0.0
-956.2645846126062 79.09699769275345 -438.3633142992819 89.93101563884262 0.0 0.0
-1093.630424985267 -65.76856911857298 -579.0595549901306 86.62632985647386 0.0 0.0
-1165.3731442995772 -154.99775162700342 -659.1639418464381 82.80415417586012 0.0 0.0
-1174.3140254444268 -187.86728003669987 -679.7007027554118 80.50073243635089 0.0 0.0
-1140.8153138904706 -183.01444500845588 -660.2779278785472 80.94628064450123 0.0 0.0
-1088.7225821626469 -162.50616087044747 -623.8786875453234 83.07644881641343 0.0 0.0
-1031.5799974402767 -138.7509201383183 -583.378687158484 85.53890615489038 0.0 0.0
-973.036837576614 -117.30570188547463 -543.3187803656879 87.75825947440606 0.0 0.0
-914.8122889772479 -99.94119439862598 -505.4753582938188 89.45979919586983 0.0 0.0
-856.9132849391897 -87.73516010167641 -470.1043149002534 90.0778265225132 0.0 0.0
-796.2842936832699 -78.9980711084796 -433.35128856146514 89.25955883015772 0.0 0.0
-725.5482664515786 -69.49465420766654 -383.34905931890756 88.42107803409523 0.0 0.0
-637.2637022469169 -52.235925793607706 -300.66531628354886 89.12902218794616 0.0 0.0
-511.4659853816939 -24.257856834625454 -193.43886300044375 93.28085183963822 0.0 0.0
-375.14417477036835 6.053699119891007 -112.99980402357996 112.45169405434787 0.0 0.0
-253.8239212468186 7.670355795613583 -73.75029314600806 125.60729527893203 0.0 0.0
-156.5792803129148 -3.6890953908615343 -48.081020209606365 125.20903096987344 0.0 0.0
-78.9789307440361 -49.80963622246186 -38.636570089949394 92.6963953428079 0.0 0.0
-43.70561752795328 -74.5466989212058 -35.475694934747715 53.31858676960722 0.0 0.0
-39.52485563763142 -40.7756560686174 -24.09015351187464 -38.82780653551592 0.0 0.0
-84.4739755321925 -37.90924020228969 -36.71496472034466 -71.1772805195789 0.0 0.0
-172.83078830133633 -2.323411438944725 -52.54648039978858 -100.16308188228611 0.0 0.0
-288.15243137249735 2.799369026802916 -85.46656015675063 -99.69472907690846 0.0 0.0
-431.53297001433225 -5.258759746830208 -137.67092848419702 -82.67245747467263 0.0 0.0
-571.2166605423781 -36.79227904996468 -233.64804066819443 -67.86672198303762 0.0 0.0
-682.1006945755936 -60.92466007585674 -339.4035231742893 -66.57268522388766 0.0 0.0
-766.3079786976418 -77.42616474186006 -412.85624346000543 -66.68093335143736 0.0 0.0
-838.4996825834435 -90.87748926009361 -461.98932166086837 -68.29221378481877 0.0 0.0
-902.5114473756659 -103.44766489383737 -501.4324446872684 -69.48257055250318 0.0 0.0
-963.723119796204 -119.09332136323405 -540.0553839261088 -69.28906315305323 0.0 0.0
-1025.381009234351 -139.46271373926854 -581.0982631696127 -68.11699202306032 0.0 0.0
-1086.7799501586562 -163.85210525038943 -624.0419154565986 -66.50550684794291 0.0 0.0
-1146.028956802322 -188.3715422631864 -665.951558755977 -64.74614294075653 0.0 0.0
-1200.115803936726 -210.8550003275716 -704.2811638039428 -62.672654375734055 0.0 0.0
-1239.474916930114 -221.20309557767425 -729.326839696472 -60.86946097107473 0.0 0.0
-1236.6330201357541 -192.7972767069207 -714.095187666453 -61.2210909684626 0.0 0.0
-1153.5224505336598 -90.88772140160711 -622.0159117105012 -64.9759265267983 0.0 0.0
-987.1589261068196 83.6544416127335 -451.8669823767243 -71.1774000275614 0.0 0.0
-760.5154820044269 301.8014281156518 -229.5495116781121 -80.35005739966799 0.0 0.0
-3613.8359700475926 -2596.0909222460537 -3095.3674015429383 1.2179235397979937e-10 0.0 0.0
-760.515482003254 301.801428116848 -229.54951167736516 80.35005739964674 0.0 0.0
-987.1589261086497 83.6544416108286 -451.8669823780335 71.17740002749116 0.0 0.0
-1153.5224505329345 -90.88772140097298 -622.0159117101075 64.97592652680163 0.0 0.0
-1236.6330201350324 -192.79727670633866 -714.0951876659464 61.221090968574 0.0 0.0
-1239.4749169300462 -221.20309557769988 -729.3268396964145 60.869460971046195 0.0 0.0
-1200.1158039349043 -210.85500032589198 -704.281163802691 62.6726543756718 0.0 0.0
-1146.0289568025041 -188.37154226359402 -665.9515587560008 64.74614294081753 0.0 0.0
-1086.7799501587797 -163.8521052507342 -624.0419154567895 66.50550684792024 0.0 0.0
-1025.3810092338572 -139.4627137390166 -581.0982631692647 68.1169920231297 0.0 0.0
-963.7231197945777 -119.09332136185589 -540.0553839251236 69.28906315297336 0.0 0.0
-902.5114473759446 -103.44766489441436 -501.4324446874479 69.48257055257562 0.0 0.0
-838.4996825826748 -90.87748925962613 -461.9893216603159 68.29221378475083 0.0 0.0
-766.3079786968949 -77.42616474145923 -412.8562434594901 66.68093335149159 0.0 0.0
-682.1006945753088 -60.924660075944644 -339.4035231739082 66.5726852238615 0.0 0.0
-571.2166605420472 -36.792279050094486 -233.64804066784126 67.86672198303279 0.0 0.0
-431.53297001407867 -5.258759746969872 -137.67092848409408 82.67245747448973 0.0 0.0
-288.1524313720812 2.7993690270433063 -85.46656015658111 99.69472907670067 0.0 0.0
-172.8307883011683 -2.323411438850272 -52.54648039970953 100.16308188219237 0.0 0.0
-84.47397553216517 -37.90924020239696 -36.71496472036864 71.17728051944839 0.0 0.0
-39.52485563744025 -40.77565606841857 -24.090153511757645 38.82780653551967 0.0 0.0
-36.8763266644747 -20.03386785665423 -17.073058356338674 -25.22435220393025 0.0 0.0
-86.92706268505384 -26.477020974506505 -34.021225097868104 -48.18514184044932 0.0 0.0
-187.47917533452622 -1.104878552245292 -56.57521616603144 -70.29905111252708 0.0 0.0
-324.3988569582993 -2.862946926026146 -97.952737501735 -68.66648261103914 0.0 0.0
-483.5420173586281 -19.670126568738667 -165.95224084069463 -51.84452278783743 0.0 0.0
-618.7840459281877 -46.33386938602214 -271.3549841175153 -44.711251507455316 0.0 0.0
-715.3640364769201 -67.58829944851509 -369.2144389762858 -44.534345750139146 0.0 0.0
-801.2736860830515 -86.0493123096308 -437.90259385933774 -45.39997560453554 0.0 0.0
-875.9630578260427 -103.37961666128382 -487.83523478960217 -46.88664546313624 0.0 0.0
-943.4498135947257 -119.52179823430679 -530.3680265082762 -48.075833278103374 0.0 0.0
-1008.4039652454453 -138.44430503587935 -572.4577340709295 -48.238258318460396 0.0 0.0
-1073.1415132339107 -161.78052495814265 -616.5251441065079 -47.58551235709502 0.0 0.0
-1137.5088325041525 -187.86094510932784 -661.7813260765839 -46.659942377759165 0.0 0.0
-1197.9994606962366 -214.0015107089702 -705.1316423583726 -45.51277927859385 0.0 0.0
-1251.0415795312344 -234.89306587186448 -742.1402873339491 -43.894919839591516 0.0 0.0
-1290.0150725828757 -244.41124273293897 -766.4764934278054 -41.585907002506666 0.0 0.0
-1301.1233023733982 -229.4987060197285 -764.8112012352768 -39.8018938004747 0.0 0.0
-1241.83719833916 -150.03640946786456 -695.9113210966657 -42.093807501769994 0.0 0.0
-1038.6222314402946 63.082143300577314 -488.1629778717392 -51.3606558826685 0.0 0.0
-735.8847228674022 358.6992780073648 -188.89226595359278 -66.89628981094049 0.0 0.0
-3774.1467231359184 -2718.0289169551647 -3238.28357724857 1.348361422515154e-10 0.0 0.0
-735.8847228664192 358.69927800830897 -188.89226595288397 66.89628981103526 0.0 0.0
-1038.6222314405231 63.08214330028683 -488.1629778718733 51.3606558827166 0.0 0.0
-1241.8371983395718 -150.03640946836612 -695.9113210969858 42.093807501877365 0.0 0.0
-1301.1233023725677 -229.4987060190327 -764.8112012346182 39.801893800509056 0.0 0.0
-1290.0150725840267 -244.41124273424853 -766.47649342862 41.58590700253785 0.0 0.0
-1251.0415795291767 -234.89306586994635 -742.1402873326247 43.8949198395605 0.0 0.0
-1197.9994606960263 -214.00151070898 -705.1316423581814 45.512779278698204 0.0 0.0
-1137.5088325043384 -187.8609451097123 -661.7813260768287 46.65994237761767 0.0 0.0
-1073.1415132335771 -161.78052495808606 -616.5251441062442 47.585512357272776 0.0 0.0
-1008.4039652449699 -138.4443050356576 -572.4577340706551 48.23825831846807 0.0 0.0
-943.4498135943495 -119.52179823423194 -530.3680265079988 48.07583327807057 0.0 0.0
-875.9630578245204 -103.37961666002367 -487.83523478859837 46.88664546301122 0.0 0.0
-801.2736860822268 -86.0493123091393 -437.9025938587869 45.39997560475145 0.0 0.0
-715.3640364765513 -67.58829944847193 -369.21443897586903 44.53434575008807 0.0 0.0
-618.7840459279414 -46.33386938614693 -271.3549841171792 44.711251507442924 0.0 0.0
-483.5420173585913 -19.67012656932563 -165.95224084071788 51.84452278781015 0.0 0.0
-324.39885695789167 -2.8629469260368086 -97.95273750163517 68.66648261096174 0.0 0.0
-187.47917533410399 -1.1048785516958832 -56.575216165739945 70.29905111232291 0.0 0.0
-86.92706268506683 -26.477020974665557 -34.02122509791971 48.18514184045739 0.0 0.0
-36.87632666445599 -20.03386785657582 -17.07305835630954 25.22435220367599 0.0 0.0
-33.40520271936302 -11.265123084538333 -13.401097741170405 -14.188156968649336 0.0 0.0
-84.8390878836371 -17.235190480793072 -30.62228350932904 -24.146825364409434 0.0 0.0
-200.0907169143063 -1.0948839794270193 -60.355680268119976 -34.194760943449296 0.0 0.0
-362.4288212690189 -8.43758071267396 -111.61843158855504 -32.14152396710876 0.0 0.0
-533.634659680663 -31.766390906081572 -196.03286787307962 -23.456949027794142 0.0 0.0
-653.507207519449 -53.26845256396015 -304.0062896238142 -23.276311107553187 0.0 0.0
-744.8853505299983 -72.2149931278447 -392.8272624226517 -23.990858269129134 0.0 0.0
-831.463110215835 -95.1622048207648 -459.5003861310263 -24.386575515820287 0.0 0.0
-909.317314407725 -116.09348783030606 -511.34997569626245 -25.096857191270885 0.0 0.0
-980.6550846903368 -136.21839258727294 -557.6236986846172 -25.90259083391753 0.0 0.0
-1049.0560225776812 -158.14374654314352 -602.927333343399 -26.28490263602693 0.0 0.0
-1116.9805386228134 -183.51116297318163 -649.6053296922499 -26.23986136550496 0.0 0.0
-1183.73759087954 -212.1784994431427 -697.3444973515382 -25.888259484888792 0.0 0.0
-1245.8546057529368 -238.79061019084324 -741.7451895044541 -25.34945518830878 0.0 0.0
-1296.3900547378244 -256.83423232556765 -776.0922167111662 -24.42078118885473 0.0 0.0
-1329.208439594852 -260.25549159738523 -794.2837755716216 -22.65055983124586 0.0 0.0
-1342.1240006201772 -247.39012204875849 -794.3433574987585 -20.12789418175121 0.0 0.0
-1331.6677450973107 -216.04208838597248 -773.5779603503568 -19.482618775938768 0.0 0.0
-1208.8846921274144 -80.4855835324031 -645.0477921077315 -27.68295458930912 0.0 0.0
-709.6838547721884 415.4678231412754 -147.76582320275895 -50.59401270380029 0.0 0.0
-3718.8808772744087 -2626.520235117108 -3166.7313256060993 -1.0293987884324451e-11 0.0 0.0
-709.6838547721484 415.4678231412804 -147.76582320266817 50.59401270387056 0.0 0.0
-1208.884692127402 -80.48558353244876 -645.0477921077479 27.682954589347755 0.0 0.0
-1331.6677450974885 -216.04208838626673 -773.5779603505129 19.482618775935826 0.0 0.0
-1342.1240006195922 -247.39012204830317 -794.3433574983785 20.12789418184892 0.0 0.0
-1329.2084395950183 -260.2554915976962 -794.2837755717801 22.650559831265596 0.0 0.0
-1296.3900547373983 -256.83423232529964 -776.0922167108878 24.420781188834088 0.0 0.0
-1245.8546057521573 -238.79061019026756 -741.7451895039549 25.3494551883054 0.0 0.0
-1183.737590879264 -212.17849944307812 -697.3444973514461 25.88825948478686 0.0 0.0
-1116.980538623403 -183.5111629740231 -649.6053296925978 26.239861365561033 0.0 0.0
-1049.0560225778922 -158.14374654365554 -602.9273333435312 26.28490263601063 0.0 0.0
-980.6550846899314 -136.21839258714243 -557.623698684319 25.90259083389992 0.0 0.0
-909.3173144068487 -116.09348782970307 -511.3499756956951 25.096857191061144 0.0 0.0
-831.4631102147806 -95.16220482001411 -459.5003861303108 24.386575515869517 0.0 0.0
-744.8853505295449 -72.21499312769168 -392.82726242224743 23.990858269051373 0.0 0.0
-653.5072075194639 -53.26845256437522 -304.0062896236121 23.27631110751113 0.0 0.0
-533.6346596798815 -31.766390905669272 -196.03286787254999 23.456949027803304 0.0 0.0
-362.42882126858257 -8.437580712592826 -111.61843158840317 32.141523967077504 0.0 0.0
-200.09071691412436 -1.094883979449048 -60.355680268072014 34.194760943415304 0.0 0.0
-84.83908788337627 -17.23519048063592 -30.622283509203665 24.14682536437533 0.0 0.0
-33.40520271924002 -11.265123084508835 -13.401097741124651 14.18815696856653 0.0 0.0
-21.999116157006277 -5.786442971828708 -8.335667738650493 -8.655375818331514 0.0 0.0
-74.11238419638227 -9.869851097969592 -25.194670588305552 -10.037626372479926 0.0 0.0
-210.08723031158007 -3.3813729748476646 -64.0405809859283 -11.263094082277433 0.0 0.0
-408.40204525370183 -27.375937930963214 -133.37449959603455 -7.412301243299494 0.0 0.0
-605.9412343515032 -80.32365950292362 -247.57348372763818 0.49309783611656144 0.0 0.0
-751.2808093696935 -133.1340851521744 -386.90184089760794 1.4376295327606599 0.0 0.0
-881.0460108718844 -193.27779991816266 -512.45189331462 0.5067504250866435 0.0 0.0
-1018.5617189093464 -268.646405551442 -629.5521213304518 -1.0322591289578966 0.0 0.0
-1164.2345113856557 -358.16153714132747 -749.6103921172381 -2.7709933733127983 0.0 0.0
-1326.8625808905097 -469.2822646677827 -886.8559122148151 -4.628016505290983 0.0 0.0
-1512.519468232246 -607.7968280210711 -1048.7010087057502 -6.355173491357595 0.0 0.0
-1721.475206041933 -774.2796900440278 -1236.0103673946148 -7.699657737110973 0.0 0.0
-1947.2775842967665 -960.9492286424301 -1441.8323053356053 -8.591926596026465 0.0 0.0
-2178.881986317096 -1156.5980112660209 -1655.138413226374 -9.288620436306703 0.0 0.0
-2399.1237427381784 -1343.9933267357992 -1858.747230462911 -9.583642593663836 0.0 0.0
-2584.6096848181705 -1499.9969818188483 -2029.4201577189003 -9.17649994875718 0.0 0.0
-2708.5386623810978 -1598.4879534920199 -2140.631059387237 -7.715964365801529 0.0 0.0
-2761.3242286175755 -1630.6669165166434 -2182.7261085711116 -6.383973913316655 0.0 0.0
-2826.6719616223395 -1681.6122386779755 -2239.4407523884242 -13.393284626625091 0.0 0.0
-2921.545541803107 -1775.1291402125182 -2331.2736428725743 -40.4727645924256 0.0 0.0
-6459.78082376195 -5339.491010153167 -5875.824826049384 -1.0960832241835305e-10 0.0 0.0
-2921.5455418036845 -1775.1291402131224 -2331.27364287287 40.472764592366545 0.0 0.0
-2826.6719616213572 -1681.6122386770983 -2239.4407523874884 13.393284626693422 0.0 0.0
-2761.3242286152354 -1630.666916514356 -2182.726108569291 6.383973913292717 0.0 0.0
-2708.5386623798895 -1598.487953490958 -2140.6310593862445 7.715964365867443 0.0 0.0
-2584.6096848169864 -1499.996981817811 -2029.420157717761 9.176499948833026 0.0 0.0
-2399.123742737678 -1343.9933267354716 -1858.747230462169 9.58364259373927 0.0 0.0
-2178.88198631427 -1156.5980112633767 -1655.138413224204 9.288620436273728 0.0 0.0
-1947.2775842948995 -960.9492286407645 -1441.8323053341335 8.591926595948834 0.0 0.0
-1721.4752060427047 -774.2796900450742 -1236.0103673948822 7.69965773712191 0.0 0.0
-1512.519468231766 -607.7968280208859 -1048.7010087052065 6.355173491208994 0.0 0.0
-1326.862580889726 -469.28226466728023 -886.8559122141238 4.628016505192903 0.0 0.0
-1164.2345113842698 -358.16153714026154 -749.6103921162053 2.770993373222641 0.0 0.0
-1018.5617189074844 -268.6464055498253 -629.5521213291246 1.0322591289522691 0.0 0.0
-881.0460108714346 -193.27779991803527 -512.4518933141521 -0.5067504251606785 0.0 0.0
-751.2808093698627 -133.13408515277268 -386.9018408974378 -1.4376295328702184 0.0 0.0
-605.9412343501149 -80.32365950160117 -247.57348372667758 -0.4930978360872942 0.0 0.0
-408.40204525325623 -27.37593793084792 -133.37449959582568 7.412301243139844 0.0 0.0
-210.08723031164288 -3.3813729754900415 -64.04058098613987 11.263094082333808 0.0 0.0
-74.11238419618603 -9.869851097742304 -25.19467058817849 10.037626372225555 0.0 0.0
-21.999116156970118 -5.786442971919429 -8.335667738666864 8.655375818521518 0.0 0.0
SCALARS Strain float 6
LOOKUP_TABLE default
0.01512076357185934 -0.02501009151135479 0.0 -0.001566562292525176 0.0 0.0
0.009298059584085675 -0.002886569112729786 0.0 -0.007560551374287341 0.0 0.0
0.0027355192852898474 -0.0006298899700406557 0.0 -0.0009307509976586252 0.0 0.0
0.002310112938284114 -0.0009169958094995749 0.0 2.0928200338286318e-05 0.0 0.0
0.0034949174706149083 -0.0015580436161458282 0.0 0.00021911163151734268 0.0 0.0
0.006092953473060594 -0.0035405834542696782 0.0 0.0003929079866312505 0.0 0.0
0.010606836087768641 -0.007428102123076416 0.0 0.000518196973950999 0.0 0.0
0.017428479682676502 -0.013596863896447025 0.0 0.0005593288987053226 0.0 0.0
0.02686061571163132 -0.02231674751297439 0.0 0.0005122593567249696 0.0 0.0
0.039007032428882676 -0.03363537372003883 0.0 0.00034338941699278653 0.0 0.0
0.053768285700592236 -0.04741795070597854 0.0 8.474858823771033e-05 0.0 0.0
0.07092375897368079 -0.06344232151683842 0.0 -0.00025087870373043716 0.0 0.0
0.09020242149166684 -0.08147462103126409 0.0 -0.0006771358714190551 0.0 0.0
0.11131357837291794 -0.10127000499810773 0.0 -0.0011484967450991687 0.0 0.0
0.1338722951305941 -0.1225020514740246 0.0 -0.00168774836187088 0.0 0.0
0.157254556505897 -0.14461385280405858 0.0 -0.002266331791228809 0.0 0.0
0.18050486761518122 -0.16671921785562055 0.0 -0.002765397589141499 0.0 0.0
0.2023398664941773 -0.18760294741383815 0.0 -0.002997531159717653 0.0 0.0
0.2212716991067003 -0.2057850922595857 0.0 -0.0028160652745723236 0.0 0.0
0.2354576677806378 -0.21950915018714556 0.0 -0.0033603142039459544 0.0 0.0
0.24109645369665522 -0.22520302031684736 0.0 3.6203678943635964e-15 0.0 0.0
0.23545766778060567 -0.21950915018711964 0.0 0.0033603142039591843 0.0 0.0
0.2212716991066337 -0.20578509225952424 0.0 0.002816065274579985 0.0 0.0
0.20233986649408134 -0.18760294741373773 0.0 0.0029975311597230173 0.0 0.0
0.18050486761506904 -0.16671921785552468 0.0 0.002765397589139131 0.0 0.0
0.15725455650577913 -0.14461385280395395 0.0 0.0022663317912229204 0.0 0.0
0.13387229513047527 -0.12250205147390678 0.0 0.001687748361870297 0.0 0.0
0.1113135783728009 -0.10127000499800282 0.0 0.0011484967451029686 0.0 0.0
0.09020242149155355 -0.08147462103115635 0.0 0.0006771358714137985 0.0 0.0
0.0709237589735756 -0.06344232151673854 0.0 0.00025087870372404123 0.0 0.0
0.053768285700500976 -0.04741795070589417 0.0 -8.47485882408132e-05 0.0 0.0
0.03900703242880913 -0.03363537371997164 0.0 -0.0003433894169953388 0.0 0.0
0.026860615711575428 -0.022316747512924045 0.0 -0.0005122593567262509 0.0 0.0
0.01742847968263682 -0.013596863896417056 0.0 -0.0005593288987058514 0.0 0.0
0.010606836087743488 -0.007428102123057905 0.0 -0.0005181969739508469 0.0 0.0
0.006092953473046265 -0.003540583454258858 0.0 -0.0003929079866307541 0.0 0.0
0.003494917470608483 -0.0015580436161436834 0.0 -0.00021911163151761318 0.0 0.0
0.002310112938282478 -0.0009169958094997076 0.0 -2.092820033485069e-05 0.0 0.0
0.0027355192852873615 -0.0006298899700409211 0.0 0.0009307509976541303 0.0 0.0
0.00929805958407923 -0.002886569112725585 0.0 0.007560551374281266 0.0 0.0
0.015120763571850876 -0.02501009151132968 0.0 0.001566562292476433 0.0 0.0
0.010637657007928323 -0.02246624402584145 0.0 -0.0010988293626199039 0.0 0.0
0.006218606686999779 -0.002164268891023454 0.0 -0.006220177596759625 0.0 0.0
0.0017818002308913699 -0.0004741495175344631 0.0 -0.0005861154989805189 0.0 0.0
0.0020279534409594607 -0.0008612009279614743 0.0 -0.00018706871962358303 0.0 0.0
0.0029949285567922256 -0.0013951885716066447 0.0 -0.00014739480331371984 0.0 0.0
0.00520681157248496 -0.003170902350925014 0.0 -0.0002445666249477165 0.0 0.0
0.009223703960549926 -0.006794258494382009 0.0 -0.0005854563773634719 0.0 0.0
0.015412255928731793 -0.012638708101963401 0.0 -0.0011332754888735848 0.0 0.0
0.024015445770215697 -0.020941667289279486 0.0 -0.0019084604136589763 0.0 0.0
0.03506790287708295 -0.03171541771641946 0.0 -0.0028793485855634075 0.0 0.0
0.04843454952492574 -0.044806682139427984 0.0 -0.003951721407418237 0.0 0.0
0.06390870645546265 -0.05999717476658409 0.0 -0.005049100268754538 0.0 0.0
0.08128320706476799 -0.07708052063906572 0.0 -0.006172376467733889 0.0 0.0
0.10032550175553764 -0.09584545991956878 0.0 -0.007322624868373271 0.0 0.0
0.12070076384793052 -0.11598832546125185 0.0 -0.008461155985772534 0.0 0.0
0.14186881627750486 -0.13699531932224368 0.0 -0.009478238755814392 0.0 0.0
0.16299557041609208 -0.15804793375216744 0.0 -0.010115379017426955 0.0 0.0
0.182940435333977 -0.17800188456003455 0.0 -0.010030700704858982 0.0 0.0
0.20021516218680097 -0.19540038840129612 0.0 -0.0090807053070083 0.0 0.0
0.21261473688197424 -0.20829327393233057 0.0 -0.008142865307628797 0.0 0.0
0.2172555342955621 -0.2136925917832748 0.0 7.956309222567626e-15 0.0 0.0
0.21261473688194385 -0.20829327393230215 0.0 0.008142865307653825 0.0 0.0
0.20021516218674112 -0.19540038840123963 0.0 0.009080705307033081 0.0 0.0
0.1829404353338932 -0.17800188455994428 0.0 0.010030700704872927 0.0 0.0
0.16299557041599336 -0.15804793375207318 0.0 0.010115379017427348 0.0 0.0
0.14186881627739933 -0.13699531932214135 0.0 0.009478238755808551 0.0 0.0
0.12070076384782319 -0.11598832546114482 0.0 0.008461155985770918 0.0 0.0
0.10032550175543191 -0.09584545991947384 0.0 0.00732262486837268 0.0 0.0
0.08128320706466582 -0.077080520638962 0.0 0.006172376467724885 0.0 0.0
0.06390870645536817 -0.05999717476649005 0.0 0.005049100268747322 0.0 0.0
0.048434549524843544 -0.04480668213934573 0.0 0.00395172140741051 0.0 0.0
0.03506790287701608 -0.03171541771635883 0.0 0.0028793485855543068 0.0 0.0
0.024015445770164894 -0.02094166728923009 0.0 0.001908460413653839 0.0 0.0
0.015412255928695929 -0.012638708101929064 0.0 0.0011332754888709923 0.0 0.0
0.009223703960526929 -0.006794258494364503 0.0 0.0005854563773617638 0.0 0.0
0.005206811572472372 -0.0031709023509156886 0.0 0.0002445666249472127 0.0 0.0
0.002994928556787566 -0.0013951885716052207 0.0 0.0001473948033136863 0.0 0.0
0.0020279534409584467 -0.0008612009279618493 0.0 0.00018706871962506449 0.0 0.0
0.001781800230890784 -0.00047414951753416005 0.0 0.000586115498979599 0.0 0.0
0.006218606686992565 -0.002164268891019533 0.0 0.006220177596749902 0.0 0.0
0.010637657007914235 -0.022466244025814767 0.0 0.0010988293625815515 0.0 0.0
0.00783254857130463 -0.017981797005383167 0.0 -0.004221626122451832 0.0 0.0
0.0044295504162952274 -0.001213143977188942 0.0 -0.0063303590232464835 0.0 0.0
0.0012318746017272626 -0.00024603280965272586 0.0 -0.0005198394690851248 0.0 0.0
0.0017115447398825256 -0.0007257439788366446 0.0 -0.000479046099507282 0.0 0.0
0.0025420047469662493 -0.0011124815443074741 0.0 -0.0004980086433935722 0.0 0.0
0.004368654592707484 -0.002474350164831707 0.0 -0.0006838862411835435 0.0 0.0
0.007858620229423855 -0.005548357267137266 0.0 -0.0013363772082125528 0.0 0.0
0.013378710238189201 -0.010727147287018395 0.0 -0.002393562243200852 0.0 0.0
0.02110688485640308 -0.01817242674009255 0.0 -0.0038704141450649297 0.0 0.0
0.031030099455627624 -0.027840537707977217 0.0 -0.005672553998039512 0.0 0.0
0.04298680080652587 -0.0395409811611598 0.0 -0.007628321928321569 0.0 0.0
0.056779609277219874 -0.05306479275276128 0.0 -0.00958719856564932 0.0 0.0
0.07223785225197794 -0.06824829449706848 0.0 -0.011523676733266493 0.0 0.0
0.08919026351640684 -0.08493995459486468 0.0 -0.013489744297858567 0.0 0.0
0.10736946710302787 -0.10289587871187457 0.0 -0.015439808050779123 0.0 0.0
0.12632784656063656 -0.12169233649416045 0.0 -0.01715846640359029 0.0 0.0
0.14536997969756307 -0.14064895029548488 0.0 -0.018233610310195176 0.0 0.0
0.16346599915284962 -0.15875858945659713 0.0 -0.018167178553191856 0.0 0.0
0.17910728155393263 -0.17458900042657688 0.0 -0.01670644001149982 0.0 0.0
0.19034089715475447 -0.18611678402811083 0.0 -0.013946875634857192 0.0 0.0
0.19459226994273232 -0.1912466399737453 0.0 1.718417075302625e-14 0.0 0.0
0.190340897154727 -0.18611678402807827 0.0 0.013946875634898354 0.0 0.0
0.1791072815538791 -0.17458900042653075 0.0 0.01670644001154492 0.0 0.0
0.16346599915277624 -0.1587585894565199 0.0 0.018167178553216964 0.0 0.0
0.14536997969747625 -0.1406489502954034 0.0 0.01823361031019792 0.0 0.0
0.12632784656054286 -0.12169233649406772 0.0 0.017158466403583386 0.0 0.0
0.10736946710293217 -0.10289587871178284 0.0 0.015439808050772892 0.0 0.0
0.08919026351631322 -0.08493995459477183 0.0 0.013489744297855707 0.0 0.0
0.07223785225188852 -0.06824829449698044 0.0 0.011523676733255866 0.0 0.0
0.05677960927713661 -0.05306479275267901 0.0 0.00958719856563684 0.0 0.0
0.0429868008064524 -0.03954098116108687 0.0 0.007628321928305941 0.0 0.0
0.03103009945556779 -0.02784053770792387 0.0 0.005672553998027309 0.0 0.0
0.021106884856357745 -0.018172426740051435 0.0 0.003870414145055688 0.0 0.0
0.013378710238156904 -0.010727147286983735 0.0 0.0023935622431930184 0.0 0.0
0.007858620229404333 -0.005548357267121369 0.0 0.0013363772082075178 0.0 0.0
0.004368654592697617 -0.0024743501648236727 0.0 0.0006838862411808113 0.0 0.0
0.0025420047469622157 -0.0011124815443080299 0.0 0.0004980086433953438 0.0 0.0
0.0017115447398817374 -0.0007257439788369572 0.0 0.00047904609950494086 0.0 0.0
0.0012318746017272485 -0.00024603280965309704 0.0 0.0005198394690848449 0.0 0.0
0.004429550416288048 -0.0012131439771854435 0.0 0.006330359023230314 0.0 0.0
0.007832548571290262 -0.017981797005356286 0.0 0.004221626122426671 0.0 0.0
0.005940553940716229 -0.014513020175785922 0.0 -0.004662249555140699 0.0 0.0
0.0032824998766138643 -0.0008731682432161195 0.0 -0.005780044278640749 0.0 0.0
0.0008738913070213453 -0.00013652596727614286 0.0 -0.0008000793396547547 0.0 0.0
0.0014074245820656095 -0.0005728259408075834 0.0 -0.0007769995008503409 0.0 0.0
0.0021306226764487343 -0.0008961885980486954 0.0 -0.0008302894972437349 0.0 0.0
0.003597545815025245 -0.0018825789731854864 0.0 -0.0010540199894847559 0.0 0.0
0.006535186657097279 -0.004366675549282537 0.0 -0.0018424440370244945 0.0 0.0
0.011348340082399759 -0.008835534015144447 0.0 -0.0033066024106925738 0.0 0.0
0.01816669319755603 -0.015383871335089526 0.0 -0.005312248667615978 0.0 0.0
0.0269323599845227 -0.023915275638900106 0.0 -0.007739817222512321 0.0 0.0
0.037462534539964586 -0.034210318339201976 0.0 -0.010352218764139935 0.0 0.0
0.049568141839131 -0.04606430509462258 0.0 -0.012962175897774202 0.0 0.0
0.0631081691834197 -0.05934473095678795 0.0 -0.015535283084781987 0.0 0.0
0.07795431720461744 -0.0739480693914733 0.0 -0.01811386609362936 0.0 0.0
0.09391696723449865 -0.08969827097723695 0.0 -0.020653759697273403 0.0 0.0
0.11065934167737963 -0.106273531764157 0.0 -0.02291924376813446 0.0 0.0
0.12761340072002406 -0.12313344864015416 0.0 -0.02443002478375124 0.0 0.0
0.14386633401801466 -0.13940489228073658 0.0 -0.024582429058690312 0.0 0.0
0.15805659413344744 -0.1537445310654363 0.0 -0.022760297997101296 0.0 0.0
0.16850825693311303 -0.1643883653836913 0.0 -0.018041677029313172 0.0 0.0
0.17258045078608705 -0.1696879253932356 0.0 2.6302744704498338e-14 0.0 0.0
0.16850825693308763 -0.16438836538366286 0.0 0.018041677029365197 0.0 0.0
0.1580565941333998 -0.15374453106540187 0.0 0.02276029799715551 0.0 0.0
0.1438663340179498 -0.13940489228067182 0.0 0.024582429058723335 0.0 0.0
0.12761340071994867 -0.12313344864008588 0.0 0.024430024783754008 0.0 0.0
0.11065934167729766 -0.1062735317640762 0.0 0.022919243768124643 0.0 0.0
0.09391696723441462 -0.08969827097715488 0.0 0.02065375969726643 0.0 0.0
0.0779543172045348 -0.07394806939138715 0.0 0.01811386609362267 0.0 0.0
0.06310816918334074 -0.05934473095671104 0.0 0.015535283084769546 0.0 0.0
0.049568141839058014 -0.04606430509454931 0.0 0.012962175897755349 0.0 0.0
0.03746253453990008 -0.034210318339138374 0.0 0.010352218764119148 0.0 0.0
0.026932359984470047 -0.02391527563884932 0.0 0.007739817222497289 0.0 0.0
0.018166693197516022 -0.015383871335053981 0.0 0.005312248667601588 0.0 0.0
0.011348340082371912 -0.008835534015117757 0.0 0.0033066024106830766 0.0 0.0
0.006535186657080506 -0.004366675549268411 0.0 0.0018424440370182473 0.0 0.0
0.00359754581501729 -0.0018825789731799973 0.0 0.0010540199894801107 0.0 0.0
0.002130622676446172 -0.0008961885980503259 0.0 0.0008302894972445096 0.0 0.0
0.0014074245820651355 -0.0005728259408080816 0.0 0.000776999500848164 0.0 0.0
0.000873891307021276 -0.00013652596727716803 0.0 0.0008000793396531568 0.0 0.0
0.0032824998766071527 -0.0008731682432125035 0.0 0.005780044278625636 0.0 0.0
0.005940553940702832 -0.014513020175761665 0.0 0.004662249555124469 0.0 0.0
0.004521303058651917 -0.011717113638339622 0.0 -0.004137180777974873 0.0 0.0
0.002464024465093631 -0.0006910871488991609 0.0 -0.0051524408130259386 0.0 0.0
0.0006333522014772696 -8.58093190748515e-05 0.0 -0.001198206441580819 0.0 0.0
0.0011354942146885685 -0.00043507688065440786 0.0 -0.0011004640341329532 0.0 0.0
0.001757300564251137 -0.0007217299143720956 0.0 -0.0011582438058634198 0.0 0.0
0.0029073444044336876 -0.0014096796930093275 0.0 -0.0013743525256692236 0.0 0.0
0.005281198091141438 -0.0032968735357102306 0.0 -0.0021785036396264734 0.0 0.0
0.009346027726301422 -0.0069912703864016094 0.0 -0.003834956132039097 0.0 0.0
0.015227898881649157 -0.01261065712166249 0.0 -0.006224797137733461 0.0 0.0
0.022810918245670282 -0.01997961223470795 0.0 -0.009076275798071617 0.0 0.0
0.031900836596619866 -0.028855016537553367 0.0 -0.01213041745438739 0.0 0.0
0.042310538940509915 -0.03903256604937287 0.0 -0.015177567408731687 0.0 0.0
0.05392500854316087 -0.05040588156758004 0.0 -0.018185231277492896 0.0 0.0
0.06666435063985707 -0.06291565435932168 0.0 -0.021190435085410634 0.0 0.0
0.0803982910892462 -0.07644872647921502 0.0 -0.024123757686366085 0.0 0.0
0.09489024304311688 -0.09077778650816368 0.0 -0.02674802550759568 0.0 0.0
0.10971909710378439 -0.10550033611688545 0.0 -0.02863707105639599 0.0 0.0
0.12414414143114735 -0.11991345221294489 0.0 -0.029123795247392722 0.0 0.0
0.13702594249770683 -0.13289587985901063 0.0 -0.027122180894144254 0.0 0.0
0.14693413754067722 -0.14295121539522804 0.0 -0.021129149916021665 0.0 0.0
0.15095528710625916 -0.14862698934295937 0.0 2.937580734219125e-14 0.0 0.0
0.14693413754065418 -0.14295121539520222 0.0 0.02112914991608251 0.0 0.0
0.13702594249766506 -0.1328958798589697 0.0 0.027122180894202444 0.0 0.0
0.12414414143109129 -0.11991345221289573 0.0 0.029123795247432124 0.0 0.0
0.10971909710371953 -0.10550033611681771 0.0 0.02863707105640323 0.0 0.0
0.09489024304304629 -0.09077778650808806 0.0 0.02674802550758333 0.0 0.0
0.08039829108917391 -0.07644872647913803 0.0 0.02412375768635527 0.0 0.0
0.06666435063978672 -0.06291565435925832 0.0 0.021190435085400836 0.0 0.0
0.05392500854309334 -0.05040588156750901 0.0 0.01818523127747986 0.0 0.0
0.04231053894044756 -0.0390325660493082 0.0 0.015177567408710138 0.0 0.0
0.03190083659656564 -0.028855016537496246 0.0 0.012130417454361993 0.0 0.0
0.022810918245624832 -0.01997961223466169 0.0 0.009076275798054112 0.0 0.0
0.01522789888161423 -0.012610657121633518 0.0 0.006224797137719445 0.0 0.0
0.009346027726277606 -0.0069912703863781065 0.0 0.003834956132028111 0.0 0.0
0.005281198091127755 -0.0032968735356994454 0.0 0.002178503639620319 0.0 0.0
0.0029073444044281187 -0.0014096796930058264 0.0 0.001374352525665589 0.0 0.0
0.0017573005642492893 -0.0007217299143750637 0.0 0.001158243805861444 0.0 0.0
0.0011354942146882623 -0.0004350768806543643 0.0 0.0011004640341335961 0.0 0.0
0.0006333522014773472 -8.580931907567493e-05 0.0 0.0011982064415796165 0.0 0.0
0.002464024465087969 -0.0006910871488963334 0.0 0.005152440813013375 0.0 0.0
0.004521303058640951 -0.01171711363831836 0.0 0.004137180777964153 0.0 0.0
0.003403088513454734 -0.00938071162217464 0.0 -0.003420117586253368 0.0 0.0
0.0018419000846554776 -0.0005651397484924675 0.0 -0.004542026903733526 0.0 0.0
0.0004621581493949705 -7.047906637773331e-05 0.0 -0.0015803455723869975 0.0 0.0
0.0008920596341023932 -0.00031358796662412443 0.0 -0.0014251549524383802 0.0 0.0
0.0014184812286690798 -0.0005766323978581724 0.0 -0.001483875819696366 0.0 0.0
0.002295507365928394 -0.0010428540302163533 0.0 -0.0016596543891389235 0.0 0.0
0.004130606754717359 -0.0023804738436676827 0.0 -0.0024186768473778092 0.0 0.0
0.007414284257116266 -0.005254435621439513 0.0 -0.004043283203040246 0.0 0.0
0.012315436848241724 -0.00988787938469535 0.0 -0.006583265784648523 0.0 0.0
0.018701719448110946 -0.01607296990530398 0.0 -0.0096737892887768 0.0 0.0
0.026338105645083085 -0.02351547073492583 0.0 -0.012957553732216557 0.0 0.0
0.035046133395829696 -0.032010899439997575 0.0 -0.01623259134527678 0.0 0.0
0.04473174627863274 -0.0414736747766704 0.0 -0.019462267534694124 0.0 0.0
0.05535514001059671 -0.05188591145272616 0.0 -0.02268532490765129 0.0 0.0
0.06685355589460797 -0.06319509845521105 0.0 -0.025831484766156227 0.0 0.0
0.07907035793359439 -0.0752529891552453 0.0 -0.028654415351669144 0.0 0.0
0.0917129606740548 -0.0877767264180275 0.0 -0.030790822629736467 0.0 0.0
0.10427991970458989 -0.10028444901360001 0.0 -0.031618758481899024 0.0 0.0
0.11592488117726035 -0.11197305496186223 0.0 -0.029810420685672225 0.0 0.0
0.125444245135979 -0.12161654205308345 0.0 -0.02336555142220692 0.0 0.0
0.1295035801262213 -0.12783269585592655 0.0 2.990229591715021e-14 0.0 0.0
0.1254442451359578 -0.12161654205306152 0.0 0.023365551422272042 0.0 0.0
0.11592488117722463 -0.11197305496182046 0.0 0.029810420685735618 0.0 0.0
0.10427991970454316 -0.1002844490135542 0.0 0.03161875848194201 0.0 0.0
0.09171296067399905 -0.0877767264179683 0.0 0.03079082262974362 0.0 0.0
0.07907035793353456 -0.07525298915518208 0.0 0.028654415351656526 0.0 0.0
0.06685355589454786 -0.06319509845514994 0.0 0.025831484766141905 0.0 0.0
0.05535514001053824 -0.05188591145266972 0.0 0.022685324907640244 0.0 0.0
0.044731746278576866 -0.041473674776615684 0.0 0.019462267534678925 0.0 0.0
0.03504613339577775 -0.032010899439943494 0.0 0.01623259134525448 0.0 0.0
0.02633810564503769 -0.02351547073487716 0.0 0.012957553732188114 0.0 0.0
0.018701719448073275 -0.01607296990526474 0.0 0.009673789288752607 0.0 0.0
0.012315436848213077 -0.009887879384669052 0.0 0.0065832657846330005 0.0 0.0
0.007414284257097477 -0.005254435621420787 0.0 0.004043283203029317 0.0 0.0
0.00413060675470659 -0.002380473843657824 0.0 0.002418676847372794 0.0 0.0
0.002295507365924057 -0.001042854030214006 0.0 0.0016596543891361478 0.0 0.0
0.0014184812286681242 -0.0005766323978588768 0.0 0.0014838758196946981 0.0 0.0
0.0008920596341021623 -0.0003135879666238954 0.0 0.0014251549524378197 0.0 0.0
0.00046215814939505454 -7.047906637827771e-05 0.0 0.001580345572384694 0.0 0.0
0.0018419000846512175 -0.0005651397484910119 0.0 0.0045420269037227505 0.0 0.0
0.003403088513446217 -0.009380711622157067 0.0 0.0034201175862455763 0.0 0.0
0.0025105938314614086 -0.007403864798656904 0.0 -0.0027591117541676596 0.0 0.0
0.0013551516329020615 -0.0004671473597902241 0.0 -0.003988503618797708 0.0 0.0
0.00032998815176347063 -6.94714855120539e-05 0.0 -0.0018961395160349073 0.0 0.0
0.0006680269846018242 -0.00020595232273418247 0.0 -0.0017246910297026633 0.0 0.0
0.001104428083646935 -0.00044404311510664934 0.0 -0.0017876810199617204 0.0 0.0
0.0017533093367494974 -0.0007639322810914462 0.0 -0.0019396884825537701 0.0 0.0
0.0030921793524743136 -0.0016307631065264779 0.0 -0.0025638576120951477 0.0 0.0
0.005602571084925878 -0.003695608517958247 0.0 -0.004042099445913582 0.0 0.0
0.00948275107778645 -0.007279458691979197 0.0 -0.006435191831403381 0.0 0.0
0.014637195820849633 -0.012238668443452115 0.0 -0.009507813137318187 0.0 0.0
0.020812418142288635 -0.01823430206811299 0.0 -0.012816695928545133 0.0 0.0
0.02781293963929625 -0.025042441330189322 0.0 -0.016115173944946312 0.0 0.0
0.035567652735314245 -0.03259548515042647 0.0 -0.019354721114604904 0.0 0.0
0.0440744428484955 -0.04090783723456233 0.0 -0.022582481991313873 0.0 0.0
0.05332423467846365 -0.04998341290801685 0.0 -0.02574113887454112 0.0 0.0
0.0632364671785679 -0.059749148379218325 0.0 -0.02860517883962758 0.0 0.0
0.07363942093161574 -0.07001700915117175 0.0 -0.03082912634974598 0.0 0.0
0.08426883359114218 -0.0805279469186772 0.0 -0.03195341615213854 0.0 0.0
0.09464369005792424 -0.09087709728300336 0.0 -0.03071842970970879 0.0 0.0
0.10385004839984986 -0.10018653375634723 0.0 -0.024735992520238958 0.0 0.0
0.10801385278073884 -0.10709554627998878 0.0 2.881028748902281e-14 0.0 0.0
0.10385004839983167 -0.10018653375633614 0.0 0.02473599252030565 0.0 0.0
0.09464369005789498 -0.09087709728297008 0.0 0.030718429709774814 0.0 0.0
0.08426883359110351 -0.08052794691863338 0.0 0.03195341615217772 0.0 0.0
0.07363942093157005 -0.07001700915112871 0.0 0.030829126349750498 0.0 0.0
0.06323646717851937 -0.059749148379169253 0.0 0.028605178839617405 0.0 0.0
0.053324234678415294 -0.04998341290797078 0.0 0.025741138874526167 0.0 0.0
0.04407444284844964 -0.04090783723451297 0.0 0.022582481991305452 0.0 0.0
0.035567652735270225 -0.03259548515038764 0.0 0.019354721114590186 0.0 0.0
0.02781293963925472 -0.02504244133014805 0.0 0.01611517394492253 0.0 0.0
0.020812418142252237 -0.01823430206807744 0.0 0.01281669592852087 0.0 0.0
0.014637195820819737 -0.012238668443425374 0.0 0.009507813137294667 0.0 0.0
0.009482751077763992 -0.007279458691952945 0.0 0.006435191831387802 0.0 0.0
0.005602571084911553 -0.003695608517946241 0.0 0.004042099445902062 0.0 0.0
0.003092179352466824 -0.0016307631065202305 0.0 0.0025638576120887322 0.0 0.0
0.0017533093367465649 -0.0007639322810905232 0.0 0.001939688482550632 0.0 0.0
0.001104428083646077 -0.00044404311510383014 0.0 0.0017876810199593807 0.0 0.0
0.000668026984601435 -0.0002059523227339862 0.0 0.0017246910297008659 0.0 0.0
0.00032998815176316977 -6.947148551263895e-05 0.0 0.0018961395160327632 0.0 0.0
0.001355151632898619 -0.0004671473597882946 0.0 0.003988503618789826 0.0 0.0
0.002510593831454754 -0.007403864798642868 0.0 0.0027591117541613465 0.0 0.0
0.0017986710703495148 -0.005737643295610638 0.0 -0.002239559133313853 0.0 0.0
0.0009685242659753478 -0.0003920682915782472 0.0 -0.003489914693587601 0.0 0.0
0.00021690806227384667 -6.678120438528368e-05 0.0 -0.002135199767957065 0.0 0.0
0.0004551197665692172 -0.00010970225577823872 0.0 -0.0019810317005425435 0.0 0.0
0.0008021680477063321 -0.00030985885383761393 0.0 -0.002047452771613891 0.0 0.0
0.0012721344477156877 -0.0005455679806544793 0.0 -0.002218619619816484 0.0 0.0
0.0021720477690410286 -0.0010510226442002606 0.0 -0.0026640478021935188 0.0 0.0
0.0039369027948225905 -0.0023644046922574277 0.0 -0.0038515438404321135 0.0 0.0
0.006790593605659332 -0.004875626931125771 0.0 -0.005889378056471837 0.0 0.0
0.010672070169753974 -0.008548564826841364 0.0 -0.008617800686562802 0.0 0.0
0.01535782274417961 -0.013063555852344668 0.0 -0.01168881704366202 0.0 0.0
0.02064938976666713 -0.01817788555630676 0.0 -0.014790200545120601 0.0 0.0
0.026476914508722922 -0.023824724601497097 0.0 -0.01783467540253828 0.0 0.0
0.03286224408442229 -0.03003774603829301 0.0 -0.020853882447664188 0.0 0.0
0.03985263071595273 -0.03686837950907752 0.0 -0.023827838282700468 0.0 0.0
0.047441729548255276 -0.04432015313489825 0.0 -0.02656513124957722 0.0 0.0
0.05554532252122074 -0.05229360772474552 0.0 -0.028722570500806635 0.0 0.0
0.0641112465844318 -0.06068515441225254 0.0 -0.029974873165263084 0.0 0.0
0.07307781981809464 -0.06951513946876446 0.0 -0.029584184056821956 0.0 0.0
0.08194603972776673 -0.07843989225531621 0.0 -0.02508405439979756 0.0 0.0
0.086247675656705 -0.08619179028625082 0.0 2.2403086330502475e-14 0.0 0.0
0.08194603972775333 -0.07843989225530625 0.0 0.02508405439985558 0.0 0.0
0.07307781981807142 -0.06951513946873115 0.0 0.02958418405688773 0.0 0.0
0.06411124658440114 -0.06068515441222193 0.0 0.02997487316529935 0.0 0.0
0.055545322521185665 -0.05229360772471453 0.0 0.02872257050080905 0.0 0.0
0.0474417295482182 -0.0443201531348589 0.0 0.02656513124956427 0.0 0.0
0.039852630715916514 -0.036868379509042704 0.0 0.023827838282685847 0.0 0.0
0.032862244084388745 -0.03003774603825686 0.0 0.02085388244765312 0.0 0.0
0.02647691450868949 -0.02382472460146339 0.0 0.017834675402522638 0.0 0.0
0.020649389766636696 -0.018177885556277626 0.0 0.01479020054510084 0.0 0.0
0.015357822744153045 -0.013063555852322078 0.0 0.011688817043639168 0.0 0.0
0.0106720701697317 -0.008548564826828963 0.0 0.008617800686542335 0.0 0.0
0.006790593605643286 -0.004875626931108312 0.0 0.0058893780564601705 0.0 0.0
0.0039369027948125065 -0.0023644046922498916 0.0 0.0038515438404224563 0.0 0.0
0.0021720477690362265 -0.001051022644196911 0.0 0.0026640478021888957 0.0 0.0
0.0012721344477142301 -0.0005455679806536944 0.0 0.0022186196198132947 0.0 0.0
0.0008021680477060929 -0.0003098588538357752 0.0 0.002047452771612308 0.0 0.0
0.00045511976656914814 -0.00010970225577710269 0.0 0.001981031700539376 0.0 0.0
0.00021690806227386088 -6.67812043854571e-05 0.0 0.0021351997679564046 0.0 0.0
0.0009685242659731347 -0.0003920682915777257 0.0 0.0034899146935812577 0.0 0.0
0.0017986710703447564 -0.005737643295599391 0.0 0.002239559133309061 0.0 0.0
0.0012530416784479184 -0.004371246829431128 0.0 -0.0018915532892172342 0.0 0.0
0.0006631906286255399 -0.00034145256585034093 0.0 -0.003046243611223558 0.0 0.0
0.00010643717140857478 -5.0802429057892296e-05 0.0 -0.0023014273531769026 0.0 0.0
0.0002495775026418035 -2.2235978791342813e-05 0.0 -0.002183669296790453 0.0 0.0
0.000501542755013506 -0.0001709514333188108 0.0 -0.002250180745547574 0.0 0.0
0.0008271817857476247 -0.00035097799604503826 0.0 -0.0024678742818749384 0.0 0.0
0.001369710236755482 -0.0006265275789321952 0.0 -0.0027975646812886624 0.0 0.0
0.002444640594837437 -0.0013100874748723712 0.0 -0.0035513364837514035 0.0 0.0
0.0042852998207429166 -0.0027794268631557723 0.0 -0.00502383762208658 0.0 0.0
0.006873480196200919 -0.005118986379349179 0.0 -0.007113381639227247 0.0 0.0
0.01003349646907896 -0.008098315520787996 0.0 -0.009618471290580301 0.0 0.0
0.013596405637585279 -0.011495682152921722 0.0 -0.012248344691252232 0.0 0.0
0.01749673138462976 -0.015233011647071443 0.0 -0.014894537306472886 0.0 0.0
0.021764543347476684 -0.01935181544150688 0.0 -0.017521957462431383 0.0 0.0
0.026479992958555673 -0.02392601411198221 0.0 -0.020111916526653617 0.0 0.0
0.03171993568756258 -0.02903270425563491 0.0 -0.022576954257474285 0.0 0.0
0.03750005080612537 -0.034686694907980674 0.0 -0.024619288601757116 0.0 0.0
0.04386300864475494 -0.04087401065336878 0.0 -0.025836888621483235 0.0 0.0
0.05113073809865681 -0.047872001917805385 0.0 -0.026046393223692975 0.0 0.0
0.059480738424453616 -0.05611827605511112 0.0 -0.023968008121637897 0.0 0.0
0.06390436381938804 -0.06483455315429403 0.0 2.454113301464389e-14 0.0 0.0
0.059480738424444374 -0.056118276055099885 0.0 0.023968008121693203 0.0 0.0
0.05113073809864104 -0.04787200191778979 0.0 0.026046393223753357 0.0 0.0
0.04386300864473258 -0.04087401065334981 0.0 0.02583688862151278 0.0 0.0
0.037500050806100506 -0.03468669490796241 0.0 0.024619288601757564 0.0 0.0
0.031719935687537754 -0.029032704255611955 0.0 0.02257695425745862 0.0 0.0
0.026479992958531946 -0.023926014111957095 0.0 0.0201119165266434 0.0 0.0
0.021764543347455534 -0.0193518154414807 0.0 0.0175219574624218 0.0 0.0
0.017496731384609488 -0.01523301164704775 0.0 0.014894537306461935 0.0 0.0
0.013596405637565846 -0.011495682152901412 0.0 0.012248344691235109 0.0 0.0
0.010033496469060862 -0.008098315520773927 0.0 0.009618471290559419 0.0 0.0
0.006873480196186629 -0.005118986379340261 0.0 0.007113381639211215 0.0 0.0
0.004285299820733352 -0.0027794268631497177 0.0 0.005023837622077082 0.0 0.0
0.0024446405948318588 -0.001310087474868637 0.0 0.003551336483745571 0.0 0.0
0.0013697102367526497 -0.0006265275789296012 0.0 0.0027975646812847185 0.0 0.0
0.0008271817857464079 -0.00035097799604366523 0.0 0.002467874281871768 0.0 0.0
0.0005015427550130211 -0.00017095143331870524 0.0 0.0022501807455460646 0.0 0.0
0.00024957750264154586 -2.2235978792147203e-05 0.0 0.002183669296787155 0.0 0.0
0.00010643717140844988 -5.080242905761601e-05 0.0 0.0023014273531765423 0.0 0.0
0.0006631906286236433 -0.000341452565851128 0.0 0.0030462436112174756 0.0 0.0
0.0012530416784444533 -0.0043712468294226075 0.0 0.0018915532892154075 0.0 0.0
0.0008591403881618744 -0.003284848117823983 0.0 -0.0016704264833344432 0.0 0.0
0.00042748587003891815 -0.00032004633717233665 0.0 -0.002684390398839136 0.0 0.0
-9.03035972039388e-06 -1.5856449298048228e-05 0.0 -0.002402928878940596 0.0 0.0
4.87664119675067e-05 5.915432844294138e-05 0.0 -0.0023282958988987273 0.0 0.0
0.0001996833674919649 -3.090280509263381e-05 0.0 -0.002394750317809171 0.0 0.0
0.0003923953802714453 -0.00015416057249611733 0.0 -0.0026395663834676087 0.0 0.0
0.0006609410047710246 -0.0002944441672284103 0.0 -0.002959600227486358 0.0 0.0
0.0011436193660930888 -0.0005565220446498659 0.0 -0.003356970930443296 0.0 0.0
0.0020143752867024475 -0.0011475991481639661 0.0 -0.004070592212682075 0.0 0.0
0.0033044610357388675 -0.0021820591254716366 0.0 -0.005274199944860585 0.0 0.0
0.004906466771422988 -0.0035700516620588126 0.0 -0.006951171861904187 0.0 0.0
0.00670754466457896 -0.005199696789155351 0.0 -0.008926394180421626 0.0 0.0
0.008663161942512036 -0.0070096640654090814 0.0 -0.011042095779864855 0.0 0.0
0.010813016956600216 -0.009028568487167233 0.0 -0.013229463407867115 0.0 0.0
0.013242478882370106 -0.01133156586193406 0.0 -0.015471584911742227 0.0 0.0
0.01608841714923847 -0.014045877577652114 0.0 -0.017729080142405235 0.0 0.0
0.019512029076034252 -0.017330682119655466 0.0 -0.01979032940201295 0.0 0.0
0.02364498168413734 -0.021320646424822166 0.0 -0.021124319838869813 0.0 0.0
0.02885956761800672 -0.026252829066416183 0.0 -0.021302546980192946 0.0 0.0
0.03617015408285699 -0.03309010716902236 0.0 -0.020957039203851002 0.0 0.0
0.04052319763569833 -0.04263614085777461 0.0 1.721713049906981e-14 0.0 0.0
0.03617015408285324 -0.03309010716902095 0.0 0.020957039203896133 0.0 0.0
0.028859567617997642 -0.026252829066408877 0.0 0.02130254698023863 0.0 0.0
0.0236449816841234 -0.021320646424814283 0.0 0.021124319838886914 0.0 0.0
0.01951202907602102 -0.01733068211964957 0.0 0.019790329402007818 0.0 0.0
0.016088417149226982 -0.014045877577645985 0.0 0.017729080142391218 0.0 0.0
0.013242478882360126 -0.011331565861917515 0.0 0.015471584911734268 0.0 0.0
0.010813016956592264 -0.009028568487158174 0.0 0.01322946340785977 0.0 0.0
0.00866316194250372 -0.007009664065401635 0.0 0.011042095779856534 0.0 0.0
0.006707544664569978 -0.005199696789149317 0.0 0.008926394180406623 0.0 0.0
0.004906466771415091 -0.003570051662052454 0.0 0.006951171861887748 0.0 0.0
0.0033044610357329616 -0.002182059125463697 0.0 0.005274199944849932 0.0 0.0
0.0020143752866985092 -0.0011475991481617186 0.0 0.004070592212675927 0.0 0.0
0.0011436193660906717 -0.0005565220446464617 0.0 0.0033569709304392065 0.0 0.0
0.000660941004769855 -0.0002944441672291417 0.0 0.002959600227482726 0.0 0.0
0.00039239538027092665 -0.000154160572493669 0.0 0.002639566383465141 0.0 0.0
0.00019968336749170488 -3.090280509341933e-05 0.0 0.0023947503178068322 0.0 0.0
4.876641196747149e-05 5.915432844252701e-05 0.0 0.0023282958988963525 0.0 0.0
-9.030359720670441e-06 -1.585644929857359e-05 0.0 0.0024029288789398913 0.0 0.0
0.0004274858700377603 -0.0003200463371723836 0.0 0.0026843903988358194 0.0 0.0
0.0008591403881601012 -0.0032848481178182946 0.0 0.0016704264833330665 0.0 0.0
0.0005810783636669701 -0.0024568441905878403 0.0 -0.0015428334076672055 0.0 0.0
0.00024578743036445243 -0.00031829107155378894 0.0 -0.0024253281390857156 0.0 0.0
-0.00012777384443300456 3.2795992433219365e-05 0.0 -0.0024476703467569117 0.0 0.0
-0.00014826667535184913 0.00013738173767794654 0.0 -0.0024122137184613038 0.0 0.0
-9.879901860933421e-05 0.00010680008659495521 0.0 -0.0024757244217024723 0.0 0.0
-4.661151868035964e-05 4.810270127175045e-05 0.0 -0.0027120371354417 0.0 0.0
-1.7796264389472897e-05 1.2680183476634182e-05 0.0 -0.003049946842986411 0.0 0.0
-6.593488876506385e-06 3.9684197588219395e-06 0.0 -0.003327298620083158 0.0 0.0
-2.020142534550661e-06 1.0486705425235459e-06 0.0 -0.0036092293006598497 0.0 0.0
-3.3289637748224604e-08 -2.5724931323534758e-08 0.0 -0.004302836517947508 0.0 0.0
-1.8858315909950395e-06 7.596588616807869e-07 0.0 -0.005513831007730263 0.0 0.0
-1.3929909208862368e-05 1.2766822733533637e-05 0.0 -0.007159819407595847 0.0 0.0
-3.6642651115504537e-05 3.5506595453128464e-05 0.0 -0.009008437781119481 0.0 0.0
-4.039049612408296e-05 4.755828432943083e-05 0.0 -0.010994473767078421 0.0 0.0
6.788915118386167e-05 -3.114197557874132e-05 0.0 -0.013122793285356196 0.0 0.0
0.0004824272274915752 -0.00037463799801585375 0.0 -0.015369366147580046 0.0 0.0
0.0015158453738045065 -0.001266863752557712 0.0 -0.017635547160751195 0.0 0.0
0.003507217630577099 -0.00305123589825832 0.0 -0.019673203744322257 0.0 0.0
0.0066729793709441754 -0.005826128820256997 0.0 -0.02117296265215378 0.0 0.0
0.012088252592288264 -0.010288770340816215 0.0 -0.0224089524383906 0.0 0.0
0.01561104835549803 -0.020374665644407843 0.0 1.421779360910591e-14 0.0 0.0
0.012088252592287841 -0.010288770340827544 0.0 0.02240895243841657 0.0 0.0
0.006672979370941572 -0.005826128820248979 0.0 0.0211729626521681 0.0 0.0
0.003507217630574943 -0.003051235898262122 0.0 0.019673203744324214 0.0 0.0
0.0015158453738056841 -0.001266863752561752 0.0 0.017635547160740093 0.0 0.0
0.00048242722749410136 -0.0003746379980156254 0.0 0.01536936614756829 0.0 0.0
6.788915118615779e-05 -3.1141975579201454e-05 0.0 0.013122793285345921 0.0 0.0
-4.0390496120272425e-05 4.755828432300758e-05 0.0 0.010994473767070778 0.0 0.0
-3.66426511110502e-05 3.5506595445070294e-05 0.0 0.009008437781107666 0.0 0.0
-1.3929909205290573e-05 1.2766822728507276e-05 0.0 0.007159819407585697 0.0 0.0
-1.885831588361404e-06 7.596588585069748e-07 0.0 0.005513831007717268 0.0 0.0
-3.328963605827868e-08 -2.5724928572222667e-08 0.0 0.004302836517942232 0.0 0.0
-2.020142533598379e-06 1.0486705442512762e-06 0.0 0.003609229300657728 0.0 0.0
-6.59348887597026e-06 3.968419760809438e-06 0.0 0.003327298620079598 0.0 0.0
-1.77962643891375e-05 1.2680183477015852e-05 0.0 0.0030499468429833884 0.0 0.0
-4.661151868024628e-05 4.810270127329969e-05 0.0 0.0027120371354392636 0.0 0.0
-9.87990186093065e-05 0.00010680008659345202 0.0 0.002475724421701243 0.0 0.0
-0.00014826667535183149 0.00013738173767929659 0.0 0.0024122137184598514 0.0 0.0
-0.00012777384443307126 3.279599243255178e-05 0.0 0.0024476703467561913 0.0 0.0
0.00024578743036366785 -0.0003182910715543967 0.0 0.002425328139083827 0.0 0.0
0.0005810783636655691 -0.0024568441905844013 0.0 0.001542833407666538 0.0 0.0
0.00038828398786432356 -0.0018557375343226435 0.0 -0.0014777517433240718 0.0 0.0
0.00010960693630022935 -0.0003122924688403302 0.0 -0.00223897695822808 0.0 0.0
-0.00024208137864666134 8.351835393997971e-05 0.0 -0.002441232479957756 0.0 0.0
-0.00034037989036826547 0.00021402676976995587 0.0 -0.0024327457128731824 0.0 0.0
-0.00039117498279980784 0.00023954150328886107 0.0 -0.0024836552416200516 0.0 0.0
-0.00048223789785754 0.00024936495162480984 0.0 -0.002688223527875372 0.0 0.0
-0.0006962647290150268 0.0003208704356972717 0.0 -0.002991217095457824 0.0 0.0
-0.0011564679663130125 0.000565453182908667 0.0 -0.0033782301233578104 0.0 0.0
-0.002017135122041769 0.0011491974415531662 0.0 -0.0040790740903046295 0.0 0.0
-0.003303633821492103 0.0021812097284871104 0.0 -0.005273786931596654 0.0 0.0
-0.004911821667649627 0.0035736213674733633 0.0 -0.0069496553949954685 0.0 0.0
-0.006738233499738297 0.005227129459680584 0.0 -0.008931187400333484 0.0 0.0
-0.008735707933700668 0.007081095402780164 0.0 -0.011038490264998299 0.0 0.0
-0.01088617690520541 0.009120331582088291 0.0 -0.013209381580222052 0.0 0.0
-0.013092820943751363 0.011258902645925288 0.0 -0.015469155408860041 0.0 0.0
-0.015125149465058742 0.013277776612038002 0.0 -0.017882202390945918 0.0 0.0
-0.01659955075927128 0.014800021996441225 0.0 -0.020486134799295175 0.0 0.0
-0.017067942689959457 0.015342282535132881 0.0 -0.02339619821840158 0.0 0.0
-0.016043519077771216 0.014590648422115444 0.0 -0.026560444886831496 0.0 0.0
-0.011559680501452365 0.01135267668477758 0.0 -0.0281333525113885 0.0 0.0
-0.008028722200860886 0.0005370676801538421 0.0 1.6735744734486246e-14 0.0 0.0
-0.011559680501453444 0.01135267668477418 0.0 0.028133352511417818 0.0 0.0
-0.016043519077765796 0.01459064842211958 0.0 0.026560444886850165 0.0 0.0
-0.017067942689947168 0.015342282535115465 0.0 0.023396198218405613 0.0 0.0
-0.01659955075925444 0.014800021996423125 0.0 0.02048613479928307 0.0 0.0
-0.015125149465042124 0.013277776612036631 0.0 0.017882202390930885 0.0 0.0
-0.013092820943736132 0.01125890264591119 0.0 0.015469155408845112 0.0 0.0
-0.010886176905189221 0.009120331582076003 0.0 0.013209381580210709 0.0 0.0
-0.008735707933683721 0.007081095402760062 0.0 0.011038490264983098 0.0 0.0
-0.006738233499722553 0.005227129459671128 0.0 0.008931187400315982 0.0 0.0
-0.004911821667636455 0.0035736213674590206 0.0 0.006949655394976318 0.0 0.0
-0.003303633821481958 0.002181209728481565 0.0 0.005273786931584845 0.0 0.0
-0.002017135122035772 0.0011491974415467321 0.0 0.00407907409029955 0.0 0.0
-0.0011564679663094396 0.0005654531829090625 0.0 0.003378230123353484 0.0 0.0
-0.000696264729012982 0.0003208704356994544 0.0 0.002991217095454786 0.0 0.0
-0.00048223789785654535 0.00024936495162541645 0.0 0.0026882235278739876 0.0 0.0
-0.0003911749827995377 0.0002395415032892998 0.0 0.0024836552416186977 0.0 0.0
-0.0003403798903681457 0.00021402676976994502 0.0 0.002432745712871849 0.0 0.0
-0.00024208137864679914 8.351835393978069e-05 0.0 0.002441232479955663 0.0 0.0
0.0001096069362997359 -0.0003122924688406791 0.0 0.0022389769582266206 0.0 0.0
0.0003882839878638923 -0.001855737534320459 0.0 0.0014777517433228464 0.0 0.0
0.0002589176560664686 -0.0014009100091145442 0.0 -0.0013895269666453073 0.0 0.0
9.479236148548733e-06 -0.0002897596740798966 0.0 -0.0020717793512687733 0.0 0.0
-0.00034847341836709116 0.00012981784997984097 0.0 -0.0023842857857816644 0.0 0.0
-0.0005247016936913708 0.0002881044027409024 0.0 -0.0023890089486444084 0.0 0.0
-0.000674684875010308 0.0003651448448389041 0.0 -0.0024161667031835634 0.0 0.0
-0.0009089043563297154 0.0004437428452827548 0.0 -0.0025661960832531576 0.0 0.0
-0.0014036088020480126 0.0006569809293067499 0.0 -0.002861992080012485 0.0 0.0
-0.0024545525835546734 0.0013184542833326598 0.0 -0.0035841311791184032 0.0 0.0
-0.0042846309605956475 0.0027781787360159115 0.0 -0.005030510552214671 0.0 0.0
-0.00687209635761519 0.0051176728040788835 0.0 -0.007111019056753684 0.0 0.0
-0.010040759437322301 0.008105392607080292 0.0 -0.009619157220158542 0.0 0.0
-0.013625118126134934 0.011523144661049397 0.0 -0.012242044072568922 0.0 0.0
-0.01755746070574483 0.015294814890972161 0.0 -0.014842313019331373 0.0 0.0
-0.02181705660872442 0.019423128937692248 0.0 -0.017401980878615768 0.0 0.0
-0.026314448599862338 0.023832913953414435 0.0 -0.020032994957957677 0.0 0.0
-0.030788739856501955 0.02828017001938879 0.0 -0.022948383689199568 0.0 0.0
-0.03479032763559472 0.03230781932067769 0.0 -0.026369208991168087 0.0 0.0
-0.03770403797704502 0.03529170951751992 0.0 -0.030396561642391427 0.0 0.0
-0.03838655860399149 0.03626668006639964 0.0 -0.034266504225844055 0.0 0.0
-0.034442104665877465 0.032981357763569995 0.0 -0.035303636577143 0.0 0.0
-0.030912677557646873 0.02026119996960655 0.0 2.3273050153704844e-14 0.0 0.0
-0.03444210466587594 0.0329813577635751 0.0 0.03530363657719328 0.0 0.0
-0.038386558603979194 0.03626668006639039 0.0 0.0342665042258869 0.0 0.0
-0.03770403797702219 0.03529170951750034 0.0 0.030396561642405985 0.0 0.0
-0.034790327635565 0.03230781932064519 0.0 0.026369208991161283 0.0 0.0
-0.030788739856471722 0.028280170019370013 0.0 0.022948383689179713 0.0 0.0
-0.026314448599834 0.023832913953383498 0.0 0.020032994957940763 0.0 0.0
-0.021817056608696143 0.019423128937668194 0.0 0.017401980878598042 0.0 0.0
-0.017557460705716208 0.015294814890944666 0.0 0.014842313019316242 0.0 0.0
-0.01362511812610721 0.011523144661022718 0.0 0.012242044072545604 0.0 0.0
-0.010040759437298964 0.008105392607051716 0.0 0.009619157220132119 0.0 0.0
-0.006872096357597097 0.005117672804062377 0.0 0.007111019056736105 0.0 0.0
-0.004284630960583301 0.0027781787360022206 0.0 0.005030510552206502 0.0 0.0
-0.0024545525835477163 0.0013184542833295679 0.0 0.0035841311791128564 0.0 0.0
-0.001403608802044393 0.000656980929303893 0.0 0.0028619920800090747 0.0 0.0
-0.0009089043563283239 0.0004437428452819073 0.0 0.0025661960832511106 0.0 0.0
-0.0006746848750099106 0.0003651448448403802 0.0 0.0024161667031819393 0.0 0.0
-0.0005247016936910969 0.00028810440273993544 0.0 0.0023890089486415613 0.0 0.0
-0.0003484734183669168 0.0001298178499814009 0.0 0.0023842857857797007 0.0 0.0
9.479236148614876e-06 -0.00028975967408002525 0.0 0.0020717793512669363 0.0 0.0
0.0002589176560664991 -0.0014009100091127852 0.0 0.0013895269666436467 0.0 0.0
0.00016100304130217403 -0.0010257264493698944 0.0 -0.001243570979114377 0.0 0.0
-7.071678667806166e-05 -0.00025153842296319316 0.0 -0.0018944138468916494 0.0 0.0
-0.0004462663558907795 0.00017174815040627814 0.0 -0.002275020008870437 0.0 0.0
-0.0006997965872710862 0.00035759323906240737 0.0 -0.0022849889779569827 0.0 0.0
-0.0009467058739400728 0.0004814896454084204 0.0 -0.002278856613921523 0.0 0.0
-0.0013423187929624877 0.0006360187371311358 0.0 -0.0023621152459138944 0.0 0.0
-0.002200826245198007 0.0010841441571305753 0.0 -0.0027507740440450346 0.0 0.0
-0.0039400935719948495 0.002366009849935796 0.0 -0.003878520238468867 0.0 0.0
-0.0067862390832327535 0.004870808029647637 0.0 -0.005888318443396415 0.0 0.0
-0.010672125118041482 0.00854902049447466 0.0 -0.008615294957694019 0.0 0.0
-0.015366311270100425 0.013073150174064714 0.0 -0.011690638474649018 0.0 0.0
-0.02066910406995307 0.01819852897988472 0.0 -0.014771068249735852 0.0 0.0
-0.026507794247044348 0.02385741249437979 0.0 -0.017728396953662396 0.0 0.0
-0.03287096755733002 0.03006016394857259 0.0 -0.02060677341455896 0.0 0.0
-0.039681205384104606 0.036753707837490754 0.0 -0.02361084591355971 0.0 0.0
-0.046663772424630656 0.04368758076423219 0.0 -0.02712153505349117 0.0 0.0
-0.0532628098758861 0.0503147625784479 0.0 -0.031581133749348865 0.0 0.0
-0.05849245501403408 0.05570239440510932 0.0 -0.036890711911975696 0.0 0.0
-0.06062417438574283 0.05818720646925524 0.0 -0.04159804693505041 0.0 0.0
-0.056265480057985 0.05476092563691117 0.0 -0.042948149904534 0.0 0.0
-0.051889997560783566 0.03919448211000167 0.0 2.3363255774455638e-14 0.0 0.0
-0.056265480057978934 0.054760925636911525 0.0 0.04294814990459205 0.0 0.0
-0.06062417438572422 0.05818720646922641 0.0 0.04159804693510731 0.0 0.0
-0.0584924550140026 0.0557023944050864 0.0 0.03689071191200061 0.0 0.0
-0.053262809875846 0.05031476257840918 0.0 0.03158113374934639 0.0 0.0
-0.04666377242458831 0.04368758076419109 0.0 0.027121535053472583 0.0 0.0
-0.03968120538406339 0.03675370783744651 0.0 0.02361084591354159 0.0 0.0
-0.03287096755728892 0.030060163948534502 0.0 0.0206067734145393 0.0 0.0
-0.02650779424700352 0.02385741249434366 0.0 0.017728396953645243 0.0 0.0
-0.020669104069914672 0.018198528979843778 0.0 0.014771068249708662 0.0 0.0
-0.015366311270066216 0.013073150174028856 0.0 0.011690638474617668 0.0 0.0
-0.010672125118014063 0.0085490204944525 0.0 0.008615294957673953 0.0 0.0
-0.006786239083214485 0.004870808029634449 0.0 0.005888318443382886 0.0 0.0
-0.003940093571983607 0.0023660098499269522 0.0 0.0038785202384606712 0.0 0.0
-0.00220082624519172 0.0010841441571289754 0.0 0.002750774044040682 0.0 0.0
-0.001342318792960132 0.0006360187371297845 0.0 0.0023621152459115083 0.0 0.0
-0.0009467058739394624 0.0004814896454067441 0.0 0.0022788566139202056 0.0 0.0
-0.0006997965872707326 0.0003575932390615639 0.0 0.002284988977955007 0.0 0.0
-0.0004462663558906432 0.0001717481504070689 0.0 0.0022750200088687213 0.0 0.0
-7.071678667809344e-05 -0.0002515384229633649 0.0 0.0018944138468889164 0.0 0.0
0.0001610030413023229 -0.001025726449368614 0.0 0.0012435709791134698 0.0 0.0
7.839472340245855e-05 -0.000711877120307378 0.0 -0.0010684705951794675 0.0 0.0
-0.0001410437442696401 -0.0001998519659191983 0.0 -0.0016921008970043594 0.0 0.0
-0.0005374120323916491 0.00021115931992307912 0.0 -0.002113461947765533 0.0 0.0
-0.0008651010707358619 0.0004211913729089978 0.0 -0.0021234815200416738 0.0 0.0
-0.001209514662750766 0.0005864427913669444 0.0 -0.0020699466497776597 0.0 0.0
-0.0018072281502695942 0.0008480119949195314 0.0 -0.0021089969619871043 0.0 0.0
-0.0031103560466147285 0.0016570582806221834 0.0 -0.002642770084142366 0.0 0.0
-0.00559771522202725 0.003688167375001246 0.0 -0.004054995449659839 0.0 0.0
-0.009477922260425833 0.007274064032900995 0.0 -0.0064293870974573755 0.0 0.0
-0.014639984940747336 0.012242277247616368 0.0 -0.009506461370065776 0.0 0.0
-0.020820614274681053 0.018245055457293356 0.0 -0.012817621454871869 0.0 0.0
-0.02781694427154282 0.025050676958507434 0.0 -0.01608334294325588 0.0 0.0
-0.03555194880526671 0.032583892226094334 0.0 -0.01920667601228916 0.0 0.0
-0.0440164847256495 0.040855891786358615 0.0 -0.02223895967535702 0.0 0.0
-0.0531533219520121 0.04984117580447607 0.0 -0.025401262748779862 0.0 0.0
-0.0626828902028604 0.05930245148510779 0.0 -0.029207971452382228 0.0 0.0
-0.07187804311390432 0.06855770178311561 0.0 -0.034196399978169804 0.0 0.0
-0.07931832615595392 0.07624294211612712 0.0 -0.04019089790251078 0.0 0.0
-0.08252839620116188 0.07998978846189225 0.0 -0.045616026196473744 0.0 0.0
-0.07735745839660847 0.0758672621704914 0.0 -0.04749019783845333 0.0 0.0
-0.07202968978631187 0.05754865451561696 0.0 2.251497599470298e-14 0.0 0.0
-0.07735745839659731 0.07586726217048015 0.0 0.047490197838511654 0.0 0.0
-0.08252839620113625 0.07998978846186588 0.0 0.045616026196533294 0.0 0.0
-0.07931832615591423 0.07624294211608439 0.0 0.04019089790253981 0.0 0.0
-0.0718780431138544 0.06855770178306468 0.0 0.03419639997816881 0.0 0.0
-0.06268289020280683 0.05930245148505342 0.0 0.029207971452366532 0.0 0.0
-0.05315332195195862 0.049841175804419754 0.0 0.025401262748760825 0.0 0.0
-0.04401648472559599 0.04085589178630511 0.0 0.022238959675338645 0.0 0.0
-0.03555194880521495 0.03258389222604825 0.0 0.01920667601226947 0.0 0.0
-0.027816944271494386 0.02505067695846068 0.0 0.016083342943230775 0.0 0.0
-0.02082061427463739 0.01824505545725288 0.0 0.012817621454840536 0.0 0.0
-0.014639984940711958 0.012242277247581923 0.0 0.00950646137004036 0.0 0.0
-0.00947792226040077 0.007274064032881165 0.0 0.0064293870974390585 0.0 0.0
-0.00559771522201137 0.0036881673749876573 0.0 0.004054995449648562 0.0 0.0
-0.0031103560466062387 0.0016570582806200492 0.0 0.002642770084136003 0.0 0.0
-0.0018072281502663598 0.0008480119949187273 0.0 0.0021089969619831747 0.0 0.0
-0.0012095146627494847 0.0005864427913639381 0.0 0.002069946649775895 0.0 0.0
-0.000865101070735113 0.00042119137290903987 0.0 0.0021234815200402418 0.0 0.0
-0.000537412032391278 0.00021115931992299786 0.0 0.002113461947763209 0.0 0.0
-0.00014104374426930793 -0.00019985196591925226 0.0 0.0016921008970032802 0.0 0.0
7.839472340276793e-05 -0.0007118771203066715 0.0 0.001068470595178838 0.0 0.0
6.8958177693672435e-06 -0.0004551180023904921 0.0 -0.0008828339160790923 0.0 0.0
-0.0002048958685943112 -0.00013853117012850897 0.0 -0.0014616628261803224 0.0 0.0
-0.000623505770502163 0.0002498440880520443 0.0 -0.001897669166578045 0.0 0.0
-0.0010196950950791173 0.00047791438658940943 0.0 -0.0019047882792522274 0.0 0.0
-0.001472625905459258 0.0006844614410510043 0.0 -0.001797723359712035 0.0 0.0
-0.0023248720533722463 0.0011106765100468484 0.0 -0.001830226429374767 0.0 0.0
-0.004136404194381958 0.002392443193741397 0.0 -0.002473077064621101 0.0 0.0
-0.007406557533687977 0.005243043530940261 0.0 -0.004045038171234301 0.0 0.0
-0.012312467447110271 0.009884824413858262 0.0 -0.006576261917962683 0.0 0.0
-0.018707169452013058 0.016079705240014484 0.0 -0.009673899860590474 0.0 0.0
-0.0263436350228883 0.023525007679692705 0.0 -0.012955361235669002 0.0 0.0
-0.03502970723493322 0.03200229094584571 0.0 -0.016188351292997054 0.0 0.0
-0.04466080260582616 0.04141067822988823 0.0 -0.01929422343096003 0.0 0.0
-0.055217095774356476 0.05174690608559585 0.0 -0.02231663164258628 0.0 0.0
-0.06666678952843344 0.06300693761581494 0.0 -0.02543227388753914 0.0 0.0
-0.07871633848482368 0.07496846961078234 0.0 -0.029094699682394042 0.0 0.0
-0.09045421793860034 0.08680744873088667 0.0 -0.033939445045304384 0.0 0.0
-0.09998778243344877 0.09670737942612052 0.0 -0.040042315974014746 0.0 0.0
-0.1041238129283837 0.10153961964488012 0.0 -0.04610509417579669 0.0 0.0
-0.09819274091987104 0.09670169041075925 0.0 -0.05011061449839641 0.0 0.0
-0.0920320828349544 0.07597112171857776 0.0 2.4305210621911044e-14 0.0 0.0
-0.09819274091985476 0.09670169041074578 0.0 0.05011061449845441 0.0 0.0
-0.10412381292835031 0.10153961964485733 0.0 0.04610509417585501 0.0 0.0
-0.0999877824334007 0.0967073794260743 0.0 0.04004231597404354 0.0 0.0
-0.0904542179385413 0.08680744873082447 0.0 0.0339394450453048 0.0 0.0
-0.07871633848475924 0.0749684696107211 0.0 0.029094699682381812 0.0 0.0
-0.0666667895283672 0.06300693761574454 0.0 0.025432273887522235 0.0 0.0
-0.05521709577429065 0.05174690608553126 0.0 0.022316631642567298 0.0 0.0
-0.04466080260576248 0.04141067822982767 0.0 0.0192942234309408 0.0 0.0
-0.035029707234874106 0.0320022909457853 0.0 0.01618835129297469 0.0 0.0
-0.026343635022835814 0.023525007679640445 0.0 0.012955361235640908 0.0 0.0
-0.018707169451969763 0.01607970523997385 0.0 0.009673899860564035 0.0 0.0
-0.012312467447078606 0.00988482441382685 0.0 0.006576261917946966 0.0 0.0
-0.007406557533667094 0.005243043530919068 0.0 0.004045038171224238 0.0 0.0
-0.004136404194370108 0.002392443193730679 0.0 0.0024730770646140573 0.0 0.0
-0.0023248720533671783 0.001110676510044715 0.0 0.001830226429370261 0.0 0.0
-0.0014726259054578521 0.0006844614410492523 0.0 0.0017977233597118126 0.0 0.0
-0.0010196950950786003 0.00047791438659028015 0.0 0.0019047882792509099 0.0 0.0
-0.0006235057705016078 0.00024984408805193596 0.0 0.0018976691665768051 0.0 0.0
-0.00020489586859392963 -0.00013853117012922799 0.0 0.0014616628261786347 0.0 0.0
6.895817769431918e-06 -0.0004551180023900461 0.0 0.0008828339160768256 0.0 0.0
-5.3494496855004445e-05 -0.00025396152591252905 0.0 -0.0006931416280056384 0.0 0.0
-0.0002622253442513444 -7.262492986081545e-05 0.0 -0.0012050531394587126 0.0 0.0
-0.0007052536663687723 0.00028855487454251637 0.0 -0.0016277494866085798 0.0 0.0
-0.0011674159250002173 0.0005276082078030527 0.0 -0.0016284569102573022 0.0 0.0
-0.0017498806721456626 0.000785700112795475 0.0 -0.001473047839657637 0.0 0.0
-0.0029072444352853275 0.001448919024850494 0.0 -0.0015182669762655108 0.0 0.0
-0.005275854369946766 0.003295524481298319 0.0 -0.0022117841920020784 0.0 0.0
-0.00933941012978106 0.006982626169825184 0.0 -0.003828803632248149 0.0 0.0
-0.015228859407295518 0.012611592100588213 0.0 -0.006218824529554445 0.0 0.0
-0.022817961460385686 0.019988455940499347 0.0 -0.00907790290769443 0.0 0.0
-0.03190062898115711 0.028860171297813354 0.0 -0.012124147084514321 0.0 0.0
-0.04227134729082948 0.039004024651174155 0.0 -0.01512362691131705 0.0 0.0
-0.053801983626579 0.050294564417104046 0.0 -0.018022630459405244 0.0 0.0
-0.0664448972711764 0.06269468241001884 0.0 -0.020874728689141708 0.0 0.0
-0.08014922455439721 0.07618100918084289 0.0 -0.023751134627641723 0.0 0.0
-0.09461713206298021 0.09053336804649824 0.0 -0.02688024113055271 0.0 0.0
-0.10880509099425661 0.10484602131870767 0.0 -0.030891028950590996 0.0 0.0
-0.12038753766001944 0.11691062056182419 0.0 -0.03646848292921007 0.0 0.0
-0.125555872642223 0.12292481083978857 0.0 -0.04346153025923502 0.0 0.0
-0.11916953031375402 0.11770387254124498 0.0 -0.05127266367640247 0.0 0.0
-0.11237061146132779 0.09492424620162729 0.0 2.430174117495909e-14 0.0 0.0
-0.11916953031373348 0.11770387254123515 0.0 0.05127266367646087 0.0 0.0
-0.12555587264218226 0.12292481083974391 0.0 0.04346153025929068 0.0 0.0
-0.12038753765996296 0.11691062056177504 0.0 0.03646848292923567 0.0 0.0
-0.10880509099418742 0.10484602131864133 0.0 0.03089102895059153 0.0 0.0
-0.09461713206290431 0.0905333680464311 0.0 0.026880241130543728 0.0 0.0
-0.08014922455431987 0.07618100918076497 0.0 0.023751134627629816 0.0 0.0
-0.06644489727109919 0.06269468240994229 0.0 0.02087472868912264 0.0 0.0
-0.05380198362650325 0.050294564417029085 0.0 0.01802263045938579 0.0 0.0
-0.04227134729075961 0.03900402465110403 0.0 0.015123626911292834 0.0 0.0
-0.03190062898109614 0.028860171297756775 0.0 0.012124147084487946 0.0 0.0
-0.0228179614603345 0.01998845594045225 0.0 0.00907790290767193 0.0 0.0
-0.015228859407256688 0.012611592100550269 0.0 0.006218824529538932 0.0 0.0
-0.009339410129755466 0.006982626169799158 0.0 0.0038288036322367 0.0 0.0
-0.0052758543699322185 0.0032955244812840705 0.0 0.0022117841919945392 0.0 0.0
-0.0029072444352783913 0.0014489190248448643 0.0 0.00151826697626268 0.0 0.0
-0.0017498806721433658 0.0007857001127952505 0.0 0.0014730478396567063 0.0 0.0
-0.0011674159249994006 0.0005276082078049743 0.0 0.0016284569102554278 0.0 0.0
-0.0007052536663679902 0.0002885548745412246 0.0 0.0016277494866081903 0.0 0.0
-0.0002622253442515637 -7.262492986133114e-05 0.0 0.0012050531394565028 0.0 0.0
-5.349449685583619e-05 -0.0002539615259119775 0.0 0.0006931416280048938 0.0 0.0
-0.00010032556381741903 -0.00010845576661882797 0.0 -0.0005047614849617069 0.0 0.0
-0.0003104335702770111 -7.762790632642676e-06 0.0 -0.0009253046467545256 0.0 0.0
-0.0007818544259634315 0.0003264530656832921 0.0 -0.0013021307494024922 0.0 0.0
-0.0013128168010676504 0.0005711775560627599 0.0 -0.0012908946273758226 0.0 0.0
-0.0020542048679751492 0.0009052795514844299 0.0 -0.0010981873771521153 0.0 0.0
-0.003567628849366054 0.0018843148888449779 0.0 -0.0011540671103946664 0.0 0.0
-0.006524641652357981 0.004359783896706502 0.0 -0.001857071675657346 0.0 0.0
-0.01134714574445257 0.008833964970653556 0.0 -0.0032972885523775085 0.0 0.0
-0.01817234177760497 0.015389608790596154 0.0 -0.0053084773292244765 0.0 0.0
-0.02693935608516823 0.02392457297125468 0.0 -0.00774242075749775 0.0 0.0
-0.03745351233855711 0.03420776868838598 0.0 -0.010341978199632637 0.0 0.0
-0.049506544443902255 0.046014660471615836 0.0 -0.012905608338165845 0.0 0.0
-0.06294459402827189 0.05919524608654066 0.0 -0.015400641663299092 0.0 0.0
-0.07766401262340963 0.07366330850776656 0.0 -0.017897039779627935 0.0 0.0
-0.0935492645719314 0.08931876063579493 0.0 -0.020389204578810494 0.0 0.0
-0.11026242796154082 0.10588241825713236 0.0 -0.02278406659824162 0.0 0.0
-0.12673018357587987 0.1224431326068616 0.0 -0.02537096931699304 0.0 0.0
-0.14041179119853026 0.13667893903123865 0.0 -0.02958123085236772 0.0 0.0
-0.14698087987131803 0.14427013693757637 0.0 -0.03762224872368709 0.0 0.0
-0.14065898132952556 0.13928245419839205 0.0 -0.05070985199222386 0.0 0.0
-0.13347899743093714 0.11486840884326377 0.0 2.1866189414687653e-14 0.0 0.0
-0.1406589813295011 0.1392824541983736 0.0 0.050709851992272334 0.0 0.0
-0.1469808798712705 0.1442701369375187 0.0 0.037622248723728505 0.0 0.0
-0.14041179119846459 0.1366789390311765 0.0 0.029581230852391185 0.0 0.0
-0.12673018357580076 0.12244313260678613 0.0 0.02537096931699666 0.0 0.0
-0.11026242796145388 0.10588241825704554 0.0 0.022784066598235182 0.0 0.0
-0.09354926457184222 0.08931876063571514 0.0 0.020389204578799478 0.0 0.0
-0.07766401262332069 0.07366330850767645 0.0 0.017897039779613613 0.0 0.0
-0.06294459402818488 0.059195246086452394 0.0 0.015400641663283868 0.0 0.0
-0.04950654444382173 0.046014660471537475 0.0 0.012905608338146822 0.0 0.0
-0.037453512338486705 0.03420776868832358 0.0 0.010341978199609863 0.0 0.0
-0.026939356085109924 0.023924572971194297 0.0 0.007742420757479078 0.0 0.0
-0.01817234177756081 0.015389608790555565 0.0 0.00530847732921038 0.0 0.0
-0.011347145744421801 0.008833964970626117 0.0 0.0032972885523684646 0.0 0.0
-0.006524641652339155 0.004359783896688831 0.0 0.0018570716756508084 0.0 0.0
-0.0035676288493575485 0.0018843148888375827 0.0 0.0011540671103927279 0.0 0.0
-0.0020542048679726226 0.0009052795514823367 0.0 0.0010981873771495519 0.0 0.0
-0.0013128168010667523 0.0005711775560635143 0.0 0.0012908946273736369 0.0 0.0
-0.0007818544259628445 0.00032645306568338824 0.0 0.0013021307494012592 0.0 0.0
-0.00031043357027667754 -7.76279063318405e-06 0.0 0.0009253046467528291 0.0 0.0
-0.00010032556381693689 -0.00010845576661829608 0.0 0.0005047614849617557 0.0 0.0
-0.00012872124400288418 -1.9245261752051067e-05 0.0 -0.0003279165786510932 0.0 0.0
-0.0003438879443167073 4.903732680185036e-05 0.0 -0.0006264068439258411 0.0 0.0
-0.0008508757345952159 0.00036055719448961003 0.0 -0.0009138876644628527 0.0 0.0
-0.0014637987428791238 0.0006133696601070027 0.0 -0.0008861298284524372 0.0 0.0
-0.002400472710405401 0.001062143940869277 0.0 -0.0006827303201404685 0.0 0.0
-0.0043164181391950295 0.002443472340331578 0.0 -0.0007417259535240434 0.0 0.0
-0.00784884532148373 0.005544511771680285 0.0 -0.0013388759036476166 0.0 0.0
-0.01338516790169814 0.010734716717194111 0.0 -0.0023856388060736074 0.0 0.0
-0.02111714615672724 0.01818279033817338 0.0 -0.003869178849717993 0.0 0.0
-0.031035147051948833 0.027848467775274235 0.0 -0.00567505291840001 0.0 0.0
-0.04296694109482754 0.039528329086123 0.0 -0.007616981701564089 0.0 0.0
-0.05669789369272149 0.0529949993281243 0.0 -0.009538818465499605 0.0 0.0
-0.07204605944863766 0.06807175724125757 0.0 -0.011431505786107066 0.0 0.0
-0.08884518967378884 0.08461092444626168 0.0 -0.0133753684943935 0.0 0.0
-0.10684602731236714 0.10238987744689299 0.0 -0.015311592291225888 0.0 0.0
-0.12557868274813175 0.12097687713064445 0.0 -0.016940855388602485 0.0 0.0
-0.1440328869516857 0.1394420205324291 0.0 -0.01806273465024456 0.0 0.0
-0.15987915669964126 0.15570358684183383 0.0 -0.02001615089909207 0.0 0.0
-0.16846847010219995 0.1655410639701767 0.0 -0.027618899557655854 0.0 0.0
-0.16305273534521353 0.16192057992358613 0.0 -0.04734482176275928 0.0 0.0
-0.1559119849692 0.13645106653452058 0.0 1.6243950629046822e-14 0.0 0.0
-0.16305273534518513 0.1619205799235631 0.0 0.04734482176279951 0.0 0.0
-0.16846847010214525 0.1655410639701212 0.0 0.027618899557693276 0.0 0.0
-0.15987915669956523 0.15570358684175528 0.0 0.020016150899110068 0.0 0.0
-0.14403288695159572 0.1394420205323435 0.0 0.018062734650246114 0.0 0.0
-0.12557868274803358 0.12097687713053973 0.0 0.01694085538859925 0.0 0.0
-0.10684602731226624 0.10238987744680278 0.0 0.01531159229122029 0.0 0.0
-0.08884518967368861 0.08461092444616224 0.0 0.013375368494384875 0.0 0.0
-0.0720460594485394 0.06807175724115755 0.0 0.011431505786094615 0.0 0.0
-0.056697893692630535 0.052994999328034656 0.0 0.009538818465487344 0.0 0.0
-0.04296694109474859 0.03952832908604601 0.0 0.007616981701547194 0.0 0.0
-0.031035147051883236 0.02784846777521005 0.0 0.00567505291838475 0.0 0.0
-0.02111714615667642 0.018182790338130164 0.0 0.003869178849706987 0.0 0.0
-0.013385167901662389 0.010734716717162076 0.0 0.0023856388060691045 0.0 0.0
-0.007848845321462329 0.005544511771660553 0.0 0.0013388759036422305 0.0 0.0
-0.004316418139184977 0.0024434723403224394 0.0 0.0007417259535223501 0.0 0.0
-0.002400472710401617 0.001062143940864346 0.0 0.0006827303201399613 0.0 0.0
-0.001463798742877641 0.000613369660106514 0.0 0.0008861298284516441 0.0 0.0
-0.000850875734594366 0.00036055719449128637 0.0 0.000913887664460198 0.0 0.0
-0.0003438879443164563 4.903732680115199e-05 0.0 0.0006264068439259463 0.0 0.0
-0.00012872124400295192 -1.924526175173082e-05 0.0 0.00032791657864778787 0.0 0.0
-0.000130026682358252 1.3883835268108467e-05 0.0 -0.00018444604059244136 0.0 0.0
-0.0003524092284330023 8.701610468548381e-05 0.0 -0.00031390872973732266 0.0 0.0
-0.0009082777382002111 0.00038519517587650413 0.0 -0.00044453189226484086 0.0 0.0
-0.0016327118943440448 0.0006677422272035483 0.0 -0.0004102743090052074 0.0 0.0
-0.002806960211471595 0.0012840923745519464 0.0 -0.0002377843564008053 0.0 0.0
-0.005142019999965293 0.003120456100550844 0.0 -0.00025941417133934947 0.0 0.0
-0.009219680693767674 0.006799825481606689 0.0 -0.0005835516311028918 0.0 0.0
-0.015427359477271047 0.012655108074935776 0.0 -0.0011305934268087462 0.0 0.0
-0.02402906575506304 0.02095554419919446 0.0 -0.0019084121524882577 0.0 0.0
-0.03506963026128014 0.03172063590935568 0.0 -0.0028812951402985587 0.0 0.0
-0.04840348238386801 0.04478322817893959 0.0 -0.0039443990962868495 0.0 0.0
-0.06380980186376979 0.059909607801193324 0.0 -0.00502077512708329 0.0 0.0
-0.08107074983542845 0.07688422866007993 0.0 -0.00612836896706653 0.0 0.0
-0.09993447891375946 0.09548169810286296 0.0 -0.007286816148419178 0.0 0.0
-0.12000928681749154 0.11535065380994247 0.0 -0.00843029359033151 0.0 0.0
-0.14062241763632174 0.13585492222279386 0.0 -0.00932229791168851 0.0 0.0
-0.16067182716359513 0.15590411220325984 0.0 -0.009564908880452482 0.0 0.0
-0.17832015301286877 0.1736775774252015 0.0 -0.009500104108250808 0.0 0.0
-0.18976727356680742 0.18589843743127202 0.0 -0.013573420043634623 0.0 0.0
-0.18692315971662837 0.18603919600696087 0.0 -0.035526851155357475 0.0 0.0
-0.1805650489955305 0.16154078411953524 0.0 8.161873954470877e-15 0.0 0.0
-0.1869231597165958 0.18603919600692861 0.0 0.03552685115538147 0.0 0.0
-0.18976727356674522 0.1858984374312099 0.0 0.013573420043656918 0.0 0.0
-0.1783201530127823 0.17367757742511378 0.0 0.009500104108258873 0.0 0.0
-0.16067182716349374 0.15590411220316114 0.0 0.009564908880453553 0.0 0.0
-0.1406224176362122 0.13585492222268306 0.0 0.009322297911686235 0.0 0.0
-0.12000928681737864 0.11535065380983159 0.0 0.008430293590329145 0.0 0.0
-0.09993447891364783 0.09548169810275496 0.0 0.007286816148414787 0.0 0.0
-0.08107074983531976 0.07688422865997221 0.0 0.006128368967059372 0.0 0.0
-0.06380980186366891 0.059909607801088866 0.0 0.005020775127075599 0.0 0.0
-0.048403482383780845 0.044783228178850706 0.0 0.003944399096277044 0.0 0.0
-0.03506963026120848 0.03172063590928572 0.0 0.0028812951402897367 0.0 0.0
-0.024029065755006886 0.020955544199142383 0.0 0.0019084121524804028 0.0 0.0
-0.015427359477230758 0.012655108074900544 0.0 0.0011305934268057917 0.0 0.0
-0.00921968069374255 0.006799825481583577 0.0 0.0005835516310990607 0.0 0.0
-0.005142019999952262 0.003120456100537359 0.0 0.0002594141713381184 0.0 0.0
-0.002806960211466172 0.00128409237454997 0.0 0.00023778435640143175 0.0 0.0
-0.0016327118943423279 0.0006677422272031705 0.0 0.0004102743090049009 0.0 0.0
-0.0009082777381993403 0.0003851951758760493 0.0 0.00044453189226439894 0.0 0.0
-0.00035240922843212205 8.701610468569026e-05 0.0 0.0003139087297368793 0.0 0.0
-0.00013002668235774986 1.3883835268002834e-05 0.0 0.00018444604059136485 0.0 0.0
-8.881241471931256e-05 1.65699609843416e-05 0.0 -0.00011251988563830966 0.0 0.0
-0.00031796513845249857 9.961132668718375e-05 0.0 -0.00013048914284223906 0.0 0.0
-0.0009493032206167363 0.00039428485207202417 0.0 -0.00014642022306960657 0.0 0.0
-0.0018385911665375276 0.0007002862009761282 0.0 -8.082627323551581e-05 0.0 0.0
-0.003283855411270707 0.0014161786561065772 0.0 0.00018528025451601006 0.0 0.0
-0.006026133943193785 0.0034835004723548267 0.0 0.000413646354370298 0.0 0.0
-0.010613570147372806 0.007440018739163479 0.0 0.0005242722528299207 0.0 0.0
-0.017450696058145483 0.013617175566563004 0.0 0.000558770441250052 0.0 0.0
-0.02687602904459198 0.02233201616330351 0.0 0.000510850556047447 0.0 0.0
-0.03900500294278305 0.03363900142723678 0.0 0.0003385372380655433 0.0 0.0
-0.05372719439797572 0.04738915978805757 0.0 8.202397098208518e-05 0.0 0.0
-0.07081010379421986 0.06334657326725872 0.0 -0.00024671511530530675 0.0 0.0
-0.08996970591882104 0.0812695876822714 0.0 -0.0006761062752388683 0.0 0.0
-0.11087069922623148 0.10088946240461259 0.0 -0.0011789344155295547 0.0 0.0
-0.13300082023649437 0.1217970916366204 0.0 -0.0017638066641598952 0.0 0.0
-0.15547599338544263 0.143247939736731 0.0 -0.0023148413686550576 0.0 0.0
-0.17692127466673632 0.16402595931621533 0.0 -0.0025412385464103505 0.0 0.0
-0.19552822638904535 0.18237879188163444 0.0 -0.002258925844744516 0.0 0.0
-0.2091562839844028 0.1956608340790255 0.0 -0.0044938023610446 0.0 0.0
-0.2125595854790773 0.19850368882930103 0.0 -0.02714209990215631 0.0 0.0
-0.21068110857496417 0.1753309152550347 0.0 -8.326672684688674e-16 0.0 0.0
-0.21255958547904022 0.19850368882926064 0.0 0.027142099902161876 0.0 0.0
-0.20915628398433178 0.19566083407895965 0.0 0.004493802361054299 0.0 0.0
-0.19552822638894668 0.18237879188154918 0.0 0.002258925844745664 0.0 0.0
-0.17692127466662233 0.16402595931610803 0.0 0.0025412385464084544 0.0 0.0
-0.15547599338532195 0.14324793973661643 0.0 0.0023148413686539596 0.0 0.0
-0.13300082023636944 0.12179709163649872 0.0 0.0017638066641603133 0.0 0.0
-0.11087069922610723 0.10088946240450346 0.0 0.0011789344155273638 0.0 0.0
-0.08996970591870096 0.08126958768216128 0.0 0.0006761062752349209 0.0 0.0
-0.07081010379410949 0.0633465732671441 0.0 0.00024671511530190843 0.0 0.0
-0.05372719439788062 0.047389159787964916 0.0 -8.202397098634826e-05 0.0 0.0
-0.039005002942705064 0.03363900142716274 0.0 -0.00033853723806965587 0.0 0.0
-0.026876029044530243 0.02233201616324877 0.0 -0.0005108505560499281 0.0 0.0
-0.01745069605810038 0.013617175566527504 0.0 -0.0005587704412496042 0.0 0.0
-0.010613570147344726 0.007440018739137478 0.0 -0.0005242722528304732 0.0 0.0
-0.006026133943179507 0.003483500472339359 0.0 -0.0004136463543702027 0.0 0.0
-0.0032838554112649605 0.0014161786561081762 0.0 -0.00018528025451478275 0.0 0.0
-0.0018385911665350996 0.00070028620097524 0.0 8.082627323357551e-05 0.0 0.0
-0.0009493032206157697 0.0003942848520692239 0.0 0.00014642022307033951 0.0 0.0
-0.0003179651384520489 9.961132668783524e-05 0.0 0.00013048914283893224 0.0 0.0
-8.881241471897118e-05 1.656996098385833e-05 0.0 0.00011251988564077976 0.0 0.0
SCALARS Statev float 8
LOOKUP_TABLE default
0.0 0.019863852930216554 0.015970494973817542 -0.018937775619009913 0.0029672806451923545 -0.0012003979084288146 0.0 0.0
0.0 0.007001949038878162 0.005195869038448227 -0.0033225696131597583 -0.0018732994252884647 -0.007296781184580825 0.0 0.0
0.0 0.00019744544484724723 0.0002523071519784587 -0.00015294551556161522 -9.936163641684381e-05 -0.0003863460548324831 0.0 0.0
0.0 0.00019685906754417806 0.00011109546699564241 -7.965813740247464e-05 -3.143732959316796e-05 3.35653197505561e-05 0.0 0.0
0.0 0.0012057380502967945 0.0008799546234110778 -0.0006482327736912013 -0.0002317218497198765 0.00018056969145409686 0.0 0.0
0.0 0.003212326350059712 0.0031335782546977773 -0.0025177012013843057 -0.0006158770533134729 0.00036965451687870685 0.0 0.0
0.0 0.007947992715651213 0.007258100671850286 -0.006305675892471536 -0.0009524247793787444 0.0005123608296282544 0.0 0.0
0.0 0.015217129188620462 0.013684344638349034 -0.012467954243966559 -0.001216390394382475 0.0005726568437761692 0.0 0.0
0.0 0.025500870533826506 0.02270138373354234 -0.021237132096199048 -0.0014642516373432747 0.0005479440415445252 0.0 0.0
0.0 0.03894029399323849 0.034404987279194076 -0.03266323239077342 -0.0017417548884206592 0.0004034184614725198 0.0 0.0
0.0 0.05540099743800567 0.048685965362438424 -0.046618962209108425 -0.002067003153329961 0.00016778724037239384 0.0 0.0
0.0 0.07429828279898189 0.065325029554016 -0.06288272391804182 -0.002442305635974136 -0.00015020833286075739 0.0 0.0
0.0 0.09568826563840324 0.0840595117983735 -0.08120365525920417 -0.0028558565391692413 -0.0005657061223883165 0.0 0.0
0.0 0.11919385836003642 0.10461349951544584 -0.10132087041793528 -0.0032926290975103575 -0.001028902070758138 0.0 0.0
0.0 0.1443997170881906 0.1266209642246667 -0.12288788832514674 -0.0037330758995199062 -0.001562978766221457 0.0 0.0
0.0 0.17065874955729762 0.1494804639164964 -0.14532551173791772 -0.004154952178578708 -0.0021405340345601277 0.0 0.0
0.0 0.19686325520870093 0.17226094666163405 -0.1677256041148572 -0.004535342546777068 -0.00264489472464233 0.0 0.0
0.0 0.22154855014343158 0.193703457898998 -0.18885185580914096 -0.004851602089856975 -0.002889177857988346 0.0 0.0
0.0 0.24298482636762508 0.21232430336415428 -0.20722374971411392 -0.005100553650040013 -0.0027216297536433866 0.0 0.0
0.0 0.2588507515547445 0.22631219779014156 -0.22105874626017763 -0.005253451529964225 -0.0032363552239973864 0.0 0.0
0.0 0.2656791648439162 0.2319667702739612 -0.22673087005668946 -0.005235900217271479 3.3202607330196088e-15 0.0 0.0
0.0 0.25885075155471077 0.22631219779011147 -0.22105874626014996 -0.005253451529961692 0.0032363552240075935 0.0 0.0
0.0 0.2429848263675516 0.21232430336408983 -0.20722374971405053 -0.005100553650039034 0.0027216297536518516 0.0 0.0
0.0 0.2215485501433187 0.19370345789889964 -0.18885185580904387 -0.00485160208985565 0.0028891778579928458 0.0 0.0
0.0 0.19686325520858017 0.17226094666152875 -0.16772560411475496 -0.004535342546773959 0.0026448947246410703 0.0 0.0
0.0 0.17065874955717014 0.1494804639163846 -0.145325511737808 -0.004154952178576523 0.002140534034554941 0.0 0.0
0.0 0.14439971708805444 0.1266209642245484 -0.12288788832502955 -0.0037330758995186668 0.0015629787662208537 0.0 0.0
0.0 0.11919385835990867 0.1046134995153339 -0.10132087041782657 -0.003292629097507421 0.0010289020707585665 0.0 0.0
0.0 0.09568826563827594 0.08405951179826239 -0.08120365525909556 -0.0028558565391667338 0.0005657061223847495 0.0 0.0
0.0 0.07429828279886432 0.06532502955391331 -0.06288272391794107 -0.002442305635972137 0.0001502083328559639 0.0 0.0
0.0 0.05540099743790497 0.048685965362350606 -0.04661896220902221 -0.002067003153328362 -0.00016778724037755377 0.0 0.0
0.0 0.03894029399315794 0.03440498727912354 -0.03266323239070478 -0.0017417548884188362 -0.0004034184614744741 0.0 0.0
0.0 0.02550087053376653 0.022701383733489407 -0.021237132096147755 -0.0014642516373416141 -0.0005479440415443143 0.0 0.0
0.0 0.015217129188581816 0.013684344638314356 -0.012467954243933172 -0.0012163903943811806 -0.0005726568437765716 0.0 0.0
0.0 0.00794799271562772 0.007258100671828463 -0.00630567589245116 -0.0009524247793772956 -0.0005123608296277967 0.0 0.0
0.0 0.003212326350047069 0.003133578254685378 -0.0025177012013734394 -0.0006158770533119415 -0.0003696545168781427 0.0 0.0
0.0 0.0012057380502913336 0.000879954623406963 -0.0006482327736881767 -0.00023172184971878516 -0.0001805696914531321 0.0 0.0
0.0 0.0001968590675430079 0.00011109546699532822 -7.96581374022789e-05 -3.143732959304866e-05 -3.356531975033668e-05 0.0 0.0
0.0 0.00019744544484635298 0.000252307151977734 -0.00015294551556121002 -9.936163641652302e-05 0.00038634605483070636 0.0 0.0
0.0 0.00700194903886696 0.005195869038442429 -0.0033225696131552133 -0.0018732994252872088 0.0072967811845722555 0.0 0.0
0.0 0.019863852930195075 0.015970494973803297 -0.018937775618990266 0.002967280645186945 0.0012003979083858903 0.0 0.0
0.0 0.016306479963692413 0.01229325017901928 -0.01577320598814403 0.003479955809124738 -0.0007041409007639394 0.0 0.0
0.0 0.004416441658039525 0.0031770890151603948 -0.0020179465536356964 -0.0011591424615246915 -0.0058543889406242975 0.0 0.0
0.0 -9.060498364121311e-05 -7.748449399112866e-05 7.254503671419045e-05 4.939457276938265e-06 -0.00011218084004593461 0.0 0.0
0.0 5.526673035861362e-05 4.659787862892348e-05 -3.35698767166704e-05 -1.3028001912253057e-05 1.5902769737521557e-05 0.0 0.0
0.0 0.0007089559696200916 0.00059165299789072 -0.0004394861240687636 -0.00015216687382195627 7.018751864367766e-05 0.0 0.0
0.0 0.0027897271123598754 0.002458701966306464 -0.001995982009995559 -0.000462719956310907 4.833924870079421e-05 0.0 0.0
0.0 0.006803453683702813 0.006193165730620117 -0.005451869662279557 -0.0007412960683405569 -0.00027257743554868883 0.0 0.0
0.0 0.013552419501855664 0.012086726743930848 -0.011178739191838817 -0.0009079875520920356 -0.0008158747938369404 0.0 0.0
0.0 0.02314926528311194 0.020410270730079522 -0.019391662226537165 -0.0010186085035423526 -0.001582484352972197 0.0 0.0
0.0 0.03560809522764258 0.031204244520034143 -0.03009038452081031 -0.001113859999223847 -0.0025424526254329686 0.0 0.0
0.0 0.05079862087923665 0.0443280768951453 -0.04312178104358334 -0.001206295851561995 -0.0036086759213715177 0.0 0.0
0.0 0.06857320606471952 0.05956897524373403 -0.05826797296049015 -0.0013010022832438371 -0.004705945563858961 0.0 0.0
0.0 0.08810298472624371 0.07672201909593078 -0.07532388689053773 -0.0013981322053930217 -0.0058343656953369636 0.0 0.0
0.0 0.10986312109028201 0.09555570056607045 -0.09406507469962891 -0.0014906258664414932 -0.006992310255539073 0.0 0.0
0.0 0.13318195286733753 0.11574689998974932 -0.1141787702437935 -0.0015681297459556854 -0.008140906589990922 0.0 0.0
0.0 0.1574794081140908 0.1367641628524075 -0.13514229938840985 -0.0016218634639976928 -0.00917341361741403 0.0 0.0
0.0 0.18182360056584798 0.1577794177935891 -0.15613280743919447 -0.0016466103543945462 -0.009834523716814323 0.0 0.0
0.0 0.20488611562131898 0.17765241194699452 -0.1760088355521451 -0.0016435763948495327 -0.00978157155740257 0.0 0.0
0.0 0.22491016621766535 0.19490814511440935 -0.19330536588552585 -0.001602779228883499 -0.008860927522179526 0.0 0.0
0.0 0.2395356336851782 0.20743175149226548 -0.20599033197580782 -0.001441419516457674 -0.007913831848701121 0.0 0.0
0.0 0.24592783876910868 0.2123274941648108 -0.21113408842551953 -0.0011934057392913818 8.135853102331225e-15 0.0 0.0
0.0 0.2395356336851452 0.20743175149223597 -0.20599033197577882 -0.0014414195164571375 0.00791383184872426 0.0 0.0
0.0 0.2249101662175984 0.19490814511435153 -0.1933053658854677 -0.0016027792288836299 0.008860927522203061 0.0 0.0
0.0 0.2048861156212184 0.17765241194690815 -0.17600883555205804 -0.0016435763948501123 0.009781571557415441 0.0 0.0
0.0 0.18182360056573624 0.15777941779349267 -0.1561328074390985 -0.0016466103543942387 0.009834523716816163 0.0 0.0
0.0 0.1574794081139711 0.13676416285230417 -0.13514229938830635 -0.001621863463997455 0.009173413617408529 0.0 0.0
0.0 0.1331819528672144 0.11574689998964253 -0.11417877024368699 -0.0015681297459555917 0.008140906589988195 0.0 0.0
0.0 0.10986312109016658 0.09555570056596997 -0.09406507469952982 -0.0014906258664400586 0.006992310255536333 0.0 0.0
0.0 0.08810298472612514 0.07672201909582829 -0.07532388689043568 -0.0013981322053925698 0.0058343656953291296 0.0 0.0
0.0 0.06857320606461174 0.059568975243640396 -0.05826797296039688 -0.001301002283243531 0.004705945563851547 0.0 0.0
0.0 0.050798620879142234 0.0443280768950639 -0.04312178104350202 -0.00120629585156191 0.0036086759213611926 0.0 0.0
0.0 0.03560809522757023 0.03120424451997076 -0.030090384520747575 -0.001113859999223143 0.002542452625425777 0.0 0.0
0.0 0.02314926528305596 0.02041027073002999 -0.019391662226488398 -0.0010186085035415943 0.0015824843529681151 0.0 0.0
0.0 0.01355241950181698 0.012086726743896445 -0.011178739191805164 -0.0009079875520913047 0.0008158747938331055 0.0 0.0
0.0 0.006803453683680801 0.006193165730600111 -0.005451869662260587 -0.0007412960683395122 0.00027257743554679 0.0 0.0
0.0 0.002789727112347782 0.0024587019662958617 -0.001995982009986266 -0.00046271995630959293 -4.8339248701384274e-05 0.0 0.0
0.0 0.0007089559696162812 0.0005916529978879325 -0.00043948612406670553 -0.0001521668738212267 -7.018751864312192e-05 0.0 0.0
0.0 5.526673035837486e-05 4.659787862929221e-05 -3.3569876716967894e-05 -1.3028001912324213e-05 -1.5902769737404354e-05 0.0 0.0
0.0 -9.060498364167134e-05 -7.748449399091006e-05 7.254503671395392e-05 4.939457276955949e-06 0.00011218084004539064 0.0 0.0
0.0 0.004416441658028096 0.0031770890151541463 -0.0020179465536310647 -0.0011591424615230803 0.005854388940613358 0.0 0.0
0.0 0.016306479963668633 0.012293250179001156 -0.015773205988121507 0.0034799558091203465 0.0007041409007314093 0.0 0.0
0.0 0.012279765918598423 0.009062895819439573 -0.011940882791683392 0.0028779869722438244 -0.0033284930490882123 0.0 0.0
0.0 0.00305303614839022 0.0019530385966401698 -0.0010990120284246879 -0.000854026568215485 -0.0050785243361009 0.0 0.0
0.0 8.024097659756777e-07 1.637375410195755e-06 -1.4361364421634364e-06 -2.012389680323144e-07 9.753316673962354e-07 0.0 0.0
0.0 1.3670311028021755e-06 -2.8995871981425976e-07 8.515290097412376e-07 -5.615702899271079e-07 6.5380726573064205e-06 0.0 0.0
0.0 0.00034331765842357824 0.0003045831513271412 -0.00022044443129757424 -8.413872002956702e-05 1.1591800795136212e-05 0.0 0.0
0.0 0.002021726073955604 0.0017332131809744175 -0.0013688376719930883 -0.0003643755089813286 -0.00013061535723923455 0.0 0.0
0.0 0.005345790756165991 0.0049342089613098935 -0.004260823609064805 -0.000673385352245087 -0.0007567871280957466 0.0 0.0
0.0 0.011389013847295109 0.01015843301503943 -0.009299475707866262 -0.0008589573071731624 -0.00180244642344332 0.0 0.0
0.0 0.019982740494793746 0.017613970102855744 -0.016643932235418938 -0.0009700378674367871 -0.003261299691915612 0.0 0.0
0.0 0.03123339911106661 0.027286763450351297 -0.026228552763260905 -0.0010582106870904052 -0.005047565088766836 0.0 0.0
0.0 0.044863686292159255 0.03900859730357915 -0.03786429193639993 -0.0011443053671792041 -0.006999217573846867 0.0 0.0
0.0 0.06051981911657898 0.0525768454375091 -0.05134271080461688 -0.0012341346328922276 -0.008964750293379405 0.0 0.0
0.0 0.07835044110550624 0.06781846312272144 -0.06649257199191802 -0.0013258911308033474 -0.010913094405911348 0.0 0.0
0.0 0.09746600741454967 0.08457160555765901 -0.08315867395037975 -0.0014129316072793324 -0.0128948349379301 0.0 0.0
0.0 0.11829886029655878 0.10257141696724151 -0.10108404585259248 -0.0014873711146491902 -0.014864775417806071 0.0 0.0
0.0 0.14005865357457659 0.121379899909899 -0.11983856910463726 -0.0015413308052616352 -0.016611279045960388 0.0 0.0
0.0 0.16196015367756214 0.14030722129145168 -0.13873732939282865 -0.0015698918986231337 -0.017726618187251852 0.0 0.0
0.0 0.1828097461294948 0.15833291791473364 -0.1567672183090409 -0.00156569960569296 -0.017709786610599125 0.0 0.0
0.0 0.20094052251157343 0.17397742427668147 -0.172473565825944 -0.0015038584507372486 -0.01629489633767517 0.0 0.0
0.0 0.2140806177432319 0.18526883240724595 -0.18386147995295 -0.0014073524542954875 -0.013563716001234785 0.0 0.0
0.0 0.2201018645552336 0.1898178026583643 -0.18869769762199975 -0.0011201050363645905 1.6811205205691238e-14 0.0 0.0
0.0 0.21408061774319914 0.18526883240721637 -0.18386147995292 -0.0014073524542961373 0.013563716001275225 0.0 0.0
0.0 0.2009405225115167 0.17397742427663151 -0.17247356582589476 -0.0015038584507368234 0.01629489633771714 0.0 0.0
0.0 0.1828097461294083 0.158332917914659 -0.15676721830896537 -0.0015656996056935017 0.01770978661062199 0.0 0.0
0.0 0.16196015367746444 0.14030722129136758 -0.13873732939274502 -0.00156989189862263 0.017726618187255308 0.0 0.0
0.0 0.1400586535744694 0.12137989990980609 -0.11983856910454474 -0.001541330805261332 0.016611279045952925 0.0 0.0
0.0 0.11829886029645083 0.10257141696714796 -0.10108404585249935 -0.0014873711146485933 0.014864775417800697 0.0 0.0
0.0 0.09746600741444285 0.08457160555756636 -0.08315867395028767 -0.001412931607278734 0.012894834937924544 0.0 0.0
0.0 0.07835044110540387 0.06781846312263305 -0.06649257199183015 -0.0013258911308029243 0.010913094405900409 0.0 0.0
0.0 0.060519819116483624 0.052576845437427064 -0.05134271080453484 -0.0012341346328921293 0.008964750293366044 0.0 0.0
0.0 0.04486368629207566 0.03900859730350663 -0.037864291936327704 -0.0011443053671789272 0.006999217573831362 0.0 0.0
0.0 0.03123339911100282 0.02728676345029516 -0.026228552763205498 -0.001058210687089634 0.0050475650887552076 0.0 0.0
0.0 0.019982740494744876 0.01761397010281296 -0.016643932235376704 -0.000970037867436266 0.003261299691907329 0.0 0.0
0.0 0.011389013847257533 0.01015843301500671 -0.009299475707834105 -0.0008589573071725835 0.00180244642343531 0.0 0.0
0.0 0.005345790756146928 0.004934208961292434 -0.004260823609048574 -0.0006733853522438631 0.0007567871280921434 0.0 0.0
0.0 0.0020217260739455985 0.0017332131809658488 -0.0013688376719859204 -0.000364375508979928 0.00013061535723782737 0.0 0.0
0.0 0.0003433176584213413 0.00030458315132575014 -0.000220444431296606 -8.413872002914414e-05 -1.1591800794775219e-05 0.0 0.0
0.0 1.3670311027648385e-06 -2.8995871966485696e-07 8.515290096294809e-07 -5.615702899646144e-07 -6.538072657273174e-06 0.0 0.0
0.0 8.02409766115697e-07 1.637375410161755e-06 -1.4361364421319389e-06 -2.0123896802981763e-07 -9.753316673747566e-07 0.0 0.0
0.0 0.0030530361483809554 0.001953038596634771 -0.0010990120284210595 -0.0008540265682137063 0.00507852433608674 0.0 0.0
0.0 0.012279765918574109 0.009062895819421544 -0.01194088279166077 0.0028779869722392144 0.0033284930490669476 0.0 0.0
0.0 0.009390993762272846 0.006757665602735404 -0.009084902604787554 0.002327237002052126 -0.0035908021154515113 0.0 0.0
0.0 0.002244950467430621 0.0013504160030211273 -0.0007430902622985011 -0.0006073257407226192 -0.003885894366227711 0.0 0.0
0.0 0.0 0.0 0.0 0.0 0.0 0.0 0.0
0.0 -4.591114241103407e-06 -4.4550400020776684e-06 3.516933022442981e-06 9.38106979634686e-07 3.4124236803290554e-06 0.0 0.0
0.0 0.0001315181511264652 0.00010836196884004651 -7.52014448692233e-05 -3.316052397082262e-05 4.119023057463103e-06 0.0 0.0
0.0 0.0012581045803957511 0.0011265370512737976 -0.0008652020396087137 -0.00026133501166508276 -0.00022389901189771844 0.0 0.0
0.0 0.004210851341780575 0.0037226066680978724 -0.0031384641077112857 -0.0005841425603865869 -0.0009789807150215025 0.0 0.0
0.0 0.00927910383048614 0.008252452178532809 -0.007453872818505519 -0.0007985793600272799 -0.002439103391413789 0.0 0.0
0.0 0.016889238280470516 0.014803496531700287 -0.013887758144947604 -0.0009157383867526758 -0.004424913475209005 0.0 0.0
0.0 0.0268523042914572 0.023326391306950942 -0.022327557052482665 -0.000998834254468256 -0.00683672826154374 0.0 0.0
0.0 0.03883555022381204 0.03363047698054702 -0.032552416661373464 -0.0010780603191735145 -0.00944929175306431 0.0 0.0
0.0 0.052736892839516825 0.04551782002428922 -0.04435571970687441 -0.0011621003174148263 -0.01207119702836296 0.0 0.0
0.0 0.06808665140156506 0.05885057141380844 -0.0576016105394633 -0.0012489608743451405 -0.014662878110994008 0.0 0.0
0.0 0.08532312690156749 0.07350238140135992 -0.072172300797974 -0.0013300806033858796 -0.017263708138352533 0.0 0.0
0.0 0.10352615742957874 0.08929149226120787 -0.08789061395970037 -0.0014008783015073986 -0.019832391169998496 0.0 0.0
0.0 0.12256078962059076 0.10588397643123927 -0.10442742106324256 -0.0014565553679967112 -0.02213655051824935 0.0 0.0
0.0 0.1421198971548067 0.12272003176065124 -0.12123194630860111 -0.001488085452050065 -0.023698333799066214 0.0 0.0
0.0 0.16083321922232022 0.13890376679408215 -0.13742119464629915 -0.0014825721477827968 -0.023911909437476703 0.0 0.0
0.0 0.1771976376710681 0.15308301350188053 -0.15164919664582777 -0.001433816856052862 -0.022158066964482012 0.0 0.0
0.0 0.18924399273315365 0.16355597081728807 -0.1621853633759652 -0.0013706074413232928 -0.017524790453798747 0.0 0.0
0.0 0.1952772050553309 0.1680450797265476 -0.16707497651469375 -0.0009701032118536293 2.411265631607762e-14 0.0 0.0
0.0 0.18924399273312484 0.16355597081726117 -0.16218536337593803 -0.0013706074413233338 0.01752479045385168 0.0 0.0
0.0 0.1771976376710229 0.15308301350183903 -0.15164919664578794 -0.0014338168560510253 0.022158066964535938 0.0 0.0
0.0 0.16083321922224633 0.1389037667940176 -0.13742119464623437 -0.00148257214778309 0.02391190943750752 0.0 0.0
0.0 0.14211989715472323 0.12272003176057936 -0.1212319463085297 -0.0014880854520496329 0.023698333799070714 0.0 0.0
0.0 0.12256078962049723 0.10588397643115832 -0.10442742106316186 -0.001456555367996451 0.022136550518239567 0.0 0.0
0.0 0.10352615742948351 0.0892914922611252 -0.08789061395961806 -0.0014008783015071644 0.0198323911699901 0.0 0.0
0.0 0.08532312690147084 0.07350238140127612 -0.07217230079789047 -0.0013300806033856782 0.01726370813834311 0.0 0.0
0.0 0.06808665140147492 0.05885057141373097 -0.057601610539386346 -0.0012489608743445192 0.014662878110980323 0.0 0.0
0.0 0.052736892839432975 0.04551782002421701 -0.04435571970680199 -0.0011621003174150976 0.012071197028343245 0.0 0.0
0.0 0.03883555022373835 0.033630476980483465 -0.032552416661310354 -0.0010780603191731027 0.00944929175304474 0.0 0.0
0.0 0.02685230429139825 0.023326391306899875 -0.02232755705243219 -0.00099883425446769 0.006836728261526546 0.0 0.0
0.0 0.01688923828042731 0.014803496531662791 -0.013887758144910835 -0.0009157383867519578 0.004424913475197742 0.0 0.0
0.0 0.009279103830456142 0.00825245217850611 -0.007453872818479538 -0.0007985793600265621 0.002439103391404258 0.0 0.0
0.0 0.004210851341762511 0.003722606668082655 -0.003138464107697473 -0.0005841425603851798 0.0009789807150163133 0.0 0.0
0.0 0.0012581045803877478 0.0011265370512673351 -0.0008652020396034864 -0.0002613350116638486 0.0002238990118959817 0.0 0.0
0.0 0.00013151815112560266 0.00010836196883986707 -7.520144486917051e-05 -3.316052397069635e-05 -4.119023057004072e-06 0.0 0.0
0.0 -4.59111424153077e-06 -4.455040002126047e-06 3.5169330224825334e-06 9.381069796435374e-07 -3.4124236803821136e-06 0.0 0.0
0.0 0.0 0.0 0.0 0.0 0.0 0.0 0.0
0.0 0.0022449504674222675 0.0013504160030162321 -0.0007430902622951607 -0.0006073257407210748 0.00388589436621521 0.0 0.0
0.0 0.009390993762252255 0.00675766560271941 -0.009084902604767282 0.0023272370020478686 0.0035908021154363286 0.0 0.0
0.0 0.0069619682219931745 0.004980499236098033 -0.0068156959008557816 0.0018351966647577535 -0.0030844718491965088 0.0 0.0
0.0 0.0017965551519648238 0.0009027290217498894 -0.00048655825826366013 -0.0004161707634862288 -0.0028343739710785343 0.0 0.0
0.0 0.0 0.0 0.0 0.0 0.0 0.0 0.0
0.0 -7.012533573015006e-07 -1.7885117307512426e-07 1.4612346440626435e-07 3.272770866886118e-08 3.4407765272212e-07 0.0 0.0
0.0 -1.2586680200483668e-06 1.1089372910412065e-05 -4.965409027338093e-06 -6.123963883073878e-06 1.6710761514472036e-05 0.0 0.0
0.0 0.000742263832522103 0.0006322696877391881 -0.00047312898521408237 -0.00015914070252510612 -0.0002157798619011508 0.0 0.0
0.0 0.0031152253138312207 0.002622947713644695 -0.0021511879732955823 -0.0004717597403491061 -0.0010280809602563952 0.0 0.0
0.0 0.007260911542199792 0.006397866979383029 -0.005674198951807323 -0.0007236680275757152 -0.0026856888907395198 0.0 0.0
0.0 0.013840770000034796 0.012014886392719911 -0.011161268588984962 -0.0008536178037349589 -0.005065013345772819 0.0 0.0
0.0 0.022469216210554265 0.019362518891217394 -0.018428540510666377 -0.0009339783805510105 -0.00790558876063387 0.0 0.0
0.0 0.03289179805078327 0.028233197663171533 -0.027226337411419076 -0.001006860251752445 -0.010965510028161566 0.0 0.0
0.0 0.04486488624553961 0.03843278741467926 -0.037348296958990716 -0.001084490455688518 -0.014030082917851659 0.0 0.0
0.0 0.058304278014490875 0.049846265747520574 -0.04868094517960955 -0.0011653205679109729 -0.017060782615983584 0.0 0.0
0.0 0.07273025735663274 0.06240050492359437 -0.06115832501429424 -0.0012421799093001802 -0.02009504531146663 0.0 0.0
0.0 0.08862380148979342 0.07596476805860959 -0.07465560147404514 -0.0013091665845643848 -0.023065375021434294 0.0 0.0
0.0 0.10537464991795875 0.09030758224828506 -0.0889442110466313 -0.001363371201653751 -0.025736052446616527 0.0 0.0
0.0 0.12226085255881787 0.10501552423489668 -0.103616516355863 -0.00139900787903368 -0.027682427561907086 0.0 0.0
0.0 0.13881106000291862 0.11936035722852886 -0.1179566760128412 -0.0014036812156876435 -0.028239007486997984 0.0 0.0
0.0 0.15359114638853744 0.13221220760073635 -0.1308411226952595 -0.0013710849054766978 -0.02633103195460398 0.0 0.0
0.0 0.16489504257102686 0.14212165585667166 -0.14079901613170367 -0.001322639724967873 -0.020475314613297643 0.0 0.0
0.0 0.17116636280561198 0.14670621424278757 -0.14592228332403068 -0.000783930918756859 2.791430281368079e-14 0.0 0.0
0.0 0.16489504257100204 0.14212165585664738 -0.1407990161316793 -0.0013226397249680093 0.020475314613358046 0.0 0.0
0.0 0.1535911463884934 0.1322122076006952 -0.13084112269521864 -0.0013710849054764328 0.0263310319546622 0.0 0.0
0.0 0.13881106000285987 0.11936035722847627 -0.11795667601278921 -0.0014036812156871582 0.028239007487034493 0.0 0.0
0.0 0.12226085255874107 0.10501552423483078 -0.10361651635579722 -0.0013990078790334817 0.027682427561913137 0.0 0.0
0.0 0.1053746499178748 0.09030758224821273 -0.08894421104655831 -0.0013633712016544407 0.025736052446605005 0.0 0.0
0.0 0.0886238014897077 0.07596476805853584 -0.07465560147397104 -0.0013091665845648016 0.023065375021421752 0.0 0.0
0.0 0.07273025735655592 0.062400504923527535 -0.06115832501422834 -0.0012421799092991416 0.02009504531145713 0.0 0.0
0.0 0.05830427801441134 0.049846265747452045 -0.04868094517954131 -0.0011653205679106754 0.01706078261596735 0.0 0.0
0.0 0.044864886245466216 0.038432787414616386 -0.037348296958928086 -0.001084490455688274 0.014030082917829546 0.0 0.0
0.0 0.03289179805071847 0.028233197663116365 -0.027226337411364522 -0.0010068602517518416 0.010965510028137145 0.0 0.0
0.0 0.0224692162105017 0.019362518891172603 -0.01842854051062199 -0.0009339783805505988 0.007905588760613048 0.0 0.0
0.0 0.013840769999998233 0.01201488639268834 -0.011161268588953992 -0.0008536178037343504 0.005065013345759425 0.0 0.0
0.0 0.007260911542173141 0.006397866979359989 -0.005674198951785227 -0.0007236680275747617 0.0026856888907284115 0.0 0.0
0.0 0.00311522531381638 0.0026229477136326344 -0.002151187973285012 -0.0004717597403476213 0.0010280809602510638 0.0 0.0
0.0 0.0007422638325166194 0.0006322696877350832 -0.00047312898521094013 -0.0001591407025241429 0.00021577986189957508 0.0 0.0
0.0 -1.2586680201761921e-06 1.1089372910798051e-05 -4.965409027657386e-06 -6.123963883140793e-06 -1.6710761513786492e-05 0.0 0.0
0.0 -7.012533571903845e-07 -1.7885117318334132e-07 1.461234644898272e-07 3.2727708693507696e-08 -3.440776528586933e-07 0.0 0.0
0.0 0.0 0.0 0.0 0.0 0.0 0.0 0.0
0.0 0.001796555151957266 0.0009027290217461134 -0.00048655825826111865 -0.00041617076348499354 0.0028343739710684126 0.0 0.0
0.0 0.006961968221976094 0.004980499236084614 -0.006815695900838575 0.0018351966647539518 0.0030844718491858255 0.0 0.0
0.0 0.005122503272351585 0.0035517897408670666 -0.004943172072950775 0.0013913823320837067 -0.0024240076016264936 0.0 0.0
0.0 0.0011336922093378823 0.000575189858015267 -0.00030303878015271147 -0.0002721510778625554 -0.001973431132693031 0.0 0.0
0.0 0.0 0.0 0.0 0.0 0.0 0.0 0.0
0.0 -3.40876135666535e-07 9.728415857595596e-08 -7.442977171243003e-08 -2.2854386863525927e-08 -1.6190706359465706e-07 0.0 0.0
0.0 -2.4401983048560654e-05 -1.776545248818759e-05 1.477003635201279e-05 2.995416136174796e-06 2.922401823517029e-05 0.0 0.0
0.0 0.0003188003124174523 0.0002918338779738767 -0.0002126716337184663 -7.916224425541048e-05 -0.00015600555269854033 0.0 0.0
0.0 0.0019197454906152611 0.0016943673583558075 -0.0013497002421648753 -0.000344667116190933 -0.0009647831378337778 0.0 0.0
0.0 0.005635797924247482 0.004635052469309966 -0.004013871959306672 -0.0006211805100032874 -0.0025992411745425275 0.0 0.0
0.0 0.010736221131322245 0.009284019001106017 -0.008505856759110865 -0.0007781622419951593 -0.005156964433091742 0.0 0.0
0.0 0.018172661698230147 0.015433715120800124 -0.014572319864403228 -0.0008613952563968875 -0.008246032032991457 0.0 0.0
0.0 0.026960639531828964 0.022858143137306615 -0.021929233751609076 -0.0009289093856975391 -0.011542876492382191 0.0 0.0
0.0 0.03699730989244296 0.031364031364451095 -0.030363825737515542 -0.0010002056269354973 -0.014841244601209676 0.0 0.0
0.0 0.04817372440393693 0.04085734195741648 -0.03978226521440348 -0.0010750767430130045 -0.018098537017302376 0.0 0.0
0.0 0.06052432807190535 0.05130172801125262 -0.05015578580674494 -0.0011459422045076626 -0.021354613735443236 0.0 0.0
0.0 0.07374286889479817 0.06263676082700857 -0.06142757893035226 -0.001209181896656367 -0.02454439989872479 0.0 0.0
0.0 0.08768403314004229 0.074707632548258 -0.07344550230250636 -0.0012621302457516193 -0.027421775266471198 0.0 0.0
0.0 0.10250882723729021 0.08722280806155042 -0.08592103815478513 -0.0013017699067652067 -0.029618362301911328 0.0 0.0
0.0 0.11681919827472763 0.09969291038496438 -0.09837082096057494 -0.0013220894243895223 -0.030520534273672413 0.0 0.0
0.0 0.12991563407625387 0.11128587155081249 -0.10997728257542617 -0.0013085889753863438 -0.028825391977548593 0.0 0.0
0.0 0.14072214801180466 0.1207911513159894 -0.11952330250967932 -0.0012678488063100478 -0.022561574229307452 0.0 0.0
0.0 0.14744542321277568 0.12558778702614132 -0.12502018258114686 -0.0005676044449943167 2.7819760384240055e-14 0.0 0.0
0.0 0.1407221480117848 0.12079115131596826 -0.11952330250965733 -0.0012678488063109221 0.02256157422937111 0.0 0.0
0.0 0.1299156340762138 0.11128587155077442 -0.10997728257538757 -0.001308588975386949 0.02882539197761084 0.0 0.0
0.0 0.11681919827467722 0.09969291038491868 -0.09837082096052918 -0.001322089424389342 0.030520534273711097 0.0 0.0
0.0 0.10250882723722357 0.0872228080614933 -0.08592103815472807 -0.001301769906765205 0.02961836230191657 0.0 0.0
0.0 0.08768403313997117 0.07470763254819715 -0.07344550230244493 -0.0012621302457523063 0.02742177526645905 0.0 0.0
0.0 0.07374286889472802 0.06263676082694844 -0.061427578930292034 -0.0012091818966563713 0.024544399898710465 0.0 0.0
0.0 0.06052432807184003 0.05130172801119563 -0.05015578580668841 -0.001145942204507249 0.02135461373543174 0.0 0.0
0.0 0.04817372440387236 0.04085734195736146 -0.039782265214348966 -0.0010750767430124973 0.018098537017286066 0.0 0.0
0.0 0.03699730989238104 0.031364031364398526 -0.03036382573746352 -0.001000205626934981 0.014841244601187164 0.0 0.0
0.0 0.026960639531772867 0.022858143137260107 -0.02192923375156308 -0.0009289093856970371 0.011542876492354644 0.0 0.0
0.0 0.0181726616981852 0.015433715120762177 -0.014572319864365734 -0.0008613952563964242 0.008246032032968115 0.0 0.0
0.0 0.010736221131291223 0.009284019001079126 -0.008505856759084775 -0.0007781622419943624 0.005156964433076914 0.0 0.0
0.0 0.005635797924224894 0.004635052469291865 -0.00401387195928948 -0.0006211805100023828 0.002599241174531654 0.0 0.0
0.0 0.0019197454906035752 0.0016943673583464495 -0.0013497002421570179 -0.0003446671161894319 0.0009647831378276594 0.0 0.0
0.0 0.0003188003124136116 0.00029183387797110296 -0.00021267163371641184 -7.916224425469061e-05 0.00015600555269702882 0.0 0.0
0.0 -2.4401983048986214e-05 -1.776545248771915e-05 1.4770036351646361e-05 2.995416136072762e-06 -2.92240182346099e-05 0.0 0.0
0.0 -3.4087613550016414e-07 9.728415857930998e-08 -7.44297717149276e-08 -2.285438686437923e-08 1.6190706359338788e-07 0.0 0.0
0.0 0.0 0.0 0.0 0.0 0.0 0.0 0.0
0.0 0.0011336922093317695 0.0005751898580123992 -0.00030303878015078387 -0.00027215107786161466 0.001973431132684861 0.0 0.0
0.0 0.005122503272338192 0.0035517897408564847 -0.0049431720729368606 0.001391382332080371 0.002424007601619255 0.0 0.0
0.0 0.003464859165227134 0.0024120136773687567 -0.003407796597287507 0.0009957829199187457 -0.0018160594711878122 0.0 0.0
0.0 0.0007236584335585639 0.0003249454784119809 -0.00015802921870847696 -0.00016691625970350352 -0.0012622741621758742 0.0 0.0
0.0 1.3280241357300783e-07 1.2283212121831877e-09 -6.332324433825165e-10 -5.95088768801013e-10 2.7729622737903038e-08 0.0 0.0
0.0 1.8886392966488113e-07 5.5553120535225025e-09 -5.29866168772279e-09 -2.5665036580239643e-10 4.42336430382282e-08 0.0 0.0
0.0 -1.60607511981483e-05 -1.053791214956134e-05 8.430774054788193e-06 2.107138094773198e-06 2.194607546990241e-05 0.0 0.0
0.0 8.936736670369877e-05 7.859878419604577e-05 -5.4285244851854625e-05 -2.4313539344191235e-05 -5.4229504250578845e-05 0.0 0.0
0.0 0.0011350955208963335 0.0009326740785936663 -0.0007228955977448216 -0.0002097784808488447 -0.0007647501035714408 0.0 0.0
0.0 0.003644014056181707 0.003067603019945503 -0.0025803004444216156 -0.00048730257552388696 -0.0023059268717443215 0.0 0.0
0.0 0.008297702827684241 0.006651625908187926 -0.005973792218523006 -0.0006778336896649203 -0.004726331939217053 0.0 0.0
0.0 0.01381286805949496 0.01158517977741284 -0.010810174756973628 -0.0007750050204392116 -0.007835101697144683 0.0 0.0
0.0 0.02110099289646137 0.017549017178779984 -0.0167077332478635 -0.0008412839309164981 -0.011165769344598842 0.0 0.0
0.0 0.029234213598410958 0.02435532051640204 -0.023448772227667405 -0.0009065482887346387 -0.014493339573621094 0.0 0.0
0.0 0.038221740348133984 0.03192734083604829 -0.0309526729624222 -0.0009746678736260625 -0.01776478126053128 0.0 0.0
0.0 0.048098782944522966 0.04026385811381189 -0.03922374488272957 -0.0010401132310823747 -0.021028580732812642 0.0 0.0
0.0 0.058789179083549505 0.04935730436956429 -0.048258677675032335 -0.0010986266945318972 -0.024234265068030416 0.0 0.0
0.0 0.07050850836797061 0.05912598199555062 -0.05797844641088824 -0.001147535584662438 -0.02715737259390334 0.0 0.0
0.0 0.08213658112210923 0.06939956440224296 -0.06820721211377354 -0.0011923522884694866 -0.02944866149657394 0.0 0.0
0.0 0.09450035045444466 0.0799091525174483 -0.07867705977003915 -0.0012320927474089999 -0.030645825410294085 0.0 0.0
0.0 0.10643189392650322 0.09020270389765662 -0.0889608809255554 -0.0012418229721013615 -0.02952911591548508 0.0 0.0
0.0 0.1166856897722429 0.09937876834318984 -0.0981702264363247 -0.001208541906865185 -0.023757934215691157 0.0 0.0
0.0 0.12411977424486426 0.1044877303775045 -0.10416701382051233 -0.00032071655699228365 2.6669638719667432e-14 0.0 0.0
0.0 0.11668568977223205 0.09937876834317541 -0.09817022643631 -0.0012085419068654203 0.023757934215755738 0.0 0.0
0.0 0.10643189392647293 0.0902027038976257 -0.08896088092552483 -0.0012418229721009456 0.029529115915547504 0.0 0.0
0.0 0.09450035045440038 0.07990915251740766 -0.07867705976999821 -0.0012320927474094808 0.030645825410330976 0.0 0.0
0.0 0.08213658112205746 0.06939956440219883 -0.06820721211372939 -0.0011923522884694187 0.029448661496578786 0.0 0.0
0.0 0.07050850836791436 0.05912598199550269 -0.05797844641084013 -0.0011475355846625986 0.02715737259389036 0.0 0.0
0.0 0.05878917908349522 0.04935730436951691 -0.048258677674986046 -0.0010986266945308659 0.024234265068015896 0.0 0.0
0.0 0.04809878294446906 0.040263858113765406 -0.039223744882683306 -0.0010401132310820824 0.021028580732800187 0.0 0.0
0.0 0.038221740348084884 0.03192734083600675 -0.03095267296238134 -0.0009746678736254366 0.017764781260516394 0.0 0.0
0.0 0.02923421359836136 0.02435532051636108 -0.0234487722276264 -0.0009065482887347033 0.014493339573598982 0.0 0.0
0.0 0.021100992896418064 0.017549017178745026 -0.016707733247828833 -0.0008412839309161908 0.011165769344572734 0.0 0.0
0.0 0.013812868059460621 0.01158517977738489 -0.010810174756945765 -0.0007750050204391269 0.007835101697122409 0.0 0.0
0.0 0.008297702827654383 0.006651625908164474 -0.00597379221850034 -0.0006778336896641342 0.0047263319392006 0.0 0.0
0.0 0.0036440140561656083 0.0030676030199325247 -0.0025803004444097813 -0.00048730257552273955 0.0023059268717350832 0.0 0.0
0.0 0.001135095520887418 0.0009326740785873258 -0.0007228955977396238 -0.00020977848084770186 0.0007647501035655248 0.0 0.0
0.0 8.936736670155232e-05 7.859878419492011e-05 -5.428524485107126e-05 -2.4313539343849007e-05 5.422950424970861e-05 0.0 0.0
0.0 -1.6060751198662477e-05 -1.053791214947517e-05 8.430774054716368e-06 2.1071380947588048e-06 -2.1946075469667638e-05 0.0 0.0
0.0 1.8886392936387066e-07 5.555312058308123e-09 -5.298661690557003e-09 -2.566503677498569e-10 -4.4233642975248056e-08 0.0 0.0
0.0 1.3280241334748477e-07 1.228321212838292e-09 -6.332324442260281e-10 -5.950887686122834e-10 -2.7729622690830337e-08 0.0 0.0
0.0 0.0007236584335537349 0.0003249454784099792 -0.00015802921870714364 -0.00016691625970283503 0.0012622741621696354 0.0 0.0
0.0 0.0034648591652165764 0.002412013677360517 -0.00340779659727637 0.0009957829199158516 0.001816059471182463 0.0 0.0
0.0 0.0026106445538270225 0.0014807066849313426 -0.0021211878373136083 0.0006404811523822658 -0.0012478834672880654 0.0 0.0
0.0 0.00031324416524559586 0.00015178622559351642 -6.043433318001511e-05 -9.135189241350137e-05 -0.0007107211021456309 0.0 0.0
0.0 9.475440752138084e-07 5.4758093670571705e-08 -5.542827516553073e-08 6.701814949598063e-10 -1.1032401457903094e-06 0.0 0.0
0.0 -8.270572778547272e-07 4.553748423798163e-08 -3.5144054670884205e-08 -1.0393429567098093e-08 -2.9698908331550545e-07 0.0 0.0
0.0 -8.168147726312608e-06 -5.278976285314975e-06 4.192216169042762e-06 1.086760116272211e-06 1.7660688424837177e-05 0.0 0.0
0.0 -6.967622667061601e-06 -2.669637842250757e-06 4.27533306817004e-06 -1.605695225919314e-06 1.330500503631107e-05 0.0 0.0
0.0 0.0005175090359280057 0.0003877537461793743 -0.0002940975341777559 -9.365621200161785e-05 -0.0004891655865703934 0.0 0.0
0.0 0.0021448127370283987 0.0017195153634317981 -0.0014013688634950572 -0.0003181464999367407 -0.0018040825688063842 0.0 0.0
0.0 0.005315793720000651 0.004241088750264082 -0.003704773300697427 -0.0005363154495666577 -0.003914899221453984 0.0 0.0
0.0 0.010068703687794132 0.00787095931803692 -0.007210584171152192 -0.0006603751468847172 -0.006695138814020004 0.0 0.0
0.0 0.015344196116498643 0.0123552119833017 -0.01162147895006283 -0.0007337330332388577 -0.009816892045323326 0.0 0.0
0.0 0.021498245174643417 0.01746053909925069 -0.016663867256850116 -0.000796671842400596 -0.012954689145760857 0.0 0.0
0.0 0.02836400941646173 0.02311462668700915 -0.022256030421281155 -0.0008585962657279733 -0.016035244288286454 0.0 0.0
0.0 0.03584029338473555 0.029340849603422918 -0.02842393407532686 -0.000916915528096018 -0.019091872191466703 0.0 0.0
0.0 0.04410920588203452 0.03618187124036667 -0.03521105776432587 -0.0009708134760407999 -0.022111375327719986 0.0 0.0
0.0 0.05292850657409339 0.04363428083613569 -0.042617115963093456 -0.0010171648730421944 -0.024910138530545217 0.0 0.0
0.0 0.062488174535441414 0.05160607263312151 -0.05054559588489553 -0.001060476748225994 -0.02714174570947258 0.0 0.0
0.0 0.07221575106424599 0.06003242825276937 -0.058914457191839964 -0.0011179710609293312 -0.028467880888528387 0.0 0.0
0.0 0.08219134094467635 0.06887795795313839 -0.06771326320776792 -0.001164694745370374 -0.0281814426105648 0.0 0.0
0.0 0.09221859036252544 0.07768756041527015 -0.07653935861306176 -0.0011482018022083934 -0.02389456425890406 0.0 0.0
0.0 0.10072119862505183 0.0831930618785523 -0.08315406025553107 -3.900162302129134e-05 2.3277386962394786e-14 0.0 0.0
0.0 0.09221859036251936 0.07768756041525868 -0.07653935861305006 -0.0011482018022085586 0.023894564258962872 0.0 0.0
0.0 0.08219134094465164 0.06887795795311157 -0.0677132632077405 -0.0011646947453710732 0.028181442610624843 0.0 0.0
0.0 0.07221575106421331 0.060032428252738766 -0.05891445719180941 -0.001117971060929319 0.028467880888562266 0.0 0.0
0.0 0.06248817453540233 0.05160607263308831 -0.05054559588486334 -0.0010604767482249294 0.027141745709475244 0.0 0.0
0.0 0.052928506574048434 0.04363428083609821 -0.04261711596305604 -0.0010171648730422406 0.024910138530530045 0.0 0.0
0.0 0.044109205881992845 0.036181871240331356 -0.03521105776429085 -0.0009708134760404655 0.022111375327705175 0.0 0.0
0.0 0.035840293384695104 0.02934084960338846 -0.028423934075292902 -0.0009169155280955708 0.01909187219145431 0.0 0.0
0.0 0.028364009416421643 0.02311462668697596 -0.022256030421248473 -0.0008585962657274761 0.01603524428827149 0.0 0.0
0.0 0.02149824517460739 0.017460539099221222 -0.0166638672568209 -0.0007966718424003178 0.012954689145741693 0.0 0.0
0.0 0.015344196116467321 0.012355211983277273 -0.011621478950039156 -0.0007337330332381054 0.009816892045300842 0.0 0.0
0.0 0.010068703687771303 0.007870959318019472 -0.007210584171134912 -0.0006603751468845584 0.006695138814002969 0.0 0.0
0.0 0.005315793719980351 0.004241088750248361 -0.003704773300682632 -0.0005363154495657327 0.003914899221440363 0.0 0.0
0.0 0.0021448127370172427 0.0017195153634232715 -0.0014013688634875873 -0.0003181464999356839 0.0018040825687982522 0.0 0.0
0.0 0.0005175090359231303 0.00038775374617599546 -0.00029409753417513197 -9.365621200086318e-05 0.0004891655865661423 0.0 0.0
0.0 -6.96762266799186e-06 -2.6696378422724592e-06 4.275333068175884e-06 -1.605695225903372e-06 -1.3305005036127494e-05 0.0 0.0
0.0 -8.168147727977038e-06 -5.278976285224537e-06 4.192216168975027e-06 1.0867601162494913e-06 -1.7660688424709227e-05 0.0 0.0
0.0 -8.270572780665977e-07 4.553748424458149e-08 -3.514405467534316e-08 -1.039342956923838e-08 2.9698908342198215e-07 0.0 0.0
0.0 9.475440750140093e-07 5.475809370020813e-08 -5.542827519527327e-08 6.701814950656053e-10 1.1032401464142711e-06 0.0 0.0
0.0 0.00031324416524258194 0.00015178622559228232 -6.043433317923801e-05 -9.13518924130444e-05 0.0007107211021409938 0.0 0.0
0.0 0.0026106445538173293 0.0014807066849253172 -0.0021211878373052126 0.0006404811523798951 0.0012478834672840437 0.0 0.0
0.0 0.0013612425330249154 0.0008184946621128038 -0.0011885109688366876 0.0003700163067238836 -0.0008342612622642777 0.0 0.0
0.0 0.00011108403489556603 3.8474840421117645e-05 6.9331656716982055e-06 -4.540800609281567e-05 -0.0002963409299465086 0.0 0.0
0.0 1.8971911682291268e-06 -1.724603967442995e-09 1.0218421646789863e-08 -8.493817679345965e-09 6.650964462388578e-07 0.0 0.0
0.0 1.1687503518557478e-06 -1.3555469393575493e-07 9.830259429792465e-08 3.725209963783014e-08 1.3456819316645432e-06 0.0 0.0
0.0 -7.734723556861478e-06 -2.5515496280396726e-06 2.0302527601816746e-06 5.212968678579976e-07 1.2854112861903592e-05 0.0 0.0
0.0 -2.118172145114597e-05 -9.313695899166226e-06 8.00129883438273e-06 1.3123970647835278e-06 1.928789096906498e-05 0.0 0.0
0.0 0.00017629615079186716 8.444163312306556e-05 -6.335293624962717e-05 -2.108869687343876e-05 -0.00021388073352202825 0.0 0.0
0.0 0.0010616758783985691 0.0006699960641660816 -0.0005353521818782127 -0.00013464388228786887 -0.0011290249926045348 0.0 0.0
0.0 0.002931591118428431 0.002117597365190474 -0.0017921954227813407 -0.00032540194240913143 -0.0027846692801315053 0.0 0.0
0.0 0.005992220930464387 0.004422618887887887 -0.003941836787121677 -0.00048078210076621456 -0.004972451367108622 0.0 0.0
0.0 0.009631425773342042 0.0073725991028332225 -0.006794434975899349 -0.000578164126933876 -0.0075490835920153 0.0 0.0
0.0 0.01395239830928011 0.010754340147831904 -0.010108368247684896 -0.0006459719001470063 -0.010222559465499182 0.0 0.0
0.0 0.0186513155184444 0.014493647161706978 -0.013787725019342202 -0.0007059221423647745 -0.012908272527209927 0.0 0.0
0.0 0.023779683785390474 0.01861594967104545 -0.017858147736025738 -0.0007578019350197299 -0.015572838459206418 0.0 0.0
0.0 0.02947964130450592 0.023194170310366226 -0.022387943487981583 -0.0008062268223846385 -0.018202426210074053 0.0 0.0
0.0 0.03580791800285875 0.028301470944210948 -0.027449437029324085 -0.0008520339148868617 -0.02072133357553936 0.0 0.0
0.0 0.042675622268662367 0.03395145516639173 -0.033055708634294426 -0.0008957465320973022 -0.022841305075571246 0.0 0.0
0.0 0.049870221522519506 0.04016936300998804 -0.03921540789884041 -0.0009539551111476671 -0.0241460941184475 0.0 0.0
0.0 0.05801426760477372 0.047262637096845174 -0.04621910818340527 -0.0010435289134398985 -0.02443117817411471 0.0 0.0
0.0 0.06759904677072394 0.05548610120877863 -0.05440284785375372 -0.0010832533550249102 -0.022507025569324622 0.0 0.0
0.0 0.07734457263474181 0.06145307693039271 -0.061733580750644654 0.0002805038202518462 2.274829630222186e-14 0.0 0.0
0.0 0.06759904677072098 0.05548610120876905 -0.0544028478537432 -0.0010832533550258446 0.0225070255693763 0.0 0.0
0.0 0.05801426760476273 0.04726263709682981 -0.04621910818339014 -0.0010435289134396366 0.024431178174170735 0.0 0.0
0.0 0.04987022152249759 0.040169363009967735 -0.039215407898820276 -0.0009539551111474675 0.024146094118474966 0.0 0.0
0.0 0.04267562226863461 0.03395145516636989 -0.03305570863427335 -0.0008957465320965542 0.022841305075569265 0.0 0.0
0.0 0.03580791800282926 0.028301470944187383 -0.027449437029300305 -0.0008520339148870371 0.020721333575524165 0.0 0.0
0.0 0.029479641304477305 0.023194170310342686 -0.022387943487958212 -0.0008062268223844732 0.018202426210061705 0.0 0.0
0.0 0.02377968378536261 0.018615949671022376 -0.017858147736002906 -0.0007578019350194836 0.01557283845919634 0.0 0.0
0.0 0.01865131551841753 0.01449364716168575 -0.013787725019321165 -0.0007059221423645755 0.012908272527196903 0.0 0.0
0.0 0.013952398309254214 0.0107543401478125 -0.010108368247665847 -0.0006459719001466418 0.010222559465481977 0.0 0.0
0.0 0.009631425773319973 0.007372599102816944 -0.0067944349758835496 -0.0005781641269333896 0.007549083591996153 0.0 0.0
0.0 0.005992220930448392 0.004422618887876374 -0.003941836787110891 -0.0004807821007654865 0.004972451367095299 0.0 0.0
0.0 0.0029315911184174164 0.002117597365182585 -0.0017921954227741223 -0.00032540194240846074 0.00278466928012288 0.0 0.0
0.0 0.0010616758783924018 0.000669996064162105 -0.0005353521818749131 -0.00013464388228719235 0.0011290249925987917 0.0 0.0
0.0 0.00017629615078800482 8.444163312190474e-05 -6.335293624872583e-05 -2.1088696873178814e-05 0.0002138807335189436 0.0 0.0
0.0 -2.1181721451549732e-05 -9.313695898786374e-06 8.001298834095126e-06 1.3123970646912075e-06 -1.9287890967682987e-05 0.0 0.0
0.0 -7.734723556575445e-06 -2.5515496278916912e-06 2.0302527600692513e-06 5.212968678224526e-07 -1.2854112860631813e-05 0.0 0.0
0.0 1.1687503515139833e-06 -1.355546939617502e-07 9.830259432223911e-08 3.7252099639511937e-08 -1.3456819315050636e-06 0.0 0.0
0.0 1.8971911680780657e-06 -1.7246039536205191e-09 1.0218421627080922e-08 -8.493817673459999e-09 -6.650964457722973e-07 0.0 0.0
0.0 0.00011108403489270829 3.847484042044987e-05 6.9331656720956545e-06 -4.540800609254518e-05 0.00029634092994363476 0.0 0.0
0.0 0.001361242533018323 0.0008184946621090323 -0.0011885109688312434 0.0003700163067222099 0.000834261262261555 0.0 0.0
0.0 0.0006568315576167466 0.0003515745042421203 -0.0005153051381072194 0.00016373063386509955 -0.0004422929308341367 0.0 0.0
0.0 -1.1267363236350478e-05 -1.3647923627117993e-05 3.2691979012338106e-05 -1.9044055385220186e-05 -4.2054627095141264e-05 0.0 0.0
0.0 3.104143158748692e-06 4.823850387353219e-08 -1.0919897179916084e-07 6.09604679256291e-08 -3.3310488497749615e-06 0.0 0.0
0.0 1.443726569626529e-06 -1.1437726552890922e-07 1.0271974221299729e-07 1.1657523315910041e-08 -2.062186206020731e-06 0.0 0.0
0.0 -5.141827414710546e-06 -1.0938688975061142e-06 9.178521425901776e-07 1.7601675491594433e-07 8.935825265504373e-06 0.0 0.0
0.0 -4.857581006359777e-06 -4.118283559947214e-06 3.547581722862218e-06 5.707018370849622e-07 1.2069814762583382e-05 0.0 0.0
0.0 7.126476184288407e-05 4.758102330661175e-06 -3.303376892634093e-06 -1.4547254380269994e-06 -0.0001014462665394856 0.0 0.0
0.0 0.00033073428733751333 8.840992922055777e-05 -7.440481633049634e-05 -1.4005112890061537e-05 -0.0005020729443112568 0.0 0.0
0.0 0.0010510424012197953 0.00046881675325908113 -0.00041250095213160137 -5.631580112747938e-05 -0.0014495959487679977 0.0 0.0
0.0 0.0024774947878017004 0.0013885247481785665 -0.0012476711776595517 -0.0001408535705190146 -0.0029457743438437577 0.0 0.0
0.0 0.004621485532993628 0.0027715102975444947 -0.002534604453029529 -0.0002369058445149628 -0.004754116392950442 0.0 0.0
0.0 0.006863997027424936 0.00441233240401572 -0.004092922842708033 -0.0003194095613076904 -0.00676620497049264 0.0 0.0
0.0 0.009499652864007283 0.006234339149781435 -0.005846107497854781 -0.00038823165192664586 -0.008894754645478517 0.0 0.0
0.0 0.012441864809343799 0.008263843122971806 -0.0078182081357685 -0.00044563498720330726 -0.011092899879330308 0.0 0.0
0.0 0.015711115857759923 0.010578442268459859 -0.010078679496745473 -0.0004997627717143871 -0.01335000459411976 0.0 0.0
0.0 0.01945443931255349 0.013303974840413539 -0.012747871259148063 -0.0005561035812654806 -0.015635684495982047 0.0 0.0
0.0 0.023835447467214433 0.016594035502916916 -0.015977571892635947 -0.0006164636102809705 -0.017761393752143508 0.0 0.0
0.0 0.028883819672541472 0.020579085372065972 -0.01990119109485004 -0.0006778942772159289 -0.019198773499605366 0.0 0.0
0.0 0.034689533527698296 0.025585607284962536 -0.024812679090093312 -0.0007729281948692267 -0.019462977134336687 0.0 0.0
0.0 0.04253924487699536 0.03261753238019785 -0.03167518147461522 -0.0009423509055825806 -0.019131661676981545 0.0 0.0
0.0 0.0550840512265202 0.038968513389239456 -0.039621289633210814 0.0006527762439713974 1.6285583992470265e-14 0.0 0.0
0.0 0.04253924487700243 0.03261753238019554 -0.03167518147461249 -0.0009423509055831057 0.01913166167702502 0.0 0.0
0.0 0.03468953352769467 0.02558560728495427 -0.02481267909008563 -0.0007729281948686533 0.019462977134379715 0.0 0.0
0.0 0.028883819672526314 0.020579085372054128 -0.019901191094838237 -0.0006778942772158841 0.019198773499621916 0.0 0.0
0.0 0.02383544746719638 0.016594035502906286 -0.015977571892626247 -0.0006164636102800759 0.017761393752137946 0.0 0.0
0.0 0.019454439312539797 0.01330397484040472 -0.012747871259139001 -0.0005561035812657086 0.01563568449596932 0.0 0.0
0.0 0.015711115857743395 0.010578442268447969 -0.010078679496733089 -0.0004997627717148852 0.01335000459410842 0.0 0.0
0.0 0.012441864809330589 0.00826384312296351 -0.007818208135759957 -0.0004456349872035562 0.011092899879322028 0.0 0.0
0.0 0.009499652863994798 0.00623433914977378 -0.005846107497847579 -0.00038823165192621175 0.008894754645469544 0.0 0.0
0.0 0.006863997027410566 0.00441233240400762 -0.00409292284269968 -0.0003194095613079383 0.0067662049704779615 0.0 0.0
0.0 0.004621485532980689 0.0027715102975371456 -0.0025346044530225125 -0.0002369058445146314 0.004754116392936492 0.0 0.0
0.0 0.002477494787791279 0.0013885247481724566 -0.0012476711776538596 -0.00014085357051859697 0.0029457743438335805 0.0 0.0
0.0 0.0010510424012154952 0.0004688167532567531 -0.0004125009521295943 -5.631580112715808e-05 0.001449595948762687 0.0 0.0
0.0 0.0003307342873343321 8.8409929219561e-05 -7.44048163296263e-05 -1.4005112889934638e-05 0.0005020729443070047 0.0 0.0
0.0 7.12647618412915e-05 4.75810233058265e-06 -3.303376892556022e-06 -1.4547254380266284e-06 0.00010144626653844083 0.0 0.0
0.0 -4.857581006515015e-06 -4.118283559646943e-06 3.547581722626163e-06 5.70701837020783e-07 -1.206981476061375e-05 0.0 0.0
0.0 -5.141827414686581e-06 -1.0938688974877923e-06 9.178521425813446e-07 1.760167549064441e-07 -8.935825264845819e-06 0.0 0.0
0.0 1.443726569615256e-06 -1.1437726554799797e-07 1.0271974223164255e-07 1.1657523316356108e-08 2.0621862067976718e-06 0.0 0.0
0.0 3.104143158707797e-06 4.8238503881666116e-08 -1.0919897181952039e-07 6.096046793785075e-08 3.3310488506308163e-06 0.0 0.0
0.0 -1.1267363237678054e-05 -1.3647923627247869e-05 3.269197901235029e-05 -1.9044055385102347e-05 4.20546270939586e-05 0.0 0.0
0.0 0.0006568315576124512 0.00035157450424004913 -0.0005153051381041921 0.0001637306338641425 0.00044229293083205586 0.0 0.0
0.0 0.00015763912697877317 9.038513100138216e-05 -0.00013478282169521205 4.439769069382984e-05 -0.00014354254651472836 0.0 0.0
0.0 -2.3697511929195883e-05 -1.3515045698315553e-05 1.931645136668933e-05 -5.801405668373757e-06 2.3666056751216147e-05 0.0 0.0
0.0 3.3664549231574875e-06 1.614012122574707e-07 -1.340493850214738e-07 -2.7351827236000776e-08 3.043611401076017e-06 0.0 0.0
0.0 3.108495440482385e-06 -2.808381638189316e-07 2.3144943374062335e-07 4.938873007831079e-08 -3.6502216347475122e-06 0.0 0.0
0.0 -2.061924775151612e-07 -4.063174256392759e-07 3.976013216535305e-07 8.716103985742742e-09 1.9118469121191703e-06 0.0 0.0
0.0 4.282379225488359e-06 -1.2634281418638865e-06 1.305877355220889e-06 -4.244921335700348e-08 2.4025296876876087e-07 0.0 0.0
0.0 7.667076164550545e-05 -1.9188422086399787e-06 1.9152280029262094e-06 3.6142057137639574e-09 -0.00010917355275889004 0.0 0.0
0.0 0.00020211894992277593 -1.4562399102445357e-06 1.4303945416247832e-06 2.584536861978011e-08 -0.00034872788212247376 0.0 0.0
0.0 0.00045655994043451595 -3.1204072355479065e-07 2.8087813903815517e-07 3.1162584516614314e-08 -0.0007282203194088976 0.0 0.0
0.0 0.0007632486125550492 3.3434773654691463e-08 -1.7181713055311747e-08 -1.6253060599620274e-08 -0.001478299234847097 0.0 0.0
0.0 0.0014527658955278853 1.6338497465360102e-07 -1.6581266970138592e-07 2.427695047893313e-09 -0.0027588594626037823 0.0 0.0
0.0 0.00241747551237151 -8.411440784682027e-06 1.0821010141352978e-05 -2.409569356670978e-06 -0.004573990768951804 0.0 0.0
0.0 0.0037128362263256446 -2.503402718422444e-05 2.8924778042676994e-05 -3.890750858451009e-06 -0.006542686740539233 0.0 0.0
0.0 0.005189466836050223 -3.424134063292829e-05 3.558356741817034e-05 -1.3422267852413448e-06 -0.00861920808895396 0.0 0.0
0.0 0.006823115413626055 3.6035111455544246e-05 -4.7748988150458395e-05 1.1713876694913634e-05 -0.010811978575850116 0.0 0.0
0.0 0.0085721237837104 0.000348150916476421 -0.00038747172153192147 3.932080505549828e-05 -0.013114107180956947 0.0 0.0
0.0 0.010477410369376544 0.001171902697011473 -0.0012586849379670403 8.678224095557069e-05 -0.0154503941668495 0.0 0.0
0.0 0.012465269970743481 0.002748405758153023 -0.0029526988120309313 0.00020429305387790147 -0.017607720375885656 0.0 0.0
0.0 0.015184996504583024 0.004772638027362409 -0.005162340421266776 0.00038970239390437333 -0.019173113675394354 0.0 0.0
0.0 0.021937524333978276 0.00941398562262788 -0.009152282437167158 -0.00026170318546072513 -0.019795638965794914 0.0 0.0
0.0 0.03910683466579332 0.016491936841632384 -0.01773876167032048 0.001246824828688095 1.2868178744795955e-14 0.0 0.0
0.0 0.02193752433398897 0.009413985622630057 -0.00915228243716878 -0.0002617031854612565 0.019795638965821725 0.0 0.0
0.0 0.01518499650457474 0.004772638027357714 -0.005162340421261953 0.0003897023939042319 0.019173113675403877 0.0 0.0
0.0 0.012465269970730027 0.0027484057581520084 -0.0029526988120314214 0.00020429305387941366 0.017607720375883887 0.0 0.0
0.0 0.010477410369363642 0.0011719026970130175 -0.0012586849379693005 8.678224095628453e-05 0.01545039416683576 0.0 0.0
0.0 0.008572123783705716 0.0003481509164781502 -0.0003874717215335043 3.9320805055352375e-05 0.013114107180946286 0.0 0.0
0.0 0.006823115413617065 3.603511145695783e-05 -4.7748988151588134e-05 1.1713876694632473e-05 0.010811978575839295 0.0 0.0
0.0 0.005189466836044401 -3.424134062925534e-05 3.5583567414196305e-05 -1.342226784940316e-06 0.008619208088945115 0.0 0.0
0.0 0.0037128362263133853 -2.5034027180377203e-05 2.8924778038296004e-05 -3.890750857917771e-06 0.006542686740523569 0.0 0.0
0.0 0.002417475512363686 -8.411440782209124e-06 1.082101013860111e-05 -2.4095693563931647e-06 0.004573990768941277 0.0 0.0
0.0 0.0014527658955193028 1.633849758037769e-07 -1.6581267110344906e-07 2.427695299909332e-09 0.0027588594625910763 0.0 0.0
0.0 0.0007632486125529162 3.343477376515811e-08 -1.7181713084327708e-08 -1.625306068054919e-08 0.0014782992348454558 0.0 0.0
0.0 0.00045655994043253376 -3.120407235604353e-07 2.8087813905820443e-07 3.1162584502025865e-08 0.0007282203194055605 0.0 0.0
0.0 0.0002021189499210304 -1.4562399102455335e-06 1.4303945416716754e-06 2.584536857383355e-08 0.00034872788211939853 0.0 0.0
0.0 7.667076164466092e-05 -1.918842208623019e-06 1.915228002905841e-06 3.6142057172160666e-09 0.00010917355275911812 0.0 0.0
0.0 4.282379224486803e-06 -1.2634281418570207e-06 1.3058773552141964e-06 -4.2449213357185446e-08 -2.4025296872984733e-07 0.0 0.0
0.0 -2.0619247841988425e-07 -4.0631742568096486e-07 3.9760132169373697e-07 8.716103987231511e-09 -1.9118469110317676e-06 0.0 0.0
0.0 3.108495440485639e-06 -2.8083816387494234e-07 2.314494337900299e-07 4.9388730084912134e-08 3.650221635506735e-06 0.0 0.0
0.0 3.3664549223595003e-06 1.6140121224898735e-07 -1.3404938502104565e-07 -2.7351827227932953e-08 -3.0436114004362324e-06 0.0 0.0
0.0 -2.3697511929025806e-05 -1.3515045697971711e-05 1.931645136625173e-05 -5.801405668280051e-06 -2.3666056749787388e-05 0.0 0.0
0.0 0.00015763912697652483 9.038513100064735e-05 -0.00013478282169416864 4.439769069352147e-05 0.00014354254651359317 0.0 0.0
0.0 4.507395190188643e-06 1.019880070849557e-06 -2.0131254558827823e-06 9.932453850331883e-07 -9.492905803388334e-07 0.0 0.0
0.0 -9.129427057100783e-07 -2.503010338755372e-07 4.180182413560401e-07 -1.6771720748050292e-07 1.983087922697112e-06 0.0 0.0
0.0 9.948282241136963e-07 1.3928767253140586e-07 -1.9721706952104956e-07 5.792939698964323e-08 -1.8190206121582112e-06 0.0 0.0
0.0 5.2310020198368095e-06 -3.2734234654491197e-07 2.5351307678537227e-07 7.382926975954023e-08 -4.564762626776617e-06 0.0 0.0
0.0 3.0145153844680353e-06 -5.760342787801257e-07 5.451200376250237e-07 3.0914241155102124e-08 -5.101385047810475e-06 0.0 0.0
0.0 6.185720078593944e-06 -1.074079982996379e-06 1.2206059469639866e-06 -1.4652596396755782e-07 -1.5654016679803995e-05 0.0 0.0
0.0 0.00010175093174836848 -1.0654254012015355e-05 8.804553642555392e-06 1.8497003694598633e-06 -0.00011850627882805734 0.0 0.0
0.0 0.00034698476376302797 -9.482145072784556e-05 8.006085805754113e-05 1.4760592670304453e-05 -0.0005181866594010246 0.0 0.0
0.0 0.001055854625962247 -0.0004709779421914461 0.0004143088222634589 5.666911992798736e-05 -0.0014577265536331718 0.0 0.0
0.0 0.0024758791886552215 -0.0013877564141290938 0.0012469328211504736 0.00014082359297861992 -0.0029458257920796154 0.0 0.0
0.0 0.004636592205485924 -0.0027749538298628054 0.0025376217346583393 0.00023733209520446376 -0.004752398414782937 0.0 0.0
0.0 0.006906343167946121 -0.0044404124453187935 0.004117554076538875 0.0003228583687799184 -0.0067730036847791055 0.0 0.0
0.0 0.009572290679871389 -0.006300586805207409 0.00590802837263312 0.0003925584325742827 -0.008899729952601097 0.0 0.0
0.0 0.012506800976157428 -0.008333500676462186 0.007891326945385857 0.0004421737310763377 -0.011083212630118636 0.0 0.0
0.0 0.015528000610581617 -0.010450736300506105 0.009982199618999182 0.0004685366815069207 -0.013341099169682426 0.0 0.0
0.0 0.018465765271720565 -0.0124268390166585 0.011961608959834748 0.0004652300568237458 -0.01572816036863293 0.0 0.0
0.0 0.0209044860726124 -0.013883080861297564 0.01345858001082748 0.0004245008504700888 -0.01827372280842989 0.0 0.0
0.0 0.022621971427509734 -0.014344555555726909 0.014008765764738619 0.0003357897909882926 -0.02106162150735493 0.0 0.0
0.0 0.022690182399777655 -0.013261586600507079 0.013129355854060606 0.00013223074644649012 -0.024045489837174257 0.0 0.0
0.0 0.018489081542026692 -0.009624347254404014 0.010054158729378742 -0.00042981147497473255 -0.026062984455264834 0.0 0.0
0.0 0.03778480620935311 -0.005498374931750593 0.002867413217526053 0.002630961714224532 1.907588670357896e-14 0.0 0.0
0.0 0.018489081542035504 -0.009624347254406149 0.01005415872938104 -0.0004298114749748895 0.026062984455285636 0.0 0.0
0.0 0.022690182399777298 -0.013261586600504444 0.013129355854058403 0.00013223074644602885 0.02404548983719256 0.0 0.0
0.0 0.022621971427491984 -0.014344555555713463 0.014008765764725758 0.0003357897909877109 0.021061621507355813 0.0 0.0
0.0 0.02090448607258794 -0.013883080861280499 0.013458580010810415 0.0004245008504700931 0.01827372280841561 0.0 0.0
0.0 0.018465765271706153 -0.01242683901664785 0.011961608959824808 0.0004652300568230482 0.01572816036862224 0.0 0.0
0.0 0.015528000610562477 -0.010450736300491498 0.009982199618985055 0.00046853668150642993 0.01334109916966645 0.0 0.0
0.0 0.012506800976139857 -0.008333500676448169 0.00789132694537229 0.00044217373107587564 0.011083212630108377 0.0 0.0
0.0 0.009572290679847826 -0.006300586805190318 0.005908028372616712 0.0003925584325736106 0.008899729952584524 0.0 0.0
0.0 0.006906343167927447 -0.004440412445305641 0.00411755407652659 0.00032285836877904374 0.006773003684763755 0.0 0.0
0.0 0.004636592205465095 -0.0027749538298495204 0.002537621734646021 0.0002373320952035017 0.004752398414764077 0.0 0.0
0.0 0.002475879188643381 -0.001387756414121447 0.0012469328211432407 0.0001408235929782069 0.0029458257920697566 0.0 0.0
0.0 0.0010558546259554831 -0.0004709779421875467 0.00041430882226000927 5.6669119927537664e-05 0.001457726553625832 0.0 0.0
0.0 0.0003469847637600712 -9.482145072692158e-05 8.006085805682614e-05 1.4760592670095534e-05 0.0005181866593975645 0.0 0.0
0.0 0.00010175093174685223 -1.0654254012036562e-05 8.804553642562657e-06 1.8497003694739152e-06 0.00011850627882765097 0.0 0.0
0.0 6.185720078298218e-06 -1.0740799832540704e-06 1.220605947166748e-06 -1.4652596391267752e-07 1.5654016681494893e-05 0.0 0.0
0.0 3.0145153840845665e-06 -5.760342789049263e-07 5.451200377307921e-07 3.0914241174123566e-08 5.101385048818114e-06 0.0 0.0
0.0 5.231002019262674e-06 -3.2734234663791857e-07 2.53513076862092e-07 7.382926977582523e-08 4.564762627588981e-06 0.0 0.0
0.0 9.948282236700706e-07 1.3928767251743623e-07 -1.97217069518803e-07 5.7929397001362273e-08 1.8190206127075274e-06 0.0 0.0
0.0 -9.129427058734528e-07 -2.503010339577428e-07 4.180182414537958e-07 -1.6771720749605677e-07 -1.9830879228589013e-06 0.0 0.0
0.0 4.507395188786347e-06 1.0198800712577112e-06 -2.013125456490074e-06 9.932453852323874e-07 9.492905812125395e-07 0.0 0.0
0.0 2.034611343575935e-06 -1.1794173393863115e-07 1.8495244463876623e-07 -6.701071070005743e-08 2.736999519842078e-07 0.0 0.0
0.0 6.716856304804825e-07 3.367822443623285e-08 -1.7320885696962614e-08 -1.6357338739285258e-08 4.01072088290967e-07 0.0 0.0
0.0 -1.0840366829929289e-06 4.640582702233037e-07 -3.906164035669455e-07 -7.344186665636728e-08 2.9590186185836704e-06 0.0 0.0
0.0 2.827839434604201e-06 -6.107755372152993e-07 4.731719928649859e-07 1.3760354435030237e-07 -5.912538847666408e-06 0.0 0.0
0.0 6.064877571041856e-06 1.7029359457174836e-06 -1.3593330342114235e-06 -3.436029115059944e-07 4.635587789671114e-06 0.0 0.0
0.0 2.965935243554371e-05 -1.0232622462192745e-06 9.300863816499557e-07 9.317586456929627e-08 -1.5076585108648252e-05 0.0 0.0
0.0 0.0001990685250433803 -0.00010813355890180841 8.35022994581746e-05 2.4631259443633835e-05 -0.0002828451808694911 0.0 0.0
0.0 0.0010833207497687831 -0.0006796251350757276 0.0005439429112864003 0.00013568222378932676 -0.0011540850581258219 0.0 0.0
0.0 0.002932517861609835 -0.0021174140902753898 0.0017918216543300145 0.0003255924359453738 -0.0027897850769830032 0.0 0.0
0.0 0.005989767339693451 -0.004421626820855242 0.003940783113565117 0.0004808437072901215 -0.004970151687938546 0.0 0.0
0.0 0.009639386489543775 -0.0073796549894619146 0.006801235401233926 0.0005784195882279897 -0.007550776492268 0.0 0.0
0.0 0.013983154643020867 -0.010780930237373993 0.010134105246181163 0.0006468249911928442 -0.01022279456281322 0.0 0.0
0.0 0.018707851530686628 -0.014550422536956917 0.013844001840089859 0.0007064206968670458 -0.012871235895211977 0.0 0.0
0.0 0.02381224583482819 -0.01866953725200992 0.017916604751369202 0.0007529325006407062 -0.015468554121893354 0.0 0.0
0.0 0.02928025151142485 -0.02305416778182254 0.022270538801090485 0.0007836289807320534 -0.018112868459914597 0.0 0.0
0.0 0.03484870172508326 -0.027451836945698034 0.026658856683994283 0.0007929802617037431 -0.021011345555779232 0.0 0.0
0.0 0.03999016859189807 -0.03141426571476661 0.03063156203828551 0.0007827036764810977 -0.024381852947080274 0.0 0.0
0.0 0.043882295729597044 -0.03433028126141268 0.03357350611767881 0.0007567751437338893 -0.028326728726837808 0.0 0.0
0.0 0.04578924687244492 -0.0351181194361829 0.0344589538362405 0.000659165599942376 -0.032100928737327776 0.0 0.0
0.0 0.042701399066620044 -0.03145253379334661 0.031003255072189474 0.0004492787211571138 -0.033037626281373744 0.0 0.0
0.0 0.046352457577142396 -0.025575312559526376 0.022165393229354773 0.0034099193301715854 2.2191450066433305e-14 0.0 0.0
0.0 0.04270139906663442 -0.03145253379334809 0.031003255072191933 0.00044927872115617357 0.03303762628142068 0.0 0.0
0.0 0.04578924687243921 -0.03511811943617147 0.0344589538362287 0.0006591655999427728 0.03210092873736825 0.0 0.0
0.0 0.043882295729574895 -0.03433028126139221 0.033573506117659226 0.0007567751437329926 0.028326728726852348 0.0 0.0
0.0 0.039990168591860775 -0.031414265714736586 0.030631562038255636 0.0007827036764809527 0.02438185294706956 0.0 0.0
0.0 0.03484870172505175 -0.027451836945672665 0.026658856683968894 0.0007929802617037518 0.021011345555763162 0.0 0.0
0.0 0.029280251511389112 -0.023054167781793658 0.02227053880106206 0.0007836289807316078 0.01811286845989593 0.0 0.0
0.0 0.023812245834796693 -0.018669537251983174 0.017916604751342824 0.0007529325006403392 0.015468554121878267 0.0 0.0
0.0 0.018707851530653182 -0.014550422536929914 0.013844001840063135 0.0007064206968667783 0.01287123589519576 0.0 0.0
0.0 0.013983154642985603 -0.010780930237347162 0.010134105246154646 0.0006468249911925151 0.01022279456278905 0.0 0.0
0.0 0.0096393864895107 -0.007379654989436818 0.006801235401208932 0.0005784195882278866 0.0075507764922425995 0.0 0.0
0.0 0.005989767339671496 -0.004421626820838842 0.003940783113549426 0.00048084370728942007 0.004970151687922121 0.0 0.0
0.0 0.002932517861595113 -0.0021174140902642654 0.0017918216543202008 0.00032559243594406636 0.0027897850769723767 0.0 0.0
0.0 0.0010833207497620782 -0.0006796251350712908 0.0005439429112828544 0.00013568222378843516 0.0011540850581196237 0.0 0.0
0.0 0.0001990685250395051 -0.0001081335589004151 8.350229945704544e-05 2.46312594433698e-05 0.0002828451808663058 0.0 0.0
0.0 2.965935243500295e-05 -1.0232622465236032e-06 9.300863818858265e-07 9.317586463769227e-08 1.5076585109650803e-05 0.0 0.0
0.0 6.064877570006862e-06 1.7029359456099763e-06 -1.3593330341194863e-06 -3.4360291149048523e-07 -4.635587789097731e-06 0.0 0.0
0.0 2.827839434255122e-06 -6.107755373212467e-07 4.7317199295260435e-07 1.376035443686469e-07 5.9125388483642776e-06 0.0 0.0
0.0 -1.0840366836543544e-06 4.6405827020892206e-07 -3.906164035657443e-07 -7.344186664317301e-08 -2.959018618195485e-06 0.0 0.0
0.0 6.716856301518905e-07 3.367822444627525e-08 -1.732088570272298e-08 -1.635733874354958e-08 -4.010720884471735e-07 0.0 0.0
0.0 2.034611343773175e-06 -1.1794173394994551e-07 1.849524446547311e-07 -6.701071070482646e-08 -2.7369995201493404e-07 0.0 0.0
0.0 0.0 0.0 0.0 0.0 0.0 0.0 0.0
0.0 1.2793262250216665e-07 8.703308849541075e-11 4.028570319636627e-09 -4.115603408136257e-09 2.4778079492361678e-08 0.0 0.0
0.0 5.507595325888163e-09 4.4967317891807113e-07 -3.58105009362398e-07 -9.156816955566594e-08 2.443268474520496e-06 0.0 0.0
0.0 1.377947072121698e-06 1.1607773152047685e-06 -9.813675834386524e-07 -1.7940973176611705e-07 2.2222479407024816e-06 0.0 0.0
0.0 4.5531237512369845e-06 1.5019990182630167e-06 -1.1564732748406811e-06 -3.4552574342238046e-07 -1.929763377343415e-06 0.0 0.0
0.0 4.692380744165069e-05 -3.7523469616412116e-05 2.8478856731791925e-05 9.044612884620269e-06 -8.134350916085857e-05 0.0 0.0
0.0 0.0006031833271370488 -0.0004126913260332507 0.0003170251221802064 9.566620385304397e-05 -0.0005409016266907886 0.0 0.0
0.0 0.002161954634067215 -0.0017231551638576524 0.0014049308990501145 0.0003182242648075361 -0.001822781472279047 0.0 0.0
0.0 0.0053117757741636545 -0.0042374326957374 0.003700943726169972 0.0005364889695674245 -0.003912950655625013 0.0 0.0
0.0 0.010069112553451838 -0.007871404895478901 0.00721098407845503 0.0006604208170238805 -0.006692250177524728 0.0 0.0
0.0 0.015350339169890904 -0.012363980482764145 0.011630465143597363 0.0007335153391667761 -0.009819860865325014 0.0 0.0
0.0 0.021519482023099223 -0.01747931532923204 0.01668273872818202 0.0007965766010500126 -0.012943040989856587 0.0 0.0
0.0 0.028383422358124518 -0.023142950610290248 0.02228456646448921 0.0008583841458010441 -0.015947398956614258 0.0 0.0
0.0 0.03581025986445731 -0.029350170067960167 0.0284369889603443 0.0009131811076158191 -0.018866274328116363 0.0 0.0
0.0 0.043876479771284074 -0.03603013144415022 0.03507694635611632 0.0009531850880339214 -0.021886710443239067 0.0 0.0
0.0 0.05212308663530428 -0.04292084629138059 0.04195081457315983 0.0009700317182207164 -0.025375679673536315 0.0 0.0
0.0 0.06034347751787264 -0.04946997765376546 0.04850906983926085 0.0009609078145045541 -0.029775144792891863 0.0 0.0
0.0 0.06702877680505394 -0.054715073210470325 0.053806814216479426 0.0009082589939909084 -0.03500989806999355 0.0 0.0
0.0 0.07040238765603343 -0.056955841816827696 0.05616286758112128 0.0007929742357063296 -0.039660055387624196 0.0 0.0
0.0 0.06646397333928114 -0.052950184385350096 0.05245472621406497 0.0004954581712851064 -0.0409960260683172 0.0 0.0
0.0 0.06420653247812698 -0.04520495126236991 0.041077206290265365 0.004127744972104562 2.1999763122337868e-14 0.0 0.0
0.0 0.06646397333929041 -0.05295018438534717 0.0524547262140633 0.0004954581712838943 0.040996026068372535 0.0 0.0
0.0 0.07040238765601622 -0.056955841816805144 0.05616286758109825 0.0007929742357067964 0.03966005538767509 0.0 0.0
0.0 0.06702877680502542 -0.05471507321044284 0.05380681421645256 0.0009082589939902506 0.03500989807001883 0.0 0.0
0.0 0.06034347751782697 -0.0494699776537268 0.04850906983922263 0.0009609078145042108 0.029775144792886322 0.0 0.0
0.0 0.052123086635254716 -0.042920846291339146 0.041950814573118396 0.0009700317182207361 0.025375679673518073 0.0 0.0
0.0 0.043876479771233635 -0.036030131444108354 0.03507694635607475 0.0009531850880335704 0.021886710443218216 0.0 0.0
0.0 0.03581025986441058 -0.029350170067920338 0.02843698896030533 0.0009131811076150061 0.018866274328098426 0.0 0.0
0.0 0.02838342235807889 -0.023142950610252414 0.022284566464451726 0.0008583841458006665 0.015947398956595978 0.0 0.0
0.0 0.021519482023050603 -0.017479315329192835 0.01668273872814349 0.0007965766010493445 0.012943040989829829 0.0 0.0
0.0 0.015350339169847354 -0.01236398048272963 0.011630465143562974 0.0007335153391666519 0.009819860865296834 0.0 0.0
0.0 0.010069112553421451 -0.007871404895454834 0.007210984078431451 0.0006604208170233792 0.0066922501775050726 0.0 0.0
0.0 0.005311775774143828 -0.004237432695721832 0.0037009437261557006 0.0005364889695661295 0.003912950655613067 0.0 0.0
0.0 0.0021619546340550582 -0.0017231551638483239 0.0014049308990421053 0.00031822426480621947 0.001822781472270296 0.0 0.0
0.0 0.0006031833271319797 -0.00041269132603012154 0.00031702512217787423 9.566620385224708e-05 0.0005409016266869725 0.0 0.0
0.0 4.692380743983824e-05 -3.7523469615977676e-05 2.847885673145832e-05 9.044612884519321e-06 8.134350916029238e-05 0.0 0.0
0.0 4.55312375114379e-06 1.501999017830905e-06 -1.1564732744984949e-06 -3.455257433324016e-07 1.9297633784830117e-06 0.0 0.0
0.0 1.3779470714518816e-06 1.1607773150550217e-06 -9.813675833140841e-07 -1.794097317409355e-07 -2.2222479398713547e-06 0.0 0.0
0.0 5.507594835778932e-09 4.496731789472113e-07 -3.5810500938728355e-07 -9.156816955993456e-08 -2.443268474663993e-06 0.0 0.0
0.0 1.2793262222365965e-07 8.703308583074716e-11 4.028570317766604e-09 -4.115603403594462e-09 -2.4778079435018216e-08 0.0 0.0
0.0 0.0 0.0 0.0 0.0 0.0 0.0 0.0
0.0 0.0 0.0 0.0 0.0 0.0 0.0 0.0
0.0 -1.2025212151614905e-07 -2.8111852206668733e-09 1.9303984439410896e-09 8.807867767261456e-10 -2.3879236813071873e-08 0.0 0.0
0.0 -1.9636123467609105e-07 3.082849751623462e-07 -2.4546515089520246e-07 -6.281982426714629e-08 1.2871372168791732e-06 0.0 0.0
0.0 -2.7670077361649927e-06 7.672665829425668e-07 -6.40767008342352e-07 -1.2649957460020304e-07 9.682651272937298e-07 0.0 0.0
0.0 4.486704023657806e-06 3.882702391919701e-06 -3.449149031792642e-06 -4.335533601270567e-07 6.503290346647948e-06 0.0 0.0
0.0 0.0001992223630623288 -0.00012842467648525613 9.59218098044684e-05 3.250286668078762e-05 -0.00013905092905850942 0.0 0.0
0.0 0.0011589086452152971 -0.0009594016268460691 0.000748457338062782 0.0002109442887832867 -0.0008305087502058401 0.0 0.0
0.0 0.0036478618120329423 -0.0030631797043335018 0.0025759377635339526 0.000487241940799549 -0.0023145118458095153 0.0 0.0
0.0 0.008291746642529822 -0.0066472364631343355 0.005969012460409704 0.0006782240027246264 -0.004719778305470686 0.0 0.0
0.0 0.013815332830923788 -0.011588386453398523 0.010813468394793687 0.0007749180586048465 -0.007833318136520868 0.0 0.0
0.0 0.021112900655512766 -0.017557897710580608 0.01671730068169226 0.0008405970288883442 -0.011167861554129016 0.0 0.0
0.0 0.0292383146244192 -0.024359935850779283 0.023454631844694613 0.0009053040060846406 -0.014469091706923658 0.0 0.0
0.0 0.038188957153983606 -0.031910973581021185 0.03093751413973915 0.0009734594412820674 -0.01763562054657039 0.0 0.0
0.0 0.047987850019821414 -0.04020515303960786 0.03916667745052296 0.0010384755890848836 -0.02070899494542303 0.0 0.0
0.0 0.05853728647492894 -0.04919620963125927 0.048106319008666805 0.0010898906225924629 -0.023891255499452976 0.0 0.0
0.0 0.06992637685398419 -0.05861886337138461 0.05750537402262345 0.0011134893487611793 -0.027676841496332837 0.0 0.0
0.0 0.08055392317640285 -0.06777010519279887 0.06667587316869276 0.0010942320241060228 -0.03261004014342389 0.0 0.0
0.0 0.09001008024784973 -0.07524500550296652 0.07423152400065298 0.0010134815023135216 -0.038539658973049416 0.0 0.0
0.0 0.09484293339379417 -0.07861574644833152 0.07777774420968006 0.0008380022386514779 -0.043935312682344 0.0 0.0
0.0 0.08991292253533546 -0.07382570388279354 0.07332942426474473 0.0004962796180488025 -0.04583055697464092 0.0 0.0
0.0 0.08384061482161358 -0.06440420669023422 0.059656850697906286 0.004747355992327831 2.457929693111538e-14 0.0 0.0
0.0 0.08991292253533388 -0.07382570388278296 0.07332942426473449 0.0004962796180484609 0.04583055697469614 0.0 0.0
0.0 0.09484293339377298 -0.07861574644830607 0.07777774420965453 0.0008380022386514396 0.04393531268239982 0.0 0.0
0.0 0.09001008024780556 -0.07524500550292595 0.074231524000612 0.0010134815023137974 0.03853965897307646 0.0 0.0
0.0 0.08055392317634509 -0.0677701051927492 0.06667587316864271 0.0010942320241065179 0.03261004014342138 0.0 0.0
0.0 0.06992637685392142 -0.058618863371331445 0.05750537402256989 0.0011134893487615228 0.027676841496316485 0.0 0.0
0.0 0.05853728647486495 -0.04919620963120492 0.04810631900861283 0.001089890622592102 0.02389125549943164 0.0 0.0
0.0 0.04798785001975937 -0.040205153039554686 0.03916667745047022 0.0010384755890844902 0.02070899494540416 0.0 0.0
0.0 0.038188957153926104 -0.0319109735809728 0.030937514139690807 0.0009734594412820032 0.01763562054655051 0.0 0.0
0.0 0.02923831462436297 -0.024359935850732126 0.023454631844648147 0.0009053040060839727 0.014469091706898314 0.0 0.0
0.0 0.02111290065546211 -0.017557897710538818 0.016717300681650872 0.0008405970288879391 0.01116786155410023 0.0 0.0
0.0 0.01381533283088231 -0.011588386453364196 0.010813468394759558 0.0007749180586046414 0.007833318136496377 0.0 0.0
0.0 0.008291746642501185 -0.006647236463111897 0.005969012460387995 0.0006782240027239007 0.00471977830545542 0.0 0.0
0.0 0.0036478618120148504 -0.003063179704319111 0.0025759377635209925 0.0004872419407981193 0.002314511845799178 0.0 0.0
0.0 0.0011589086452074575 -0.0009594016268405524 0.0007484573380582741 0.00021094428878227814 0.000830508750201082 0.0 0.0
0.0 0.00019922236305930897 -0.00012842467648372071 9.592180980332064e-05 3.250286668040017e-05 0.0001390509290568293 0.0 0.0
0.0 4.486704022823667e-06 3.882702391608071e-06 -3.449149031543946e-06 -4.335533600641042e-07 -6.503290346099914e-06 0.0 0.0
0.0 -2.7670077360101996e-06 7.672665825603117e-07 -6.407670080417194e-07 -1.2649957451857553e-07 -9.682651260506143e-07 0.0 0.0
0.0 -1.9636123491362125e-07 3.082849751997926e-07 -2.454651509266474e-07 -6.281982427314522e-08 -1.2871372170329906e-06 0.0 0.0
0.0 -1.2025212151506954e-07 -2.8111852205958148e-09 1.930398443898689e-09 8.807867766964716e-10 2.387923681280424e-08 0.0 0.0
0.0 0.0 0.0 0.0 0.0 0.0 0.0 0.0
0.0 0.0 0.0 0.0 0.0 0.0 0.0 0.0
0.0 0.0 0.0 0.0 0.0 0.0 0.0 0.0
0.0 -3.3865300383757177e-07 6.863935335997544e-08 -5.3529135399498645e-08 -1.5110217960478115e-08 2.2365043711666703e-07 0.0 0.0
0.0 -3.309661647878719e-06 2.659429886517623e-06 -2.1503719339296986e-06 -5.090579525879009e-07 5.432496661958232e-06 0.0 0.0
0.0 2.6708235915019124e-06 -1.0509713777915278e-05 6.890640857902578e-06 3.619072920012703e-06 -9.295325042183673e-06 0.0 0.0
0.0 0.00043917272202100997 -0.0003311953655694708 0.0002482375677108744 8.295779785859646e-05 -0.0002255265573123898 0.0 0.0
0.0 0.0019601858038208186 -0.0017032328633198558 0.0013606957843020908 0.000342537079017765 -0.001003883208912908 0.0 0.0
0.0 0.005631277891035435 -0.0046268725806881 0.004005121102729501 0.0006217514779586 -0.0025990818109727313 0.0 0.0
0.0 0.010733126543439324 -0.009281367342788895 0.008502916196077615 0.0007784511467112792 -0.005149245765611655 0.0 0.0
0.0 0.018178961234801637 -0.015439644292668796 0.014578500413810952 0.0008611438788578558 -0.00824574029871425 0.0 0.0
0.0 0.026969028514135965 -0.0228648755575237 0.021937123836639958 0.0009277517208837235 -0.011542208743573566 0.0 0.0
0.0 0.036979259121489944 -0.03134980999717982 0.030352054501113515 0.000997755496066326 -0.014804298187686055 0.0 0.0
0.0 0.04808168268574643 -0.04078817391613015 0.039715717923516275 0.0010724559926137416 -0.01794710668632408 0.0 0.0
0.0 0.060326571428759586 -0.05116214936377601 0.05001587930888023 0.0011462700548958932 -0.021007432607994102 0.0 0.0
0.0 0.07346678697229346 -0.06244970841946511 0.06123954636954135 0.0012101620499237397 -0.024147141235652373 0.0 0.0
0.0 0.0872940841926694 -0.07438287826529362 0.07314228245976814 0.001240595805525419 -0.02779977909271172 0.0 0.0
0.0 0.10139531876810297 -0.08608041148653416 0.08487238123281948 0.0012080302537147195 -0.03259686242578322 0.0 0.0
0.0 0.11290744253855323 -0.09568497194864872 0.09459758046994565 0.0010873914787028968 -0.03864569609946367 0.0 0.0
0.0 0.11842414923121121 -0.10003239844914165 0.09917434016794842 0.0008580582811931914 -0.04468674264958401 0.0 0.0
0.0 0.11297624086006126 -0.09449438060307794 0.09399674282516526 0.0004976377779127015 -0.048688253274682035 0.0 0.0
0.0 0.10490667532711695 -0.08365423430591801 0.0783636860046978 0.005290548301220203 2.484470962293983e-14 0.0 0.0
0.0 0.11297624086005392 -0.09449438060306323 0.09399674282515133 0.0004976377779120152 0.048688253274738316 0.0 0.0
0.0 0.11842414923118548 -0.10003239844911317 0.09917434016792068 0.0008580582811925132 0.0446867426496414 0.0 0.0
0.0 0.1129074425385019 -0.09568497194860162 0.09459758046989926 0.0010873914787023122 0.03864569609949235 0.0 0.0
0.0 0.10139531876803362 -0.08608041148647425 0.08487238123275928 0.0012080302537148947 0.03259686242578239 0.0 0.0
0.0 0.08729408419259664 -0.07438287826523132 0.07314228245970562 0.0012405958055256795 0.02779977909269895 0.0 0.0
0.0 0.07346678697221427 -0.06244970841939734 0.06123954636947382 0.0012101620499234797 0.0241471412356341 0.0 0.0
0.0 0.06032657142868471 -0.05116214936371114 0.050015879308815916 0.0011462700548951952 0.021007432607975794 0.0 0.0
0.0 0.04808168268567442 -0.040788173916068614 0.039715717923454824 0.001072455992613778 0.01794710668630435 0.0 0.0
0.0 0.0369792591214204 -0.031349809997120975 0.030352054501055156 0.0009977554960657982 0.014804298187660523 0.0 0.0
0.0 0.02696902851407438 -0.022864875557472082 0.02193712383658865 0.0009277517208834319 0.01154220874354525 0.0 0.0
0.0 0.018178961234752145 -0.015439644292627256 0.014578500413769823 0.0008611438788574247 0.008245740298690579 0.0 0.0
0.0 0.010733126543404225 -0.009281367342758315 0.00850291619604773 0.0007784511467105835 0.005149245765594712 0.0 0.0
0.0 0.005631277891010422 -0.004626872580668025 0.004005121102710616 0.000621751477957408 0.0025990818109610475 0.0 0.0
0.0 0.0019601858038077176 -0.0017032328633092408 0.0013606957842932025 0.00034253707901603836 0.0010038832089060857 0.0 0.0
0.0 0.00043917272201610493 -0.0003311953655663798 0.00024823756770851453 8.295779785786488e-05 0.00022552655731012338 0.0 0.0
0.0 2.6708235909444825e-06 -1.0509713778185812e-05 6.890640858143171e-06 3.6190729200426018e-06 9.295325042782615e-06 0.0 0.0
0.0 -3.3096616484975764e-06 2.659429886463481e-06 -2.1503719338863886e-06 -5.090579525770867e-07 -5.432496661694365e-06 0.0 0.0
0.0 -3.386530036680408e-07 6.863935339289163e-08 -5.352913542567174e-08 -1.5110217967218526e-08 -2.236504372221179e-07 0.0 0.0
0.0 0.0 0.0 0.0 0.0 0.0 0.0 0.0
0.0 0.0 0.0 0.0 0.0 0.0 0.0 0.0
0.0 0.0 0.0 0.0 0.0 0.0 0.0 0.0
0.0 0.0 0.0 0.0 0.0 0.0 0.0 0.0
0.0 -1.9259891853480113e-07 -1.2438204119640457e-08 9.900711751953166e-09 2.537492367688598e-09 -3.208399983975565e-08 0.0 0.0
0.0 -4.805085925848788e-06 2.5837752092846716e-06 -2.1048927624723443e-06 -4.788824468123569e-07 4.43792837091765e-06 0.0 0.0
0.0 5.3431722658267215e-05 -3.457895564717212e-05 2.3215649004903263e-05 1.136330664226897e-05 -1.1175816949784565e-05 0.0 0.0
0.0 0.0007170975408485936 -0.0006764595881277349 0.0005128510364488723 0.00016360855167886238 -0.00030561590234996224 0.0 0.0
0.0 0.0031415540668164156 -0.0026188877218273525 0.002149810582468718 0.0004690771393586335 -0.0010531069035577786 0.0 0.0
0.0 0.007253428977601543 -0.006390934367812535 0.005666753452205761 0.0007241809156067791 -0.0026793296178048978 0.0 0.0
0.0 0.013842009616200489 -0.012015961978382901 0.011162129082762628 0.0008538328956202592 -0.005058450264763222 0.0 0.0
0.0 0.022478335125983153 -0.0193701542481899 0.01843660534124979 0.0009335489069401231 -0.007906891162900942 0.0 0.0
0.0 0.03289423302613037 -0.0282346923653066 0.027229445798901044 0.0010052465664055507 -0.010961169694967065 0.0 0.0
0.0 0.04482221956341609 -0.03839709982632288 0.03731601973368697 0.0010810800926358962 -0.013982769538149682 0.0 0.0
0.0 0.05815818102113704 -0.049727278050321795 0.04856588099089715 0.001161397059424587 -0.01691062467939095 0.0 0.0
0.0 0.07245306030848761 -0.06218086163298658 0.06093831130980876 0.0012425503231777773 -0.019794734854527186 0.0 0.0
0.0 0.08828785892758455 -0.07571008654427497 0.0743944415432305 0.0013156450010445818 -0.02269883297926484 0.0 0.0
0.0 0.10503968369543988 -0.09004691390994186 0.08869168235438567 0.0013552315555561034 -0.02583373160888008 0.0 0.0
0.0 0.12140941149968464 -0.10419946781296723 0.10288420444762457 0.0013152633653425766 -0.029814574946304205 0.0 0.0
0.0 0.13525503945616862 -0.11588662772125294 0.11473042843745732 0.0011561992837956724 -0.03534234064107374 0.0 0.0
0.0 0.14214755754126035 -0.12131344919407097 0.1204373840029552 0.0008760651911155459 -0.042292427055933786 0.0 0.0
0.0 0.13621549306305777 -0.11534511272660515 0.11485580444279951 0.0004893082838055304 -0.05004892709482765 0.0 0.0
0.0 0.12656670616907603 -0.10336439565143785 0.09759994955969961 0.005764446091738305 2.3429175266542757e-14 0.0 0.0
0.0 0.13621549306304837 -0.11534511272658973 0.11485580444278484 0.0004893082838047921 0.05004892709488508 0.0 0.0
0.0 0.14214755754121652 -0.12131344919402903 0.12043738400291229 0.0008760651911166309 0.0422924270559857 0.0 0.0
0.0 0.13525503945610912 -0.11588662772119968 0.11473042843740483 0.0011561992837948926 0.035342340641101505 0.0 0.0
0.0 0.12140941149960709 -0.10419946781289971 0.10288420444755733 0.0013152633653423205 0.029814574946305343 0.0 0.0
0.0 0.10503968369535754 -0.09004691390987032 0.08869168235431486 0.0013552315555553688 0.02583373160887117 0.0 0.0
0.0 0.08828785892749516 -0.07571008654419803 0.07439444154315375 0.001315645001044345 0.0226988329792513 0.0 0.0
0.0 0.07245306030839849 -0.06218086163290959 0.06093831130973258 0.001242550323176976 0.019794734854509267 0.0 0.0
0.0 0.05815818102105056 -0.04972727805024708 0.04856588099082255 0.0011613970594245278 0.016910624679372217 0.0 0.0
0.0 0.044822219563334695 -0.03839709982625327 0.03731601973361796 0.0010810800926353073 0.013982769538125559 0.0 0.0
0.0 0.03289423302606241 -0.028234692365248573 0.027229445798843312 0.0010052465664052823 0.01096116969494164 0.0 0.0
0.0 0.022478335125926483 -0.019370154248141445 0.01843660534120147 0.0009335489069399686 0.007906891162879258 0.0 0.0
0.0 0.013842009616156942 -0.012015961978345263 0.01116212908272556 0.0008538328956197016 0.0050584502647468815 0.0 0.0
0.0 0.007253428977572386 -0.006390934367787435 0.005666753452181762 0.0007241809156056706 0.0026793296177934607 0.0 0.0
0.0 0.003141554066799066 -0.0026188877218133685 0.0021498105824564106 0.00046907713935695743 0.001053106903551239 0.0 0.0
0.0 0.0007170975408417624 -0.0006764595881225259 0.0005128510364447854 0.0001636085516777397 0.00030561590234738325 0.0 0.0
0.0 5.343172265710682e-05 -3.4578955647056504e-05 2.3215649004872837e-05 1.1363306642183717e-05 1.1175816950183772e-05 0.0 0.0
0.0 -4.805085925893606e-06 2.5837752091006863e-06 -2.104892762333607e-06 -4.78882446767078e-07 -4.437928370688857e-06 0.0 0.0
0.0 -1.9259891850927365e-07 -1.243820411784055e-08 9.900711750511593e-09 2.5374923673294314e-09 3.208399983580417e-08 0.0 0.0
0.0 0.0 0.0 0.0 0.0 0.0 0.0 0.0
0.0 0.0 0.0 0.0 0.0 0.0 0.0 0.0
0.0 0.0 0.0 0.0 0.0 0.0 0.0 0.0
0.0 0.0 0.0 0.0 0.0 0.0 0.0 0.0
0.0 -7.18462332870173e-08 -5.322214849680892e-09 4.219826328331633e-09 1.102388521349622e-09 -1.0684932772376604e-08 0.0 0.0
0.0 -5.646904158966065e-06 3.944569099915281e-06 -3.2477763651266918e-06 -6.96792734788584e-07 5.136850623987428e-06 0.0 0.0
0.0 0.00014110481894702448 -0.00011093455025002879 7.776750247078716e-05 3.316704777924181e-05 -2.3445429981371387e-05 0.0 0.0
0.0 0.001276021797393724 -0.0011172060262314 0.0008609792322789421 0.00025622679395245795 -0.0002717997246151774 0.0 0.0
0.0 0.004209380543800782 -0.0037146304543552344 0.0031321508704609626 0.0005824795838942714 -0.000991626767746806 0.0 0.0
0.0 0.009278651736119633 -0.00825102946326716 0.007452349461126386 0.0007986800021407743 -0.002430436418808823 0.0 0.0
0.0 0.016895904734851426 -0.0148091435810692 0.013893262730530154 0.000915880850539037 -0.004420678550021833 0.0 0.0
0.0 0.026862035935422343 -0.02333411901266156 0.02233589545762946 0.0009982235550320888 -0.006839147340315211 0.0 0.0
0.0 0.038828551262271305 -0.03362361979751009 0.03254756753961869 0.001076052257891387 -0.009441220378642942 0.0 0.0
0.0 0.05266987755937398 -0.04546048086309382 0.04430225513170622 0.0011582257313876344 -0.01202008744186606 0.0 0.0
0.0 0.06789952225670004 -0.05869253530853909 0.05744827381436973 0.0012442614941694258 -0.014536070074275837 0.0 0.0
0.0 0.08498136786864921 -0.07321535249092676 0.07188719544574505 0.0013281570451816231 -0.017055339921398096 0.0 0.0
0.0 0.10307926346232228 -0.08892138979844502 0.08751644018582179 0.0014049496126232685 -0.01957446007192595 0.0 0.0
0.0 0.12207745158228299 -0.10549084827980149 0.10403523110008081 0.001455617179720679 -0.021992763605617645 0.0 0.0
0.0 0.141179501798718 -0.12190735717176115 0.12048102667869293 0.001426330493068252 -0.02457509513440303 0.0 0.0
0.0 0.15733737030965758 -0.1357135343955301 0.13447007009488043 0.001243464300649606 -0.028736543807519346 0.0 0.0
0.0 0.16580253459792443 -0.14259740405192994 0.14169332586678737 0.0009040781851424919 -0.03669694252332879 0.0 0.0
0.0 0.16020699189691714 -0.13674802604484718 0.13628834956728994 0.00045967647755739804 -0.04966530124602817 0.0 0.0
0.0 0.14986129101248938 -0.12394700506638265 0.11778505839710826 0.006161946669274224 2.0294529945452666e-14 0.0 0.0
0.0 0.16020699189689808 -0.13674802604482558 0.13628834956726846 0.00045967647755721633 0.04966530124607692 0.0 0.0
0.0 0.1658025345978672 -0.14259740405187812 0.14169332586673453 0.0009040781851434366 0.036696942523371114 0.0 0.0
0.0 0.1573373703095848 -0.13571353439546655 0.13447007009481682 0.0012434643006496778 0.02873654380754276 0.0 0.0
0.0 0.14117950179862926 -0.12190735717168406 0.12048102667861632 0.001426330493067674 0.024575095134405193 0.0 0.0
0.0 0.12207745158218294 -0.10549084827971485 0.10403523109999438 0.0014556171797204549 0.021992763605611577 0.0 0.0
0.0 0.10307926346222471 -0.08892138979836056 0.08751644018573823 0.001404949612622262 0.019574460071915743 0.0 0.0
0.0 0.08498136786854629 -0.07321535249083755 0.07188719544565665 0.001328157045180857 0.01705533992138299 0.0 0.0
0.0 0.06789952225659909 -0.05869253530845226 0.05744827381428271 0.0012442614941696772 0.014536070074260905 0.0 0.0
0.0 0.052669877559282825 -0.04546048086301487 0.04430225513162786 0.0011582257313870138 0.012020087441846138 0.0 0.0
0.0 0.038828551262195 -0.03362361979744427 0.0325475675395533 0.0010760522578909671 0.009441220378621207 0.0 0.0
0.0 0.026862035935354377 -0.023334119012603 0.02233589545757128 0.0009982235550317021 0.006839147340295593 0.0 0.0
0.0 0.01689590473480362 -0.014809143581027343 0.013893262730489206 0.0009158808505381284 0.004420678550008619 0.0 0.0
0.0 0.009278651736087586 -0.00825102946323875 0.007452349461098838 0.0007986800021399198 0.0024304364187990733 0.0 0.0
0.0 0.0042093805437798905 -0.003714630454337391 0.003132150870444729 0.0005824795838926611 0.0009916267677406085 0.0 0.0
0.0 0.0012760217973848116 -0.0011172060262242157 0.0008609792322732227 0.00025622679395099395 0.0002717997246133012 0.0 0.0
0.0 0.0001411048189448692 -0.00011093455024882532 7.776750246992739e-05 3.3167047778897886e-05 2.3445429981185263e-05 0.0 0.0
0.0 -5.646904159172988e-06 3.944569099347102e-06 -3.2477763646957256e-06 -6.967927346513648e-07 -5.136850623471495e-06 0.0 0.0
0.0 -7.184623319621463e-08 -5.322214842869262e-09 4.219826322927047e-09 1.1023885199412321e-09 1.0684932758656047e-08 0.0 0.0
0.0 0.0 0.0 0.0 0.0 0.0 0.0 0.0
0.0 0.0 0.0 0.0 0.0 0.0 0.0 0.0
0.0 0.0 0.0 0.0 0.0 0.0 0.0 0.0
0.0 0.0 0.0 0.0 0.0 0.0 0.0 0.0
0.0 0.0 0.0 0.0 0.0 0.0 0.0 0.0
0.0 -7.554250388627159e-06 6.9720152707309175e-06 -5.842996952917888e-06 -1.129018317813056e-06 6.534445491071368e-06 0.0 0.0
0.0 0.00026558115046846953 -0.00026119617472640977 0.00018625318641398656 7.494298831242283e-05 -8.751523898582214e-06 0.0 0.0
0.0 0.0019815462696201646 -0.0016990311898093969 0.0013399331421931342 0.0003590980476162621 -0.00016047968392712432 0.0 0.0
0.0 0.005339563174841211 -0.004927229246736329 0.00425558555574305 0.0006716436909932764 -0.0007599294088958074 0.0 0.0
0.0 0.011405043633448811 -0.010164727330536333 0.009306198858828682 0.0008585284717076654 -0.001795439123214645 0.0 0.0
0.0 0.019993625085959515 -0.017624153144773353 0.01665399098255633 0.0009701621622170208 -0.0032596524586972213 0.0 0.0
0.0 0.031241530261052954 -0.027292732721089077 0.026235350006291267 0.0010573827147978322 -0.005050067085784667 0.0 0.0
0.0 0.044844948429186016 -0.03899127432726053 0.03784925806232785 0.0011420162649326605 -0.006989884343424103 0.0 0.0
0.0 0.0604309688447409 -0.05249964463014891 0.051269401966904396 0.0012302426632444597 -0.008920206804857368 0.0 0.0
0.0 0.0781355143538798 -0.06763297869289576 0.06631212672893311 0.001320851963962699 -0.010824926535196195 0.0 0.0
0.0 0.09707541193777988 -0.08423389209990867 0.08282623534522462 0.0014076567546840528 -0.01278370236377178 0.0 0.0
0.0 0.11770377642379333 -0.10205636944451967 0.10057456997595453 0.0014817994685650975 -0.014740958333311197 0.0 0.0
0.0 0.13920112607928348 -0.12064493898945847 0.11911419599529312 0.001530742994165305 -0.016400238597569894 0.0 0.0
0.0 0.16044165681587716 -0.1390187353007012 0.1374906123071147 0.0015281229935866928 -0.017545310030838396 0.0 0.0
0.0 0.1788754470745502 -0.15493889230379226 0.15354714611001943 0.0013917461937727918 -0.01946893140156906 0.0 0.0
0.0 0.18959424171492234 -0.16391298019685516 0.16293547543970577 0.0009775047571491209 -0.02695121103118116 0.0 0.0
0.0 0.18527429803062537 -0.15911860121279586 0.15873991805031784 0.00037868316247790737 -0.04647516999521705 0.0 0.0
0.0 0.17495158906097588 -0.145975720094826 0.1395225656687197 0.006453154426106232 1.44953493652622e-14 0.0 0.0
0.0 0.18527429803059922 -0.1591186012127699 0.15873991805029258 0.0003786831624772566 0.04647516999525605 0.0 0.0
0.0 0.18959424171486072 -0.16391298019679998 0.16293547543965117 0.0009775047571490116 0.026951211031217965 0.0 0.0
0.0 0.17887544707446087 -0.1549388923037154 0.1535471461099423 0.0013917461937730218 0.019468931401585655 0.0 0.0
0.0 0.16044165681577613 -0.13901873530061334 0.13749061230702792 0.001528122993585691 0.017545310030839496 0.0 0.0
0.0 0.13920112607916676 -0.12064493898935773 0.11911419599519202 0.0015307429941656871 0.01640023859756626 0.0 0.0
0.0 0.11770377642368327 -0.1020563694444242 0.10057456997585983 0.0014817994685644394 0.014740958333306001 0.0 0.0
0.0 0.09707541193766497 -0.08423389209980922 0.08282623534512586 0.0014076567546833965 0.012783702363761801 0.0 0.0
0.0 0.07813551435376584 -0.06763297869279751 0.06631212672883433 0.0013208519639630676 0.010824926535185587 0.0 0.0
0.0 0.060430968844637 -0.05249964463005915 0.051269401966815356 0.0012302426632437257 0.008920206804842798 0.0 0.0
0.0 0.04484494842909718 -0.03899127432718323 0.037849258062250854 0.001142016264932335 0.006989884343407107 0.0 0.0
0.0 0.03124153026097962 -0.027292732721024827 0.026235350006227696 0.0010573827147971218 0.005050067085769833 0.0 0.0
0.0 0.019993625085906762 -0.017624153144726755 0.016653990982510608 0.0009701621622161763 0.0032596524586878403 0.0 0.0
0.0 0.011405043633411405 -0.010164727330503142 0.009306198858796251 0.0008585284717068857 0.0017954391232073358 0.0 0.0
0.0 0.0053395631748188645 -0.004927229246716083 0.0042555855557242835 0.000671643690991811 0.0007599294088910853 0.0 0.0
0.0 0.0019815462696094505 -0.0016990311898002592 0.0013399331421854934 0.0003590980476147637 0.00016047968392559223 0.0 0.0
0.0 0.00026558115046461595 -0.00026119617472372436 0.00018625318641201025 7.494298831171377e-05 8.751523898429301e-06 0.0 0.0
0.0 -7.554250388522861e-06 6.972015270308818e-06 -5.842996952592081e-06 -1.1290183177167791e-06 -6.534445490858256e-06 0.0 0.0
0.0 0.0 0.0 0.0 0.0 0.0 0.0 0.0
0.0 0.0 0.0 0.0 0.0 0.0 0.0 0.0
0.0 0.0 0.0 0.0 0.0 0.0 0.0 0.0
0.0 0.0 0.0 0.0 0.0 0.0 0.0 0.0
0.0 0.0 0.0 0.0 0.0 0.0 0.0 0.0
0.0 0.0 0.0 0.0 0.0 0.0 0.0 0.0
0.0 -1.3317562140610002e-06 -6.518064507929174e-07 -1.1407485194430316e-06 1.7925549702359575e-06 7.565502567206451e-06 0.0 0.0
0.0 0.0005639263659877952 -0.0004804858012370206 0.00034842303775174004 0.0001320627634852809 6.715598096051863e-05 0.0 0.0
0.0 0.00268688001795613 -0.002410396075649709 0.0019505281176557501 0.00045986795799395763 4.3177873058842056e-05 0.0 0.0
0.0 0.006796292369620089 -0.006192817324443428 0.005454331527816936 0.0007384857966264947 -0.00027167047360421314 0.0 0.0
0.0 0.013558303404351508 -0.01210203781261956 0.011194473854519308 0.0009075639581002312 -0.0008135679451030823 0.0 0.0
0.0 0.023170847474855764 -0.020423644378314267 0.019405010703190007 0.001018633675124266 -0.0015821530090017358 0.0 0.0
0.0 0.03561280032561009 -0.031207117974736298 0.03009430969722962 0.0011128082775066711 -0.002544561459457632 0.0 0.0
0.0 0.050767540817168555 -0.044299808890809415 0.04309597187777368 0.0012038370130357592 -0.0036026953620184998 0.0 0.0
0.0 0.06846566025771698 -0.05947457390965388 0.058177284813586624 0.0012972890960672575 -0.004679656929331725 0.0 0.0
0.0 0.08786721942843659 -0.07651634637622275 0.07512349802494903 0.0013928483512736672 -0.00579182159376298 0.0 0.0
0.0 0.10942934731389112 -0.09517600958453774 0.09369425146093112 0.001481758123606601 -0.006957273230971169 0.0 0.0
0.0 0.13241890562721587 -0.1150767262173575 0.11352610156439678 0.0015506246529607432 -0.0081128234348764 0.0 0.0
0.0 0.15609992870469855 -0.135558184339101 0.13397096135803108 0.0015872229810697527 -0.009027840633882313 0.0 0.0
0.0 0.17920536359763967 -0.15552380737981553 0.15393636177632525 0.001587445603490389 -0.009303246256089722 0.0 0.0
0.0 0.1995872270497666 -0.17314624436048665 0.17159991930895982 0.0015463250515268593 -0.009246830064163599 0.0 0.0
0.0 0.2131182103380237 -0.1848111501696305 0.18351996662258135 0.001291183547048933 -0.013213541633973605 0.0 0.0
0.0 0.21190747318908731 -0.18297318744285962 0.18267568237429208 0.0002975050685674253 -0.03486912899020807 0.0 0.0
0.0 0.20314654284168648 -0.1706605219502433 0.16434496699080006 0.006315554959443224 8.293712938645115e-15 0.0 0.0
0.0 0.21190747318905198 -0.18297318744282715 0.18267568237426 0.00029750506856703756 0.03486912899023115 0.0 0.0
0.0 0.2131182103379525 -0.18481115016956853 0.18351996662251946 0.0012911835470489647 0.013213541633995397 0.0 0.0
0.0 0.19958722704966647 -0.1731462443604001 0.1715999193088731 0.0015463250515269325 0.009246830064171707 0.0 0.0
0.0 0.17920536359752415 -0.15552380737971583 0.15393636177622572 0.0015874456034900496 0.009303246256089515 0.0 0.0
0.0 0.15609992870457207 -0.1355581843389913 0.1339709613579214 0.0015872229810698294 0.009027840633879784 0.0 0.0
0.0 0.1324189056270869 -0.11507672621724596 0.11352610156428564 0.0015506246529603915 0.008112823434874301 0.0 0.0
0.0 0.10942934731376482 -0.09517600958442837 0.09369425146082215 0.0014817581236061367 0.006957273230966816 0.0 0.0
0.0 0.08786721942831212 -0.07651634637611524 0.07512349802484151 0.001392848351273717 0.005791821593757143 0.0 0.0
0.0 0.06846566025759919 -0.05947457390955182 0.058177284813484983 0.001297289096066851 0.004679656929323305 0.0 0.0
0.0 0.05076754081706775 -0.04429980889072215 0.043095971877686844 0.0012038370130353342 0.003602695362008904 0.0 0.0
0.0 0.03561280032552986 -0.031207117974666014 0.030094309697160072 0.001112808277505984 0.002544561459449037 0.0 0.0
0.0 0.02317084747479513 -0.020423644378260747 0.019405010703137084 0.0010186336751236485 0.0015821530089966077 0.0 0.0
0.0 0.013558303404309814 -0.012102037812582341 0.011194473854482976 0.0009075639580993619 0.000813567945099488 0.0 0.0
0.0 0.0067962923695939655 -0.006192817324419734 0.005454331527794347 0.0007384857966253819 0.0002716704736013928 0.0 0.0
0.0 0.002686880017941597 -0.0024103960756369225 0.0019505281176446206 0.00045986795799230173 -4.317787305952628e-05 0.0 0.0
0.0 0.0005639263659837383 -0.0004804858012340933 0.0003484230377496691 0.000132062763484424 -6.71559809600112e-05 0.0 0.0
0.0 -1.3317562144337642e-06 -6.51806450908817e-07 -1.1407485193439558e-06 1.792554970252873e-06 -7.56550256710667e-06 0.0 0.0
0.0 0.0 0.0 0.0 0.0 0.0 0.0 0.0
0.0 0.0 0.0 0.0 0.0 0.0 0.0 0.0
0.0 0.0 0.0 0.0 0.0 0.0 0.0 0.0
0.0 0.0 0.0 0.0 0.0 0.0 0.0 0.0
0.0 0.0 0.0 0.0 0.0 0.0 0.0 0.0
0.0 0.0 0.0 0.0 0.0 0.0 0.0 0.0
0.0 3.901047319719575e-05 -3.770659655951491e-05 2.4501073356339776e-05 1.3205523203175197e-05 1.553364292737768e-05 0.0 0.0
0.0 0.0009220871313770133 -0.0007459949543590344 0.0005375248765024833 0.0002084700778565509 0.0001788699826464947 0.0 0.0
0.0 0.0033954070676856882 -0.0030497837854199894 0.0024418969227147464 0.0006078868627052375 0.00039495717044440954 0.0 0.0
0.0 0.007939122170892255 -0.0072669346328625576 0.006316160882474536 0.0009507737503880291 0.0005176844973037945 0.0 0.0
0.0 0.015247265865143217 -0.013705185253921594 0.012488236833960515 0.001216948419961077 0.0005721898099265042 0.0 0.0
0.0 0.025519863719899068 -0.02271651438155155 0.02125205649375581 0.0014644578877957165 0.0005468734699005135 0.0 0.0
0.0 0.0389419150522414 -0.0344048973036544 0.03266483501091771 0.0017400622927366384 0.00039870145263432586 0.0 0.0
0.0 0.05536111861246333 -0.04864934381190473 0.046586313212755935 0.0020630305991487766 0.00016464122636973468 0.0 0.0
0.0 0.07417774382178177 -0.06521816285016817 0.06278174335732405 0.0024364194928441323 -0.00014661956472286544 0.0 0.0
0.0 0.09543648348695272 -0.08383749029830428 0.08099066899103499 0.002846821307269233 -0.0005644112294905228 0.0 0.0
0.0 0.11872063333098465 -0.10419389393138459 0.1009214218616275 0.003272472069757196 -0.0010581823498575678 0.0 0.0
0.0 0.14349039742156616 -0.12580931235860152 0.1221302518104978 0.003679060548103589 -0.0016392193104422612 0.0 0.0
0.0 0.16883579913321983 -0.1478470706706584 0.14382687988201964 0.0040201907886389734 -0.0021955468693212136 0.0 0.0
0.0 0.19320840147973695 -0.16898725987414975 0.16474464450102294 0.00424261537312651 -0.00244093100965493 0.0 0.0
0.0 0.21450179284026533 -0.18744169478358913 0.18311605095843464 0.004325643825154232 -0.002175934183871398 0.0 0.0
0.0 0.22978519408242232 -0.20090450366289075 0.1964697262013992 0.004434777461491649 -0.004319689660898475 0.0 0.0
0.0 0.23287269263867985 -0.20411146194468946 0.1995001057533501 0.0046113561913394335 -0.026615953962454773 0.0 0.0
0.0 0.22885545339281774 -0.19520517821045824 0.1835249618310835 0.011680216379374246 5.967448757360216e-16 0.0 0.0
0.0 0.23287269263863547 -0.20411146194465077 0.19950010575331142 0.00461135619133914 0.026615953962461116 0.0 0.0
0.0 0.22978519408234355 -0.20090450366282187 0.19646972620133185 0.0044347774614897605 0.004319689660907285 0.0 0.0
0.0 0.2145017928401585 -0.18744169478349598 0.18311605095834416 0.004325643825152069 0.0021759341838728623 0.0 0.0
0.0 0.19320840147960971 -0.16898725987403868 0.16474464450091364 0.004242615373124954 0.0024409310096521787 0.0 0.0
0.0 0.16883579913308425 -0.14784707067054037 0.14382687988190335 0.004020190788636609 0.00219554686931913 0.0 0.0
0.0 0.14349039742142458 -0.12580931235847753 0.12213025181037629 0.003679060548101123 0.001639219310441701 0.0 0.0
0.0 0.11872063333085046 -0.10419389393126727 0.10092142186151262 0.0032724720697545518 0.001058182349855807 0.0 0.0
0.0 0.09543648348682023 -0.08383749029818881 0.08099066899092154 0.0028468213072671716 0.000564411229487586 0.0 0.0
0.0 0.07417774382165249 -0.06521816285005591 0.06278174335721308 0.0024364194928427445 0.00014661956471932226 0.0 0.0
0.0 0.055361118612356014 -0.048649343811810936 0.04658631321266388 0.0020630305991470553 -0.00016464122637206528 0.0 0.0
0.0 0.0389419150521543 -0.03440489730357854 0.032664835010843364 0.0017400622927351106 -0.0003987014526371643 0.0 0.0
0.0 0.025519863719833228 -0.022716514381493594 0.021252056493699364 0.0014644578877942291 -0.0005468734699018226 0.0 0.0
0.0 0.015247265865098303 -0.013705185253881385 0.012488236833921716 0.001216948419959659 -0.000572189809925984 0.0 0.0
0.0 0.00793912217086294 -0.007266934632835832 0.006316160882449275 0.0009507737503865563 -0.0005176844973033843 0.0 0.0
0.0 0.0033954070676702605 -0.00304978378540551 0.002441896922702272 0.0006078868627032365 -0.0003949571704428897 0.0 0.0
0.0 0.0009220871313737495 -0.000745994954356805 0.0005375248765009934 0.00020847007785581393 -0.00017886998264564786 0.0 0.0
0.0 3.9010473196275425e-05 -3.7706596558829145e-05 2.450107335585683e-05 1.3205523202972325e-05 -1.5533642927242496e-05 0.0 0.0
0.0 0.0 0.0 0.0 0.0 0.0 0.0 0.0
0.0 0.0 0.0 0.0 0.0 0.0 0.0 0.0
0.0 0.0 0.0 0.0 0.0 0.0 0.0 0.0
SCALARS Wm float 4
LOOKUP_TABLE default
13.804394069484893 2.064168663455321 5.895359841103189 5.844865564926379
7.136381167686139 3.3821030890328037 1.7043097807070888 2.049968297946247
0.8158904130387363 0.7334465482272248 0.016511476686655906 0.06593238812485562
0.5904060631292789 0.5422481490577716 0.013448761105119292 0.034709152966388206
1.279616774997986 0.8474363237634599 0.1574731751981832 0.2747072760363426
2.8991953919976887 1.2706130601636365 0.6283121967690893 1.000270135064962
6.142141850630552 1.867079265841392 1.900508292686959 2.3745542921022005
11.489325334484144 2.647985002718848 4.280197412536664 4.561142919228633
19.479094677369247 3.6743012024687207 8.157821623268552 7.646971851631971
30.4727075087102 4.971023231533851 13.840882678029862 11.66080159914649
44.59123587162236 6.538859435106293 21.49169269034526 16.560683746170803
61.65695471085429 8.359881986716879 31.028457261408562 22.268615462728896
81.66490861006277 10.3973788751467 42.57119123036223 28.696338504553843
104.37714201823027 12.608394341695915 56.015526859377715 35.75322081715673
129.3184064494827 14.819660430205857 71.1921793690415 43.30656665023531
155.62892146544186 16.751075393006133 87.73023740903834 51.1476086633974
181.9394521996446 18.090621028257953 104.86584312931915 58.982988042067575
206.5350486389457 18.629726286151296 121.54028858139141 66.36503377140284
227.65991630341287 18.479516478105197 136.40293596675673 72.77746385855112
242.49713529650907 17.27645918124778 147.61900085646568 77.60167525879537
247.17805887020813 14.950741171374952 152.50339619029094 79.72392150854228
242.49713529646596 17.276459181238042 147.6190008564419 77.60167525878606
227.65991630333394 18.47951647810042 136.40293596670472 72.7774638585286
206.53504863886496 18.6297262861818 121.54028858131392 66.36503377136907
181.93945219949887 18.090621028228494 104.86584312923893 58.98298804203146
155.62892146529526 16.751075392979885 87.73023740895633 51.14760866335904
129.31840644935647 14.819660430204516 71.19217936895771 43.30656665019427
104.37714201809945 12.608394341678665 56.01552685930265 35.753220817118134
81.66490860994799 10.397378875141019 42.57119123029146 28.69633850451553
61.65695471074833 8.359881986707492 31.028457261347125 22.268615462693724
44.591235871530216 6.53885943509314 21.491692690296368 16.560683746140697
30.472707508641076 4.971023231524621 13.840882677994115 11.66080159912236
19.47909467732017 3.674301202461748 8.15782162324456 7.646971851613867
11.489325334451479 2.6479850027116125 4.280197412523038 4.561142919216829
6.142141850610365 1.867079265835604 1.9005082926798842 2.3745542920948757
2.89919539198765 1.2706130601607153 0.6283121967662681 1.000270135060665
1.279616774993745 0.8474363237613797 0.15747317519730358 0.2747072760350615
0.5904060631284261 0.5422481490570843 0.01344876110505263 0.03470915296628912
0.8158904130372288 0.7334465482259774 0.01651147668656671 0.06593238812468345
7.136381167681071 3.3821030890343837 1.7043097807038396 2.0499682979428457
13.80439406945475 2.06416866343972 5.895359841095111 5.844865564919931
16.616786978613472 7.1744148510239 4.6109824766077745 4.8313896509818
2.9721493168113047 0.6538198595032644 0.9915690334060924 1.3267604239019466
0.2911837063207057 0.3431122618554105 -0.01828562433693346 -0.03364293119777129
0.45362989115439295 0.4358239559242568 0.0036847657178160284 0.01412116951232006
0.9589128828786921 0.6884179465948901 0.08655313396797043 0.1839418023158319
2.3093934253018693 1.0294880528598527 0.49514035739280526 0.7847650150492106
5.038539238382055 1.4388291218295963 1.5625577741930574 2.037152342359401
9.717741536171134 1.9599800145503263 3.698739102082344 4.059022419538465
16.745428141817094 2.589439332097039 7.223614795448755 6.932374014271305
26.354805503593127 3.3152778654457613 12.372813320492712 10.666714317654643
38.61746702412785 4.117026273702103 19.288675792366053 15.211764958059682
53.539260636230985 4.999648649893874 28.050777390582056 20.488834595755055
70.79011441478372 5.964395040399083 38.39718411765925 26.428535256725414
90.50914719709695 6.967980691669405 50.59057915722442 32.950587348203115
112.23059348675784 7.937657732385649 64.34341745939469 39.94951829497758
135.29651278614574 8.730336821184384 79.33025215494985 47.23592381001142
158.64088242016956 9.180112625712253 94.95224327543787 54.508526519019384
180.80364043878825 9.175655114666965 110.23631160399715 61.39167372012407
199.83850069891403 8.605869319386363 123.85511221917868 67.37751916034892
213.29708436357348 7.559756293730325 133.9973074742251 71.7400205956181
218.4850237345653 6.3635317286397735 138.4798588148679 73.64163319105772
213.29708436355028 7.559756293739933 133.9973074742021 71.74002059560824
199.83850069884 8.60586931937866 123.85511221913261 67.37751916032879
180.80364043869312 9.17565511466968 110.23631160392942 61.391673720094126
158.64088242006622 9.180112625715243 94.9522432753649 54.508526518986
135.29651278603302 8.730336821182563 79.33025215487446 47.23592380997597
112.23059348663695 7.937657732376203 64.34341745932024 39.94951829494049
90.50914719698186 6.967980691655392 50.59057915715789 32.950587348168554
70.79011441468099 5.9643950403965915 38.3971841175946 26.428535256689777
53.5392606361387 4.999648649889317 28.050777390526854 20.48883459572253
38.61746702405027 4.117026273697691 19.28867579232126 15.211764958031313
26.354805503531797 3.31527786543768 12.372813320461248 10.66671431763287
16.74542814177477 2.589439332093748 7.223614795426827 6.932374014254191
9.717741536144583 1.9599800145488036 3.698739102069139 4.059022419526642
5.038539238365456 1.4388291218260676 1.5625577741867755 2.03715234235261
2.3093934252934365 1.0294880528575925 0.4951403573900807 0.7847650150457647
0.9589128828758103 0.6884179465934182 0.08655313396741866 0.18394180231497378
0.45362989115397445 0.4358239559237132 0.0036847657178248018 0.014121169512436456
0.2911837063207479 0.3431122618552448 -0.01828562433684418 -0.03364293119765245
2.9721493168033915 0.653819859501858 0.9915690334029263 1.3267604238986093
16.61678697858569 7.174414851011759 4.610982476599299 4.831389650974615
12.644462973650494 5.743958376208748 3.239664667796068 3.660839929645674
1.863220251740845 0.28400092199598437 0.6638726386311593 0.9153466911137023
0.180399141039506 0.17970951782263406 0.0001275230558418109 0.000562100161030127
0.33353909567416384 0.3345130664566752 -0.0005802334845944185 -0.00039373729791712414
0.720034523996461 0.5915472863176644 0.03525212518930927 0.0932351124894873
1.7971057948658968 0.9208120285122902 0.32660275748824813 0.5496910088653593
4.089751477392586 1.3107148878622643 1.1615710631222633 1.6174655264080586
8.171465640029863 1.787473544411541 2.9727517849669227 3.411240310651399
14.346598162606774 2.3432677529825225 6.008548565243128 5.994781844381128
22.819704816834268 2.9667243753429693 10.49853739050057 9.354443050990719
33.58556547483325 3.652188078880733 16.50693453879601 13.426442857156514
46.552713711911395 4.408237775983778 24.006440593421985 18.138035342505617
61.808188512728755 5.249524935932583 33.135115150708344 23.423548426087834
78.94698967427152 6.154309954160296 43.55606191342011 29.23661780669109
98.01465984221385 7.049601315496715 55.48455808063394 35.48050044608314
118.36204295462068 7.837232649726815 68.51630853344916 42.008501771444706
139.10118914869415 8.371154226702181 82.14542416887602 48.584610753115996
158.87463294781386 8.474711241726055 95.57443459069289 54.82548711539497
175.82290503091434 8.012698555325418 107.57368441955393 60.236522056034985
187.81386676740277 7.221780839137704 116.44949895302433 64.14258697524069
192.20230912024482 5.703075222503886 120.55360034399368 65.94563355374727
187.81386676738444 7.221780839151963 116.44949895300198 64.14258697523039
175.8229050308521 8.012698555318426 107.57368441951596 60.236522056017655
158.87463294773724 8.474711241731711 95.57443459063632 54.82548711536917
139.1011891485928 8.37115422669228 82.14542416881396 48.58461075308652
118.36204295451752 7.837232649721417 68.51630853338357 42.00850177141258
98.0146598421133 7.049601315491709 55.484558080570636 35.480500446050954
78.94698967418857 6.154309954169124 43.55606191336043 29.23661780665895
61.80818851263626 5.24952493592511 33.13511515065416 23.423548426057017
46.55271371183032 4.408237775978556 24.006440593374748 18.138035342477057
33.58556547476467 3.6521880788760406 16.506934538757488 13.42644285713115
22.819704816781982 2.966724375336976 10.49853739047369 9.35444305097131
14.346598162567815 2.3432677529768466 6.008548565224716 5.994781844366253
8.171465640003795 1.7874735444090408 2.9727517849547054 3.41124031064005
4.089751477379031 1.3107148878597752 1.161571063117199 1.6174655264020565
1.7971057948598728 0.9208120285110676 0.3266027574862242 0.5496910088625806
0.7200345239942751 0.5915472863161496 0.035252125189056495 0.0932351124890693
0.33353909567372153 0.33451306645618 -0.0005802334845875152 -0.00039373729787092553
0.18039914103940244 0.17970951782254516 0.00012752305583897588 0.0005621001610183565
1.8632202517344143 0.2840009219949602 0.6638726386285939 0.9153466911108588
12.64446297362371 5.743958376197543 3.2396646677879177 3.6608399296382603
9.601950900131765 4.481420031998959 2.316100371103159 2.804430497029649
1.2616973030263803 0.1292090899445145 0.4521363236338444 0.6803518894480193
0.1258664993302111 0.1258664993302111 0.0 0.0
0.24757208152448335 0.24941387502483686 -0.0003034223110458263 -0.0015383711893075115
0.5363455277614315 0.49544374830101967 0.009045989106403916 0.03185579035400796
1.338170626171895 0.7976233413807705 0.18371893318955035 0.3568283516015745
3.242468832119823 1.1831811284244667 0.8381089900367609 1.2211787136585945
6.688119498530689 1.612043437774358 2.2971646604099796 2.7789114003463506
12.027286976948954 2.0995259278754297 4.863705591274579 5.064055457798941
19.36122243603852 2.6317999673410704 8.686441633523238 8.042980835174214
28.633789847510513 3.2103510954492185 13.781864814714172 11.641573937347133
39.843873070651235 3.8585479628139234 20.199396720763175 15.785928387074149
52.82731689561288 4.585630221340826 27.81525296889792 20.42643370537412
67.76102450679114 5.3830724482963 36.859474221468595 25.51847783702625
84.17534168018386 6.217333405853924 46.94831198562549 31.00969628870446
101.77625400933232 7.001666832727161 57.994281414039975 36.78030576256518
120.00065323101742 7.603795655525474 69.77257973303196 42.62427784246
137.50171537787742 7.834988295110998 81.43124334447141 48.23548373829496
152.61700192578593 7.563718790425732 91.90400801409695 53.1492751212632
163.4706607650141 6.928029510729055 99.77433292194257 56.76829833234252
167.45774001536014 5.115539643954098 103.78148098095042 58.56071939045557
163.47066076498473 6.928029510726841 99.7743329219236 56.76829833233424
152.61700192573045 7.563718790413239 91.90400801406751 53.14927512124974
137.5017153777974 7.834988295100076 81.43124334442453 48.23548373827286
120.00065323094242 7.603795655526947 69.77257973298073 42.62427784243475
101.77625400924903 7.001666832727198 57.99428141398458 36.78030576253727
84.17534168009294 6.2173334058460155 46.94831198557141 31.009696288675467
67.76102450670214 5.383072448288821 36.85947422141624 25.518477836997096
52.82731689554061 4.585630221341457 27.815252968851922 20.4264337053472
39.84387307058418 3.8585479628125787 20.199396720722937 15.785928387048676
28.63378984745316 3.2103510954469447 13.78186481468143 11.641573937324802
19.361222435993707 2.6317999673379666 8.686441633499374 8.042980835156358
12.027286976917438 2.099525927872559 4.863705591259031 5.06405545778585
6.688119498509069 1.6120434377713362 2.297164660400752 2.7789114003369795
3.242468832108045 1.183181128422327 0.8381089900322596 1.2211787136534584
1.3381706261667998 0.7976233413791904 0.18371893318812843 0.3568283515994809
0.5363455277602404 0.49544374829990506 0.00904598910634846 0.03185579035398661
0.24757208152417784 0.24941387502455234 -0.00030342231104833533 -0.0015383711893261378
0.12586649933012284 0.12586649933012284 0.0 0.0
1.2616973030210386 0.12920908994384564 0.45213632363166656 0.6803518894455269
9.601950900110344 4.481420031990636 2.3161003710966797 2.8044304970230316
7.189622159044811 3.471857746575138 1.6043979374239095 2.1133664750457655
0.9243578367475505 0.11778552246343578 0.32557775332232775 0.4809945609617857
0.11451795120943455 0.11451795120943455 0.0 0.0
0.19795810933333954 0.19804383975300627 -4.614044968411541e-06 -8.111637469836653e-05
0.3996473414927988 0.400345370459634 -0.0022968304131172285 0.0015988014462822385
0.9744828871498218 0.6843973875199585 0.08940450733530715 0.20068099229455544
2.4673550590511812 1.0356591509692146 0.5666556575425282 0.8650402505394392
5.290329019957764 1.4363194686347402 1.684639565001013 2.169369986322012
9.790036349966602 1.8589062255674393 3.7855816012977774 4.145548523101383
15.995304576902946 2.3095590532237495 6.947778771334449 6.737966752344748
23.848064994379996 2.796274938551788 11.191954094582552 9.859835961245642
33.2783421221413 3.3425017416843437 16.498989879266286 13.436850501190667
44.28717095715361 3.9707615275503048 22.888154348746887 17.428255080856417
56.68470652973059 4.676467167312247 30.196570136633014 21.811669225785312
70.62547296291228 5.430225840236359 38.65432552436326 26.540921598312682
85.72398014372843 6.19964965086052 47.986870056166566 31.537460436701338
101.32989732738454 6.873436221520756 57.799653251226204 36.65680785463756
116.63285580819509 7.262773869147887 67.74302970552006 41.62705223352713
130.12514764725486 7.192151152836149 76.87382618289541 46.05917031152334
140.14871467146648 6.692972430670205 84.00753161375215 49.44821062704411
143.91572286979445 4.566785866452345 88.01951637024534 51.32942063309676
140.1487146714552 6.692972430682112 84.00753161373649 49.4482106270366
130.12514764724185 7.192151152864389 76.8738261828677 46.05917031150982
116.63285580813191 7.262773869138639 67.74302970548416 41.6270522335091
101.32989732732736 6.873436221531763 57.79965325118079 36.65680785461484
85.7239801436646 6.19964965086995 47.98687005611863 31.537460436675985
70.62547296284504 5.430225840241598 38.65432552431652 26.54092159828697
56.684706529658584 4.676467167303081 30.196570136593127 21.811669225762362
44.28717095708764 3.9707615275475594 22.888154348707722 17.42825508083236
33.27834212208362 3.342501741682759 16.498989879232454 13.436850501168411
23.848064994332958 2.7962749385520485 11.191954094554939 9.859835961225976
15.995304576865756 2.309559053222734 6.947778771314135 6.7379667523288935
9.790036349937536 1.858906225562052 3.785581601285286 4.145548523090195
5.290329019940383 1.4363194686331915 1.6846395649932606 2.169369986313931
2.467355059041574 1.035659150967078 0.5666556575391615 0.8650402505353343
0.9744828871465481 0.6843973875188161 0.0894045073345004 0.20068099229323136
0.39964734149184633 0.40034537045849156 -0.0022968304130913113 0.0015988014464461148
0.19795810933325814 0.19804383975296974 -4.614044972019203e-06 -8.11163747395696e-05
0.11451795120936506 0.11451795120936506 0.0 0.0
0.924357836743461 0.11778552246303671 0.3255777533205938 0.48099456095983195
7.189622159026965 3.4718577465677987 1.6043979374188924 2.1133664750402703
5.286658304865047 2.6662417760758683 1.0841561728159173 1.5362603559732622
0.6565598448127425 0.14452197877596076 0.18658973872617388 0.32544812731060796
0.12956080512405033 0.12956080512405033 0.0 0.0
0.17587675754115784 0.1758321315183888 4.039493412672517e-06 4.0586529356357204e-05
0.312580707431778 0.3230174645631673 -0.0028263779019277236 -0.007610379229461521
0.689386412528114 0.5660935135061392 0.02943525035826022 0.09385764866371446
1.756735799205103 0.8745088371285286 0.3134060352956777 0.568820926780896
4.0425814192277185 1.2505326862422352 1.1985936397835906 1.5934550932018914
7.631519477291222 1.6214024017614663 2.765108432852448 3.2450086426773086
12.76511863714746 2.001136396260742 5.319344731449316 5.4446375094373956
19.213790610211845 2.4056371478005043 8.722770781906616 8.08538268050472
26.920709724758254 2.8642418467679382 12.962023187869807 11.094444690120518
35.869289110089454 3.400036095826384 18.031953390361146 14.437299623901927
46.10884543544805 4.018473607516866 23.983588107015056 18.10678372091613
57.49449335887344 4.709632840537207 30.704321054654873 22.080539463681355
69.885420338786 5.433757752732271 38.15139246344699 26.300270122606772
83.16510664871966 6.152141023142551 46.35614404115889 30.656821584418218
96.30168627176043 6.722306933248188 54.589842392191436 34.989536946320825
108.22740440578794 6.878469147827339 62.36509356810987 38.98384168985073
117.63052538970773 6.516843592541046 68.91396981421687 42.199711982949836
121.33292302519001 4.062684979833808 73.05536678060861 44.214871264747686
117.63052538968066 6.516843592532261 68.91396981420459 42.19971198294377
108.22740440574084 6.878469147816513 62.365093568085726 38.98384168983864
96.30168627172664 6.7223069332586745 54.5898423921619 34.989536946306025
83.16510664865501 6.15214102313554 46.356144041121134 30.65682158439831
69.8854203387159 5.433757752722406 38.151392463408314 26.300270122585193
57.49449335880325 4.709632840524456 30.704321054618298 22.080539463660482
46.10884543540064 4.018473607521701 23.983588106982637 18.1067837208963
35.869289110033165 3.4000360958198073 18.031953390330887 14.437299623882488
26.920709724710797 2.8642418467663804 12.962023187842641 11.094444690101772
19.213790610171326 2.4056371477996463 8.722770781883911 8.08538268048777
12.765118637116434 2.0011363962598527 5.319344731432863 5.444637509423713
7.631519477271472 1.6214024017613207 2.7651084328424362 3.245008642667714
4.042581419213019 1.250532686240061 1.1985936397775325 1.5934550931954246
1.7567357991983654 0.8745088371274053 0.3134060352933324 0.5688209267776274
0.6893864125255713 0.566093513504952 0.02943525035780538 0.09385764866281411
0.3125807074314076 0.32301746456257713 -0.002826377901884203 -0.007610379229285286
0.17587675754094623 0.17583213151817617 4.039493412663058e-06 4.0586529357397666e-05
0.129560805123815 0.129560805123815 0.0 0.0
0.6565598448096694 0.14452197877571119 0.18658973872490311 0.3254481273090552
5.286658304851466 2.6662417760702457 1.0841561728122904 1.5362603559689323
3.755333512936955 2.0170084830555215 0.6738623980175495 1.0644626318638846
0.4887490861878898 0.18821746687200716 0.10214668536713302 0.19838493394874968
0.15593444158095957 0.1559390915447245 -2.498229005542216e-07 -4.400140864375743e-06
0.17239058114152336 0.17239700012706666 -2.382804681920647e-07 -6.18070507507026e-06
0.26187333812579 0.2683284696242877 -0.001375139045119494 -0.005079992453378351
0.49169962462122274 0.46441562585013946 0.0019860471504471056 0.02529795162063632
1.2043745759220594 0.7230455829190507 0.1549625704798927 0.3263664225231161
2.8282654972340886 1.0418830932939929 0.701782842476431 1.0845995614636652
5.719564189385807 1.3862570389610853 1.9548943841634072 2.3784127662613144
9.65037974093592 1.7024364187408625 3.7810061951701717 4.166937127024884
14.772577825945037 2.038002632792747 6.410783028041141 6.323792165111146
20.83005258998302 2.4195321868711996 9.647871299599375 8.762649103512445
27.825999274266852 2.8727076015962933 13.495000562958529 11.458291109712043
35.818890971827344 3.41234081307273 17.992656077597584 14.413894081157036
44.79533704003406 4.032007101428603 23.133466830787864 17.62986310781759
54.795452271734284 4.71473972862255 29.01343313339176 21.067279409719948
65.26521772625816 5.442675007936612 35.15669860297679 24.66584411534477
76.35304946086933 6.162376634786544 41.883971609248704 28.306701216834092
87.02620552607962 6.589444543601435 48.587148778431846 31.849612204046316
95.87572655146563 6.409918393052695 54.51692802319866 34.948880135214296
99.68700143351873 3.6179323371251124 58.89528452001568 37.1737845763779
95.87572655144794 6.409918393044628 54.51692802319223 34.94888013521105
87.0262055260666 6.5894445436147535 48.58714877841455 31.84961220403733
76.35304946083383 6.162376634788957 41.88397160922408 28.30670121682077
65.2652177262102 5.44267500793201 35.15669860294906 24.665844115329136
54.79545227168849 4.714739728622502 29.01343313336276 21.067279409703225
44.79533703999388 4.032007101431643 23.13346683076111 17.62986310780114
35.818890971783425 3.4123408130702537 17.99265607757233 14.413894081140828
27.825999274226444 2.8727076015924555 13.495000562936795 11.458291109697214
20.830052589943392 2.419532186867003 9.647871299578872 8.762649103497512
14.772577825910245 2.038002632787586 6.410783028024665 6.323792165097995
9.650379740909425 1.7024364187365268 3.7810061951583758 4.166937127014521
5.7195641893680556 1.3862570389608013 1.9548943841545319 2.378412766252723
2.828265497224034 1.0418830932924843 0.7017828424725366 1.084599561459013
1.2043745759167124 0.7230455829175891 0.15496257047834894 0.326366422520774
0.49169962461967726 0.46441562584910473 0.0019860471503111814 0.025297951620261844
0.2618733381252588 0.2683284696236892 -0.0013751390450997757 -0.0050799924533308305
0.17239058114124628 0.17239700012677886 -2.3828046750136562e-07 -6.180705065057584e-06
0.15593444158060965 0.1559390915443665 -2.4982290001210207e-07 -4.400140856849962e-06
0.48874908618576574 0.1882174668718643 0.10214668536627948 0.19838493394762155
3.755333512926693 2.0170084830513018 0.6738623980149582 1.0644626318604347
2.6358866383889517 1.5360502557483104 0.4284932537324797 0.6713431289081615
0.35706771208483146 0.21691362972898381 0.0359572826959346 0.10419679965991291
0.1833790246197487 0.18316455478249224 2.204760222993294e-05 0.0001924222350265034
0.18039521831923785 0.1803393095319619 4.581230301874094e-06 5.132755697406942e-05
0.2354398875001687 0.23973892775946543 -0.0008168072285417148 -0.0034822330307549103
0.3712349810949278 0.3786136042696888 -0.005077352212456111 -0.0023012709623050783
0.7781711480436969 0.5749778289647045 0.05251080800084856 0.15068251107814354
1.8372451026240304 0.8336968758403623 0.3567128837593581 0.6468353430243104
3.8298052648656755 1.1248198163482965 1.1256963170495782 1.579289131467801
6.836078146107856 1.4081547739749343 2.5027473028178577 2.925176069315064
10.555020265953 1.6843151063388682 4.2904399504837984 4.580265209130339
15.01540854722016 2.000933370249869 6.564533987402706 6.449941189567585
20.167626663530385 2.380621464816584 9.286973759943898 8.500031438769907
26.03717988168951 2.842364975870943 12.450499670354084 10.744315235464484
32.739118003179335 3.400708142269158 16.139584090389015 13.198825770521172
40.169348747213085 4.034405841143258 20.27777508038683 15.857167825683
48.348306489994286 4.728671930950261 24.953440232139524 18.666194326904478
57.05217309742173 5.542996512330273 29.897979254504797 21.61119733058666
66.1137537083313 6.273811121488362 35.180751435946036 24.659191150896874
74.63585481300996 6.3771314346496 40.625216064565954 27.633507313794414
78.77902419007711 3.2490175270358246 45.370125307960855 30.159881355080433
74.63585481301281 6.377131434657454 40.62521606456259 27.63350731379277
66.1137537083124 6.2738111214904 35.18075143593265 24.659191150889363
57.05217309738876 5.5429965123242315 29.8979792544878 21.61119733057675
48.348306489956 4.728671930943381 24.953440232119934 18.666194326892686
40.169348747176116 4.034405841141356 20.277775080365252 15.857167825669476
32.739118003136554 3.4007081422580523 16.13958409036987 13.198825770508655
26.03717988166063 2.8423649758718414 12.450499670336491 10.7443152354523
20.16762666350586 2.380621464820526 9.28697375992747 8.500031438757844
15.015408547193207 2.0009333702476844 6.564533987388913 6.449941189556609
10.555020265930159 1.6843151063364956 4.2904399504728365 4.580265209120825
6.83607814608847 1.4081547739693852 2.502747302810693 2.9251760693083946
3.8298052648535 1.1248198163474676 1.1256963170441439 1.5792891314618878
1.837245102616921 0.8336968758388167 0.3567128837570031 0.646835343021101
0.7781711480408926 0.5749778289639215 0.05251080800016178 0.15068251107680972
0.3712349810938752 0.3786136042686379 -0.00507735221247522 -0.002301270962287486
0.23543988749989844 0.23973892775915084 -0.0008168072285256106 -0.003482233030726819
0.1803952183187698 0.18033930953147473 4.581230302510009e-06 5.132755699251951e-05
0.18337902461969519 0.18316455478232208 2.2047602238947467e-05 0.000192422235134154
0.35706771208335863 0.21691362972878275 0.035957282695458906 0.10419679965911688
2.6358866383811197 1.536050255745035 0.4284932537304708 0.6713431289056123
1.7241906838433747 1.1374266364227175 0.20019193057173182 0.386572116848925
0.2755446479427332 0.2327645916737944 0.006719079844675585 0.03606097642426321
0.20621345226825813 0.20633722353694234 -1.5027112388085855e-05 -0.00010874415629612924
0.19473863969895758 0.19499997884730394 -2.791356440999495e-05 -0.0002334255839363819
0.22410142203450925 0.22710455571686047 -0.0006438592215060977 -0.0023592744608450767
0.30862228988105544 0.3166471432438305 -0.0037342307313392325 -0.00429062263143584
0.5062743510843386 0.4523640356952717 0.007256931429450703 0.04665338395961615
1.0662577874808163 0.6326778532861008 0.13506693614739823 0.29851299804731735
2.24824593367409 0.852658104185925 0.5250621753299568 0.8705256541582072
4.145371995658321 1.083925228374198 1.3027584871156181 1.7586882801685055
6.601014716013243 1.3161627838820416 2.395377771688527 2.889474160442677
9.57017070390213 1.5808261626901936 3.8125712203549638 4.176773320856973
12.979269374589261 1.898275730476219 5.4931325360364305 5.587861108076609
16.867024750394087 2.2855761992284447 7.451153433986309 7.130295117179332
21.350258619285857 2.7710506831135886 9.75058601211719 8.828621924055069
26.501063495132616 3.3638635542770423 12.433464316755591 10.70373562409999
32.252433414068136 4.02431804140374 15.481717406583448 12.746397966080952
38.54390633241942 4.773021643971615 18.832454786330008 14.938429902117793
45.92923981436581 5.779379597989879 22.754595761825637 17.39526445455029
54.164221890252975 6.4288232556136995 27.52883447002452 20.20656416461474
58.85416004588408 3.015062545898463 32.60504192187324 23.234055578112383
54.16422189025285 6.4288232556159794 27.528834470023003 20.206564164613876
45.929239814336256 5.779379597969165 22.754595761820102 17.395264454546968
38.54390633240127 4.773021643970346 18.832454786319616 14.9384299021113
32.252433414038016 4.0243180413946344 15.481717406570779 12.746397966072596
26.501063495104592 3.363863554270723 12.4334643167427 10.703735624091182
21.350258619272374 2.771050683120464 9.750586012105394 8.828621924046512
16.867024750375727 2.285576199229397 7.451153433975333 7.130295117171
12.979269374567018 1.898275730472269 5.4931325360264065 5.5878611080683465
9.570170703886006 1.580826162690579 3.812571220346119 4.17677332084931
6.601014715997349 1.3161627838798977 2.395377771681566 2.8894741604358867
4.145371995648437 1.0839252283731762 1.3027584871113083 1.7586882801639547
2.2482459336659235 0.8526581041834198 0.5250621753274362 0.8705256541550678
1.066257787477237 0.6326778532852464 0.13506693614635962 0.2985129980456309
0.5062743510824409 0.45236403569439965 0.007256931429097396 0.046653383958943646
0.30862228988023677 0.31664714324269067 -0.0037342307312831723 -0.00429062263117069
0.22410142203417693 0.22710455571627572 -0.000643859221478533 -0.002359274460620313
0.194738639698319 0.19499997884663411 -2.7913564403424566e-05 -0.00023342558391163359
0.2062134522681913 0.20633722353679296 -1.5027112385333079e-05 -0.00010874415621638854
0.2755446479416257 0.23276459167341518 0.00671907984441506 0.03606097642379537
1.724190683838397 1.1374266364205847 0.2001919305705547 0.38657211684725784
1.1009724895279194 0.8496682279145666 0.07661706450853754 0.17468719710481576
0.22242473400626708 0.22919481148090887 -0.004679968087109602 -0.002090109387532173
0.22229528779935037 0.22162740483844182 8.795313919007445e-05 0.0005799298217185232
0.21152144529790262 0.21112085223080485 4.308643941056757e-05 0.0003575066276870884
0.22518295607370398 0.22731069093766681 -0.0005547349640919498 -0.0015729998998709443
0.28168331261449625 0.286046802495455 -0.0020776784779684373 -0.0022858114029902497
0.37830284929021485 0.3594895760266486 0.0014706740725360904 0.01734259919103013
0.5613911989308286 0.4405945806658884 0.028239156958479724 0.09255746130646045
1.007854988546235 0.5603673037196216 0.14004610325220282 0.30744158157441
1.864906090138614 0.7053777560893726 0.42652535990991675 0.7330029741393254
3.146437717300346 0.8716301842970707 0.9383895360772625 1.3364179969260124
4.682717791718998 1.064318953518251 1.568331846731951 2.0500669914687975
6.512737097656926 1.3042336028133892 2.365794780927244 2.8427087139162914
8.64855726478599 1.6097347913491857 3.3202934953466476 3.7185289780901623
11.154447064420552 2.0047978535765885 4.449732900336215 4.699916310507746
14.164683485053441 2.5241382522557307 5.813807816629755 5.826737416167952
17.785943796570187 3.1632636213050516 7.4881115196064005 7.134568655658737
21.941496287483183 3.813546608098297 9.512693923459068 8.61525575592582
26.95619915471405 4.672527744630816 11.941439935208122 10.342231474875103
34.36072649533447 6.218240241274086 15.41552459951929 12.7269616545411
40.8873855168616 3.0959068939459597 21.298141120572865 16.493337502342754
34.360726495326034 6.218240241260474 15.41552459952241 12.726961654543146
26.956199154727173 4.67252774464648 11.941439935206617 10.342231474874076
21.94149628746271 3.813546608088727 9.512693923452707 8.61525575592127
17.78594379655347 3.1632636213007386 7.488111519599297 7.134568655653437
14.164683485037934 2.5241382522496187 5.813807816624546 5.826737416163771
11.154447064404414 2.004797853571423 4.449732900330311 4.699916310502683
8.648557264771696 1.6097347913431035 3.320293495342235 3.7185289780863533
6.512737097648395 1.3042336028125798 2.3657947809232955 2.8427087139125162
4.682717791706638 1.064318953514451 1.568331846727697 2.050066991464492
3.1464377172928337 0.8716301842968457 0.938389536073842 1.3364179969221466
1.8649060901336605 0.7053777560894222 0.4265253599077566 0.7330029741364819
1.007854988544413 0.560367303719792 0.14004610325147243 0.3074415815731485
0.5613911989292815 0.4405945806655813 0.028239156958064116 0.09255746130563622
0.37830284928920865 0.3594895760259088 0.0014706740724567883 0.017342599190842953
0.2816833126139771 0.2860468024945356 -0.0020776784779206092 -0.0022858114026379443
0.2251829560732312 0.22731069093706296 -0.0005547349640736374 -0.0015729998997581068
0.2115214452974995 0.2111208522302554 4.3086439423259655e-05 0.0003575066278207487
0.22229528779922603 0.22162740483815346 8.795313920715904e-05 0.0005799298218654347
0.2224247340057649 0.22919481148062548 -0.0046799680871602205 -0.0020901093877002974
1.1009724895247195 0.849668227912928 0.07661706450795133 0.1746871971038401
0.6830451607182808 0.6214994439072823 0.013262213396702508 0.048283503414296054
0.19629091858281741 0.2058822280704682 -0.002230926314065105 -0.007360383173585664
0.23165237371068226 0.23223811609520426 -6.832468008818704e-05 -0.0005174177044337813
0.22795121410906183 0.22722127114177856 8.970726878933974e-05 0.0006402356984940671
0.2365578346201806 0.23723510151571256 -0.0003574330673974168 -0.00031983382813466555
0.2784934066258407 0.27988206392340526 -0.0013685929752626437 -2.00643223016991e-05
0.34845672317272736 0.32561231237778376 0.003915719019625257 0.018928691775318602
0.40435480104116095 0.3241350878123348 0.020252849188924806 0.05996686403990145
0.46010549421041375 0.2800112856925373 0.05855732538431601 0.12153688313356036
0.6143422756598852 0.265944924934691 0.12354873955041651 0.22484861117477833
0.9752639034901578 0.3038275312194516 0.26654609300417065 0.40489027926653465
1.518138175208268 0.3089065621197977 0.48632867619729747 0.7229029368911734
2.2402155503067775 0.3192325133604616 0.8094784763571565 1.1115045605891603
3.124059840308192 0.36144195201656554 1.2116704260158606 1.5509474622757673
4.191101601135688 0.4573805237373756 1.6942704718765793 2.0394506055217305
5.442288950486111 0.6288364260111045 2.2427507154336963 2.57070180904131
6.926589428315308 0.9007323428861541 2.8885873746384996 3.1372697107906524
8.611992369593917 1.246327152621208 3.632053698411177 3.7336115185615273
10.93678768885886 1.780624807356555 4.631255422786926 4.524907458715384
17.136714973548678 3.8762125651637023 6.71013242802293 6.550369980362044
28.66676252934285 3.397765201810841 13.579366706669632 11.689630620862372
17.13671497354743 3.8762125651556683 6.710132428026763 6.550369980365
10.936787688850593 1.780624807353204 4.631255422784209 4.524907458713182
8.611992369586778 1.2463271526219644 3.6320536984069776 3.733611518557838
6.926589428308849 0.900732342887748 2.888587374634154 3.1372697107869403
5.4422889504906005 0.6288364260189344 2.2427507154319537 2.5707018090397136
4.191101601129806 0.4573805237365526 1.6942704718739512 2.039450605519301
3.1240598403058724 0.3614419520176513 1.2116704260141382 1.5509474622740829
2.2402155502974237 0.31923251335782676 0.8094784763539931 1.1115045605856042
1.518138175206407 0.30890656212140133 0.4863286761955961 0.7229029368894102
0.9752639034849327 0.30382753121790407 0.2665460930024971 0.4048902792645308
0.6143422756593225 0.26594492493417493 0.1235487395503993 0.22484861117474908
0.46010549420939 0.28001128569238853 0.0585573253839571 0.12153688313304403
0.4043548010402845 0.32413508781223943 0.02025284918867279 0.059966864039372486
0.34845672317213006 0.3256123123771972 0.003915719019577908 0.018928691775354882
0.27849340662531935 0.2798820639228844 -0.0013685929752643264 -2.0064322300797355e-05
0.2365578346199146 0.2372351015152369 -0.0003574330673734189 -0.00031983382794887477
0.22795121410878721 0.22722127114135637 8.970726880513994e-05 0.0006402356986255869
0.23165237371055386 0.2322381160949479 -6.832468006742549e-05 -0.0005174177043266151
0.19629091858261838 0.20588222806991913 -0.002230926314010762 -0.007360383173289958
0.6830451607167053 0.6214994439063078 0.013262213396492724 0.0482835034139048
0.4352087562509625 0.4347264532505528 -0.00010278147826273014 0.0005850844786724764
0.18292325553427305 0.1833685903800731 -3.052849693776784e-05 -0.0004148063488623091
0.23463195507187962 0.23431875151914705 7.976476658583085e-06 0.00030522707607409725
0.24180730811656756 0.2409000267192702 0.00010625055300177138 0.0008010308442955906
0.2542693832814263 0.2535225088215877 -0.00015595977297079206 0.0009028342328094487
0.3000102398197214 0.29833441391436544 -0.0010261733823049778 0.002701999287661038
0.3915002321641992 0.36697863943384007 0.0037851821099108385 0.020736410620448627
0.5692243633216575 0.44284043579082744 0.030439720008544602 0.09594420752228502
1.0103567402815654 0.560298236177336 0.1410698699947586 0.308988634109471
1.864192036695727 0.7050240111768469 0.4262922480097574 0.7328757775091213
3.152021321280479 0.8736862444888291 0.9405094611519659 1.3378256156396857
4.70773382483799 1.0684464952238093 1.580064935992084 2.059222393622098
6.5614489021517315 1.310343370190977 2.387586387679895 2.8635191442808585
8.684381927835874 1.6074451656405138 3.3415929208707307 3.7353438413246254
10.9960304925219 1.9603167181856003 4.391002511248682 4.644711263087614
13.360484067702682 2.369190768866734 5.46520555663408 5.526087742201866
15.479723223195597 2.812919621224762 6.4041072958985215 6.262696306072317
17.165941739710675 3.3387919569025506 7.105847559586091 6.721302223222035
17.749493976567948 3.7082383452437844 7.2741563053605365 6.767099325963613
14.465217137593644 2.6698821232220875 6.242849382495083 5.552485631876463
29.0388875365212 5.189031006336755 12.58918724103792 11.260669289146522
14.465217137623315 2.6698821232443404 6.242849382499337 5.552485631879639
17.749493976570946 3.708238345247267 7.274156305360196 6.7670993259634855
17.16594173969075 3.3387919568951645 7.1058475595789075 6.721302223216659
15.479723223172659 2.812919621218836 6.4041072958889576 6.262696306064876
13.360484067689699 2.369190768863358 5.465205556628828 5.5260877421975
10.99603049250527 1.9603167181819945 4.391002511241709 4.644711263081573
8.684381927825125 1.6074451656408375 3.3415929208648687 3.7353438413194198
6.561448902139318 1.310343370193167 2.3875863876724157 2.863519144273737
4.707733824825311 1.0684464952221526 1.5800649359866559 2.059222393616503
3.1520213212688875 0.8736862444885023 0.9405094611466089 1.3378256156337764
1.864192036687644 0.7050240111744365 0.42629224800726295 0.7328757775059449
1.0103567402779035 0.5602982361767328 0.14106986999358292 0.30898863410758753
0.5692243633198751 0.4428404357900873 0.03043972000819485 0.09594420752159284
0.3915002321632108 0.36697863943297643 0.003785182109855018 0.02073641062037905
0.3000102398192945 0.2983344139136154 -0.0010261733822827827 0.002701999287961949
0.2542693832812114 0.2535225088211729 -0.00015595977294723058 0.0009028342329859021
0.24180730811627982 0.24090002671882949 0.00010625055301334373 0.0008010308444370936
0.23463195507148832 0.23431875151865827 7.976476662091352e-06 0.00030522707616791923
0.18292325553416708 0.18336859038001646 -3.0528496944782426e-05 -0.0004148063489044883
0.4352087562500055 0.4347264532493346 -0.0001027814782370156 0.0005850844789079681
0.28076746346458564 0.28084107999173413 -5.074825948644306e-06 -6.854170119983136e-05
0.16887877759825665 0.16894852253809617 -4.827974098223169e-06 -6.49169657412715e-05
0.23122627298633416 0.2318561311949462 -9.776719131076661e-05 -0.0005320910173012741
0.2515109311284225 0.25038644421200545 9.281774195667018e-05 0.0010316691744602503
0.2764467489718081 0.27786876635409063 -0.0005065181198499497 -0.0009154992624324805
0.3452503276509887 0.3435991979422718 -0.0009562989546610848 0.0026074286633777227
0.5268820006635289 0.45393787142934217 0.012090905163463955 0.06085322407072283
1.0762700060508164 0.6335419819348395 0.13892872958564909 0.30379929453032817
2.2487249871875674 0.8523058908616609 0.5253823358865606 0.8710367604393455
4.144389475858555 1.0839431396526114 1.302123926667381 1.7583224095385608
6.607336731378423 1.3174008955062035 2.397859147553386 2.89207668831883
9.593039738787043 1.584001665301009 3.8230561363923568 4.1859819370936755
13.01930041949028 1.9007681038033906 5.513957066299206 5.60457524938769
16.877234525804468 2.273586370762008 7.464265324033738 7.139382831008718
21.14435352384994 2.707434337608321 9.669853821805805 8.767065364435812
25.62912223764738 3.1914260066258846 12.023703496374912 10.413992734646577
29.966830265587014 3.732210068869198 14.288890731275432 11.945729465442382
33.6245463330965 4.351039771455586 16.09547791383196 13.178028647808947
35.40246210748043 4.650973095632217 17.009504351877492 13.741984659970724
32.95161130465753 4.547901512198345 15.694425427800105 12.709284364659096
40.656499442860635 9.612217600973933 17.12863364571087 13.915648196175818
32.95161130465911 4.547901512188995 15.69442542780676 12.709284364663368
35.40246210745263 4.6509730956088715 17.009504351874696 13.741984659969045
33.62454633309635 4.351039771472254 16.095477913821753 13.178028647802346
29.966830265558343 3.732210068868418 14.288890731258688 11.945729465431224
25.62912223760558 3.1914260066072604 12.023703496361222 10.413992734637104
21.14435352382045 2.7074343376044148 9.669853821790964 8.76706536442507
16.87723452577615 2.2735863707557273 7.464265324021296 7.139382830999127
13.019300419465665 1.900768103801247 5.513957066286798 5.604575249377625
9.593039738757705 1.5840016652943685 3.8230561363801794 4.185981937083156
6.607336731356518 1.3174008955047232 2.3978591475429663 2.8920766883088262
4.144389475845009 1.0839431396513384 1.3021239266613946 1.7583224095322756
2.2487249871790893 0.8523058908607409 0.5253823358832159 0.8710367604351329
1.0762700060464567 0.6335419819334804 0.1389287295845008 0.3037992945284754
0.5268820006613664 0.453937871428293 0.012090905163081565 0.06085322406999197
0.34525032765026176 0.3435991979413017 -0.0009562989546131062 0.002607428663572984
0.27644674897143257 0.27786876635359486 -0.0005065181198301593 -0.0009154992623321295
0.25151093112783707 0.25038644421128875 9.28177419642367e-05 0.0010316691745840402
0.23122627298596768 0.23185613119450854 -9.776719130474952e-05 -0.0005320910172360478
0.1688787775979966 0.1689485225378653 -4.827974099771115e-06 -6.491696576896758e-05
0.280767463463896 0.2808410799910517 -5.074825949206164e-06 -6.854170120644613e-05
0.1742907340117776 0.1742907340117776 0.0 0.0
0.1499347013932927 0.14993900562504323 -1.4328105404036436e-07 -4.160950696500454e-06
0.2210468795265079 0.22156359499583114 -7.22434804529467e-05 -0.00044447198887031923
0.2574233724913243 0.2580797799753485 -0.0001613054560856779 -0.0004951020279387099
0.3023750165514656 0.30278873710034654 -0.0004938867332170005 8.016618433618494e-05
0.4156863447200023 0.3968518908009511 0.00019214337421905774 0.01864231054483244
0.8079915608686186 0.5820324972405145 0.06291169557089257 0.1630473680572112
1.843671718513605 0.8339444683398872 0.35998661195151127 0.6497406382222074
3.827599283669797 1.1248465187921963 1.124573496700882 1.5781792681767157
6.836780293813929 1.4086399674752386 2.503110211415195 2.925030114923495
10.561697863762976 1.6851865809758853 4.292280074265919 4.584231208521178
15.03113142751762 2.0021987812082997 6.572723186732633 6.456209459576693
20.180053716885197 2.3789938479438857 9.295199070629225 8.505860798312082
25.995986752712085 2.822898564900507 12.437893079545544 10.735195108266048
32.49114034897788 3.3288136897048903 16.033754964380005 13.128571694892974
39.38834039507678 3.8799551878293386 19.89399007200512 15.614395135242322
46.38186241923541 4.46811337745953 23.891997503168568 18.021751538607305
52.246379014034915 4.932525322921798 27.255064681396338 20.058789009716786
55.178928451830345 5.063430471321159 29.02610541836122 21.089392562147975
51.53915224472208 4.510862206380247 27.097961434060757 19.930328604281044
57.704120299976225 12.652772292877883 25.82190489065087 19.22944311644748
51.539152244725685 4.510862206376318 27.097961434065535 19.930328604283815
55.178928451816944 5.063430471321852 29.026105418352294 21.089392562142805
52.24637901399317 4.932525322903189 27.25506468138173 20.058789009708256
46.38186241920089 4.468113377461405 23.891997503145895 18.021751538593584
39.38834039503065 3.8799551878218166 19.893990071981385 15.61439513522746
32.491140348941194 3.3288136897064673 16.03375496435692 13.128571694877808
25.99598675267751 2.822898564900255 12.437893079525232 10.735195108252027
20.180053716849883 2.378993847940995 9.29519907061049 8.505860798298404
15.031131427486711 2.002198781210555 6.572723186714031 6.456209459562116
10.561697863737207 1.6851865809784092 4.292280074250662 4.584231208508138
6.836780293793008 1.4086399674727323 2.503110211405686 2.925030114914588
3.827599283657212 1.1248465187905254 1.1245734966956478 1.578179268171037
1.8436717185062055 0.8339444683385508 0.35998661194894477 0.6497406382187099
0.8079915608654044 0.5820324972391773 0.062911695570227 0.1630473680559998
0.4156863447187913 0.3968518908000107 0.00019214337411658762 0.018642310544663934
0.30237501655099325 0.30278873709960863 -0.0004938867331898539 8.016618457452516e-05
0.2574233724909338 0.25807977997478687 -0.00016130545606258195 -0.0004951020277905737
0.2210468795261597 0.22156359499551426 -7.224348045693896e-05 -0.0004444719888976286
0.14993470139292486 0.14993900562466542 -1.432810533475878e-07 -4.1609506871892085e-06
0.17429073401140022 0.17429073401140022 0.0 0.0
0.10224908099843377 0.10224908099843377 0.0 0.0
0.12630560930006446 0.126301383226337 2.3276924337965782e-07 3.99330448403657e-06
0.20500481808017257 0.2052826631097007 -3.496543082072492e-05 -0.0002428795987074102
0.25982039287728065 0.2602635945303887 -0.0001683450020601443 -0.0002748566510479798
0.3322919976791025 0.33526138861943855 -0.0013537662947003487 -0.0016156246456358124
0.5408364964656533 0.48087948513165096 0.012589575969961516 0.047367435364041
1.2220800501757814 0.7197905192649836 0.16210888159784792 0.3401806493129492
2.8289107342822915 1.0424459832725004 0.7022990095314796 1.084165741478311
5.716747190118823 1.386946493984414 1.953075719960217 2.3767249761741898
9.652971834151925 1.7031565402879283 3.781806303990643 4.168008989873356
14.780256581265148 2.037880095214347 6.4154130064240675 6.326963479626732
20.830094182549683 2.4165078955109145 9.649717033344562 8.763869253694205
27.79210602944199 2.862867817729568 13.480856403128746 11.448381808583708
35.709245439682405 3.3876405545865853 17.941177653380777 14.380427231715021
44.5435432273298 3.9794944664994496 23.009827559757767 17.554221201072583
54.215802417502644 4.60823710879795 28.714379499750386 20.893185808954314
63.65550646382079 5.151408725761365 34.31302907393476 24.191068664124693
71.7952600524659 5.416265335741939 39.41818913580715 26.960805580916787
75.5767657155221 5.114145717253157 42.095899864376115 28.36672013389288
70.95179767164643 4.588615331204291 39.43903722386211 26.924145116580046
76.88194797860456 15.664973714533108 36.07162259689526 25.145351667176186
70.9517976716293 4.5886153311886035 39.43903722386119 26.92414511657952
75.57676571552221 5.114145717271324 42.09589986436433 28.36672013388656
71.79526005241954 5.416265335733004 39.418189135782896 26.960805580903596
63.65550646376212 5.151408725750871 34.31302907390395 24.19106866410731
54.21580241744876 4.608237108795236 28.714379499718074 20.893185808935463
44.54354322727597 3.979494466496489 23.00982755972625 17.55422120105323
35.70924543963145 3.3876405545833905 17.941177653351705 14.380427231696352
27.792106029392738 2.8628678177230205 13.480856403103312 11.448381808566403
20.830094182506173 2.416507895507758 9.64971703332129 8.763869253677134
14.780256581226395 2.0378800952103124 6.415413006404766 6.326963479611319
9.652971834120716 1.7031565402835747 3.7818063039763685 4.168008989860772
5.71674719009671 1.3869464939789529 1.9530757199517343 2.376724976166026
2.828910734271219 1.0424459832709618 0.7022990095271161 1.0841657414731414
1.2220800501696962 0.719790519262244 0.16210888159649667 0.34018064931095504
0.5408364964637227 0.4808794851305434 0.012589575969707934 0.047367435363471384
0.3322919976784011 0.33526138861857846 -0.001353766294674688 -0.0016156246455027268
0.2598203928769229 0.2602635945297581 -0.0001683450020343027 -0.0002748566508009887
0.2050048180797533 0.20528266310931437 -3.496543082439509e-05 -0.00024287959873666847
0.12630560929992282 0.12630138322619547 2.3276924336996675e-07 3.9933044839934034e-06
0.10224908099824796 0.10224908099824796 0.0 0.0
0.05640043149223202 0.05640043149223202 0.0 0.0
0.10050869912296402 0.10050869912296402 0.0 0.0
0.1844205418598909 0.1844714763199052 -6.1175362096391395e-06 -4.481692380461821e-05
0.2597584861793441 0.26131397499956777 -0.00029053848303091536 -0.0012649503371928582
0.3716290796358605 0.3695249612493646 -0.0014641880318322083 0.003568306418328138
0.7293373334043352 0.5762887538403769 0.04174804123501253 0.11130053832894561
1.7692095241634502 0.8740756766806839 0.3201059371189059 0.5750279103638615
4.039814373295708 1.2519259698455814 1.1967938343010796 1.591094569149048
7.630431839094134 1.6225488995005315 2.764094077697583 3.243788861896021
12.770107598804767 2.0017650838918883 5.321675736808069 5.446666778104805
19.21793060512982 2.4037674464695966 8.726222679796976 8.087940478863251
26.897868757846286 2.854553651518566 12.954266902136194 11.089048204191533
35.776874585041206 3.3780941741659194 17.98916128935999 14.409619121515288
45.92559038201686 3.9922773170191137 23.88596347317356 18.04734959182418
57.25250676148501 4.693662616288622 30.560967960361896 21.997876184834496
69.4978740571946 5.375038463133833 37.93906912116535 26.183766472895407
81.88822474426769 5.837776959822008 45.72700776975464 30.323440014691034
91.90310335290013 5.773091153314753 52.31507923277762 33.81493296680775
96.184255134939 5.076960854229172 55.562929046028415 35.544365234681365
91.09233667658519 4.816121688831157 52.42870032116994 33.847514666584075
97.809345576173 18.690859453311564 47.733653270236836 31.3848328526246
91.0923366765946 4.816121688847094 52.428700321165735 33.84751466658177
96.18425513490789 5.076960854220878 55.56292904601326 35.544365234673734
91.90310335286898 5.773091153328763 52.31507923274785 33.81493296679235
81.88822474421394 5.837776959828375 45.72700776971544 30.323440014670147
69.49787405713262 5.375038463133109 37.939069121125854 26.183766472873625
57.25250676142054 4.693662616289283 30.560967960320614 21.997876184810636
45.92559038196198 3.9922773170239974 23.88596347313642 18.047349591801567
35.77687458498026 3.3780941741604598 17.98916128932626 14.409619121493558
26.897868757789684 2.854553651513487 12.95426690210565 11.08904820417054
19.217930605084696 2.4037674464680436 8.726222679772032 8.08794047884463
12.770107598771482 2.0017650838916037 5.321675736789977 5.446666778089902
7.630431839069322 1.62254889949801 2.7640940776862437 3.243788861885067
4.039814373280105 1.2519259698437888 1.1967938342943827 1.591094569141934
1.7692095241556816 0.8740756766792677 0.32010593711624696 0.5750279103601683
0.7293373334011866 0.5762887538388609 0.041748041234440696 0.11130053832788471
0.3716290796353336 0.36952496124869044 -0.001464188031816391 0.0035683064184596886
0.25975848617905134 0.2613139749992228 -0.0002905384830240758 -0.0012649503371475793
0.18442054185962115 0.18447147631965793 -6.117536211679432e-06 -4.481692382511826e-05
0.10050869912278491 0.10050869912278491 0.0 0.0
0.05640043149203919 0.05640043149203919 0.0 0.0
0.029158311419655213 0.029158311419655213 0.0 0.0
0.07557984247395397 0.07557984247395397 0.0 0.0
0.16174126497539576 0.16173444821172783 3.960330448053176e-07 6.420730623111643e-06
0.25973094274135733 0.2611458083327054 -0.0002819192367115772 -0.001132946354636478
0.434796319506261 0.4232969338094813 0.0011084230763723953 0.010390962620406962
0.982841107256437 0.6711496483956733 0.09213226217969664 0.21955919668106733
2.4717066326419164 1.0359422631118385 0.569894188768049 0.8658701807620285
5.2874741204708045 1.4379648541041528 1.682245270875145 2.1672639954915063
9.79177636709014 1.8602008337421858 3.7860595293763524 4.145516003971598
16.001714609328403 2.309731821727854 6.9513191340838265 6.740663653516727
23.84530022151185 2.7916845137167714 11.193042778121661 9.860572929673413
33.22872805583623 3.325219680158166 16.479477647762145 13.424030727915913
44.13770892529115 3.9367313318606247 22.816605148860592 17.384372444569937
56.42796934587028 4.646438643527243 30.05306750430856 21.72846319803451
70.35114543824616 5.439290259850912 38.4715525469795 26.440302631415747
85.4215490305269 6.187059435208763 47.7965501446584 31.43793945065975
100.22370825140058 6.525032067682269 57.296434776552466 36.40224140716587
112.21359533153344 6.074516729524447 65.57930211157475 40.559776490434224
117.47797554097733 5.064777045929933 69.78800464292775 42.62519385211973
112.17022367332018 5.10312635056613 66.21086642746673 40.85623089528733
120.04486351053984 21.697922534232134 60.37347147487367 37.97346950143404
112.17022367329429 5.103126350548598 66.21086642746099 40.85623089528462
117.47797554091315 5.064777045906124 69.78800464290073 42.62519385210636
112.21359533147017 6.074516729515368 65.57930211153854 40.55977649041624
100.22370825133297 6.525032067683617 57.29643477650664 36.402241407142704
85.42154903044906 6.187059435202673 47.796550144611395 31.437939450634985
70.35114543817207 5.439290259852321 38.471552546930816 26.44030263138894
56.42796934579045 4.64643864352043 30.053067504262252 21.72846319800776
44.13770892521917 3.9367313318573403 22.81660514881804 17.38437244454378
33.22872805577347 3.3252196801574927 16.479477647724696 13.424030727891292
23.84530022146007 2.791684513714603 11.193042778092687 9.860572929652777
16.00171460928285 2.3097318217214062 6.95131913406187 6.7406636534995785
9.791776367056752 1.8602008337370461 3.786059529361502 4.145516003958198
5.2874741204520825 1.4379648541026755 1.6822452708666435 2.1672639954827653
2.4717066326318924 1.035942263110496 0.5698941887641316 0.8658701807572633
0.9828411072523462 0.6711496483943604 0.09213226217865163 0.2195591966793339
0.4347963195052258 0.42329693380846023 0.0011084230763539443 0.010390962620411625
0.25973094274095226 0.26114580833222767 -0.00028191923670861207 -0.0011329463545667938
0.16174126497519112 0.16173444821152408 3.960330447626668e-07 6.4207306222634735e-06
0.07557984247377658 0.07557984247377658 0.0 0.0
0.029158311419609218 0.029158311419609218 0.0 0.0
0.014280745807138347 0.014280745807138347 0.0 0.0
0.0539954978960378 0.0539954978960378 0.0 0.0
0.1398581535130522 0.13985565118838048 1.22441077168008e-07 2.379883594554421e-06
0.2639468248348846 0.26588337817211016 -0.0003911835054761077 -0.00154536983174968
0.5295320881736661 0.48603235151910207 0.00967888275179561 0.03382085390276867
1.334493666406623 0.79319321081496 0.18487510796532064 0.35642534762634254
3.2407433809834725 1.183462934248471 0.8372449274252143 1.2200355193097865
6.688768605726267 1.6133448813413498 2.297095751000584 2.7783279733843314
12.032600991441473 2.1007186511793936 4.8660734828263745 5.065808857435708
19.36701397848841 2.6308561007409645 8.690370535841337 8.045787341906108
28.62050702368068 3.202294976972026 13.77878495103336 11.63942709567532
39.76787775185865 3.834743897817824 20.167348834425226 15.765785019615592
52.63328695531258 4.543186119959079 27.719829094066384 20.37027174128712
67.43251637388713 5.341390590163479 36.67511520344593 25.416010580277682
83.78423641792074 6.212884665985716 46.69550321268631 30.87584853924872
101.33630034492636 6.991769400408106 57.709177832102235 36.635353112416034
118.764015480809 7.225147584216715 69.19638340584284 42.34248449074945
132.83198414782686 6.423687523043168 79.22236819273388 47.185928432049835
139.40082596475355 5.098249049203637 84.56875863198619 49.73381828356378
134.49449920384393 5.3856603930833575 81.06422975705031 48.044609053710296
144.14860474871162 24.643115477061222 74.56664274365671 44.938846527993675
134.4944992038109 5.385660393068193 81.0642297570381 48.044609053704654
139.40082596472126 5.0982490492250845 84.56875863194969 49.73381828354644
132.83198414775825 6.4236875230421475 79.2223681926879 47.1859284320282
118.764015480721 7.22514758420972 69.19638340578857 42.34248449072273
101.33630034482555 6.9917694003962865 57.709177832043075 36.63535311238607
83.78423641783385 6.2128846659834025 46.695503212631024 30.87584853921945
67.43251637380192 5.341390590164839 36.67511520339031 25.416010580246784
52.633286955228876 4.543186119957222 27.719829094014848 20.370271741256772
39.76787775178215 3.834743897812711 20.167348834381485 15.765785019587957
28.620507023615332 3.20229497696372 13.77878495099946 11.639427095652165
19.36701397843819 2.630856100738762 8.69037053581382 8.045787341885609
12.032600991406285 2.100718651175986 4.866073482809166 5.065808857421136
6.688768605702766 1.6133448813376452 2.297095750990847 2.778327973374275
3.2407433809702146 1.1834629342464706 0.8372449274199877 1.2200355193037564
1.334493666401488 0.7931932108137165 0.18487510796374634 0.35642534762402484
0.5295320881721718 0.4860323515181451 0.00967888275162158 0.03382085390240479
0.26394682483439724 0.265883378171407 -0.00039118350545872503 -0.0015453698315507675
0.13985815351281752 0.13985565118814902 1.2244107697319608e-07 2.3798835915387224e-06
0.0539954978959315 0.0539954978959315 0.0 0.0
0.014280745807126075 0.014280745807126075 0.0 0.0
0.006894180457446801 0.006894180457446801 0.0 0.0
0.03732147408043352 0.03732147408043352 0.0 0.0
0.12200429931491946 0.12200429931491946 0.0 0.0
0.27946091059501044 0.28270506773176207 -0.0007407734097033956 -0.002503383727048172
0.6663157764937191 0.5594904998985201 0.02725715997752529 0.07956811661767384
1.775060391587375 0.9162167895184129 0.3190550478936675 0.5397885541752941
4.087338441519885 1.3110213821283092 1.1594603250543951 1.6168567343371794
8.179528878963348 1.7885007553003107 2.97791954415828 3.4131085795047578
14.354742113439258 2.3437983993454887 6.012742599288485 5.998201114805283
22.82264479787859 2.9640582200107546 10.501907880096448 9.35667869777139
33.55944621930296 3.640436115746014 16.498292117921647 13.420717985635285
46.453761121179596 4.380054812060573 23.962384941419213 18.111321367699826
61.583076405992614 5.202608679019972 33.021454992965126 23.359012734007482
78.55293617569146 6.095463401507879 43.33804616880694 29.119426605376635
97.4212041583104 6.983006145898404 55.136198335724266 35.30199967668769
117.4614001265817 7.716919458900989 67.99326707649168 41.751213591188986
137.24718307944877 7.933846189697443 81.1880062491459 48.125330640605476
153.61820597772783 6.9645173056412855 93.00011655965399 53.653572112432556
162.0038124769392 5.14572226474058 100.03042187602381 56.827668336174824
158.349678857095 5.606191997624851 97.2171246211552 55.52636223831487
170.35618076886118 27.415924041661768 90.4651555399352 52.4751011872642
158.34967885706172 5.606191997616156 97.21712462113823 55.52636223830731
162.0038124768824 5.145722264743617 100.0304218759828 56.827668336156016
153.61820597763608 6.96451730563422 93.0001165595962 53.65357211240567
137.24718307934782 7.933846189690594 81.18800624908187 48.12533064057537
117.46140012648571 7.716919458911361 67.99326707642042 41.75121359115394
97.42120415819984 6.9830061458854935 55.136198335659714 35.301999676654646
78.55293617558796 6.095463401503105 43.3380461687428 29.1194266053421
61.5830764058967 5.202608679018403 33.02145499290489 23.3590127339734
46.453761121092015 4.380054812055824 23.962384941367656 18.11132136766853
33.55944621922934 3.640436115740337 16.498292117880666 13.420717985608341
22.822644797821557 2.964058220006869 10.501907880065584 9.356678697749102
14.354742113396735 2.3437983993389784 6.0127425992686225 5.998201114789141
8.179528878934414 1.7885007552950851 2.9779195441460526 3.413108579493276
4.087338441504328 1.3110213821256516 1.1594603250485502 1.616856734330128
1.7750603915808891 0.9162167895170493 0.3190550478915127 0.5397885541723269
0.6663157764917849 0.5594904998978719 0.027257159977076985 0.07956811661683592
0.2794609105944574 0.2827050677310423 -0.0007407734096748424 -0.0025033837269103545
0.12200429931453945 0.12200429931453945 0.0 0.0
0.03732147408037601 0.03732147408037601 0.0 0.0
0.006894180457368006 0.006894180457368006 0.0 0.0
0.003273068635103055 0.003273068635103055 0.0 0.0
0.025903480700369446 0.025903480700369446 0.0 0.0
0.11262128913766632 0.11262128913766632 0.0 0.0
0.317704713939682 0.31872288084493583 -0.0008191108782496685 -0.0001990560270044373
0.8705993477432507 0.6558110965492477 0.06681634798684856 0.14797190320715464
2.273021136882413 1.0255313780362785 0.4780719934221951 0.7694177654239394
5.037388319448087 1.4388657285964508 1.5608269953525546 2.0376955954990805
9.725507693269716 1.9599694148811855 3.701063527498058 4.064474750890473
16.757590666124862 2.589083413199532 7.231509111814558 6.936998141110772
26.3532487805157 3.310579902016692 12.37478798338767 10.667880895111349
38.57796287964682 4.10178370720753 19.273864428727794 15.202314743711483
53.42100655337735 4.968850912592369 27.99568181969012 20.456473821094875
70.54108306327667 5.914541556272237 38.26874544174977 26.35779606525471
90.04876114173655 6.887326543943448 50.3409870346793 32.82044756311376
111.38291326015188 7.77940600481477 63.8832369756018 39.7202702797353
133.6671795961518 8.38165614806352 78.4627652931102 46.82275815497807
155.43579013714262 8.461471480270118 93.24482792296187 53.72949073391065
174.20951735419223 7.713655615347147 106.68532690684658 59.81053483199855
185.02880900699955 5.39622062068623 115.78667375649368 63.84591462981963
183.98015407627474 5.559596988090194 114.97247028362018 63.44808680456435
199.13372442994398 29.17261392965932 109.07777515539448 60.883335344890256
183.98015407621824 5.559596988068549 114.97247028359604 63.44808680455365
185.02880900693378 5.396220620690708 115.78667375644542 63.845914629797726
174.20951735410944 7.713655615361734 106.68532690677945 59.81053483196823
155.43579013702652 8.46147148026347 93.24482792288671 53.729490733876176
133.6671795960375 8.381656148067023 78.46276529303056 46.82275815493997
111.38291326002806 7.779406004807503 63.883236975524014 39.72027027969654
90.04876114162793 6.8873265439451785 50.34098703460667 32.82044756307606
70.541083063167 5.914541556267778 38.26874544168195 26.357796065217244
53.421006553276804 4.96885091258752 27.995681819629834 20.456473821059454
38.577962879567536 4.101783707206426 19.273864428679936 15.202314743681171
26.353248780450834 3.3105799020110296 12.374787983352775 10.667880895087032
16.75759066607863 2.589083413195523 7.231509111790839 6.93699814109226
9.725507693237901 1.9599694148764089 3.7010635274838233 4.064474750877669
5.0373883194293425 1.4388657285932416 1.5608269953451033 2.0376955954909954
2.273021136873876 1.0255313780351292 0.478071993418955 0.769417765419792
0.8705993477404995 0.6558110965479296 0.06681634798631152 0.14797190320625844
0.31770471393889066 0.31872288084411043 -0.0008191108782540797 -0.00019905602696558512
0.11262128913748788 0.11262128913748788 0.0 0.0
0.02590348070028829 0.02590348070028829 0.0 0.0
0.0032730686350523897 0.0032730686350523897 0.0 0.0
0.001046102948811199 0.001046102948811199 0.0 0.0
0.019076038359781406 0.019076038359781406 0.0 0.0
0.11891114560174978 0.11891114560174978 0.0 0.0
0.3987079931018188 0.38519527669626175 0.0023082941020359914 0.011204422303521162
1.16163057977818 0.809038538372222 0.12099092928127839 0.2316011121246802
2.9007468526048097 1.2875443290473225 0.6417017294270471 0.9715007941304381
6.143771207535642 1.8672127061053243 1.8982960404655036 2.3782624609648138
11.50685393942953 2.648148632183722 4.290347793414753 4.568357513831056
19.48978884062786 3.672304722054585 8.16529374762833 7.652190370944956
30.46320996540501 4.96069605363188 13.841493166499232 11.661020745273877
44.53325805008251 6.512445222236675 21.472233904766675 16.54857892307918
61.51021077388778 8.312338056058277 30.96544827297003 22.232424444859458
81.36477482157997 10.31289811946297 42.43107915512469 28.6207975469923
103.76160068407543 12.412896634473363 55.737462875722485 35.61124117387962
127.97628434054074 14.309751232028582 70.63097999231324 43.03555311619886
152.69957082448823 15.535802838057844 86.56008536422763 50.6036826222028
175.96145537949062 15.631565121137978 102.43837394408331 57.89151631426932
195.60518888759248 14.617953312063367 116.7286749477417 64.25856062778742
209.12707268579396 13.089871630373686 127.20588079178307 68.83132026363731
204.87835883026395 5.709843204944467 129.3369795430803 69.83153608223914
281.21579686373303 86.21233379712422 126.5438760662523 68.4595870003566
204.87835883023672 5.7098432049606425 129.3369795430496 69.8315360822264
209.12707268571955 13.089871630376674 127.20588079172848 68.83132026361437
195.60518888747222 14.617953312048336 116.72867494766933 64.25856062775466
175.96145537935726 15.631565121127892 102.43837394399897 57.89151631423047
152.69957082435516 15.535802838051254 86.56008536414073 50.60368262216309
127.97628434041184 14.30975123202987 70.63097999222592 43.0355531161561
103.76160068393993 12.412896634456832 55.737462875643644 35.61124117383949
81.36477482144399 10.312898119440117 42.43107915505114 28.62079754695279
61.51021077378133 8.312338056057985 30.965448272902613 22.23242444482071
44.533258049995595 6.51244522223409 21.472233904714585 16.548578923046936
30.463209965331647 4.960696053623165 13.841493166460605 11.661020745247873
19.489788840574622 3.6723047220475356 8.165293747602014 7.652190370925089
11.506853939390906 2.648148632174623 4.290347793398926 4.5683575138173556
6.14377120751405 1.8672127061014732 1.8982960404567806 2.378262460955797
2.900746852595563 1.2875443290464648 0.6417017294234567 0.9715007941256418
1.1616305797744322 0.8090385383696048 0.12099092928082697 0.23160111212400053
0.3987079931006695 0.3851952766953991 0.0023082941019598483 0.011204422303310129
0.11891114560153482 0.11891114560153482 0.0 0.0
0.019076038359711254 0.019076038359711254 0.0 0.0
0.0010461029488139676 0.0010461029488139676 0.0 0.0
CELL_DATA 800
SCALARS Stress float 6
LOOKUP_TABLE default
169.71712168851116 -522.4038718426493 -181.87326092011904 -110.39648266404795 0.0 0.0
403.6188367979268 -79.75410594289062 115.748489048254 54.8262516840193 0.0 0.0
417.2759108860967 8.341966575306756 127.59244514812076 -2.749690798627814 0.0 0.0
476.26669230241384 -15.62588554567532 149.70075895901184 -15.4771018428272 0.0 0.0
554.0241731024915 -22.141187516470925 209.28183838658884 -11.68217250789129 0.0 0.0
629.0318096898022 -18.27574253866583 281.1334697088713 -10.362572169796735 0.0 0.0
701.5973181831852 -12.464916811328905 335.8351867107572 -11.175810166636529 0.0 0.0
775.1673775398535 1.5119375500070333 384.076545295575 -13.052704650671544 0.0 0.0
851.8346097088908 24.102053742391703 434.9050564777958 -14.879472642128547 0.0 0.0
931.0889189109198 54.090252341779546 490.08534704263803 -16.061567742715457 0.0 0.0
1010.9607912390301 88.94774622073058 547.8453947956081 -16.530110503460403 0.0 0.0
1090.0204931477617 127.30578244722147 606.8488139927986 -16.493297571628514 0.0 0.0
1168.4092730693073 168.1608300170104 666.676941174262 -16.304659260902902 0.0 0.0
1246.9716048982145 212.08707624353764 728.063713447515 -15.984259658953313 0.0 0.0
1326.2252105033895 259.6272723360528 791.5644242787653 -15.388769455461313 0.0 0.0
1405.386130864444 310.15090476566553 856.4887145124269 -14.32166263861335 0.0 0.0
1482.0236004296703 361.7055294476128 920.6551533330855 -12.668106933940134 0.0 0.0
1553.73187170053 412.5208906984894 981.9626327472224 -10.759857813371227 0.0 0.0
1620.4677524657736 463.4308545168275 1040.7461145828076 -10.324762824670941 0.0 0.0
1720.0847446263087 554.3577874651447 1135.5118399675177 -16.881122597674974 0.0 0.0
1720.084744626571 554.357787465423 1135.5118399676558 16.881122597794537 0.0 0.0
1620.4677524649946 463.4308545161053 1040.7461145820766 10.324762824813856 0.0 0.0
1553.7318717012856 412.52089069932606 981.9626327476548 10.759857813358517 0.0 0.0
1482.0236004288283 361.70552944688194 920.6551533324302 12.668106934011192 0.0 0.0
1405.3861308629394 310.150904764276 856.4887145113127 14.321662638453454 0.0 0.0
1326.225210502763 259.6272723355832 791.564424278386 15.388769455561093 0.0 0.0
1246.97160489807 212.0870762435605 728.0637134474216 15.984259659035814 0.0 0.0
1168.409273068828 168.16083001674684 666.6769411738858 16.304659260938713 0.0 0.0
1090.0204931471792 127.30578244685574 606.8488139922845 16.49329757152189 0.0 0.0
1010.9607912383938 88.94774622033023 547.845394795155 16.53011050355334 0.0 0.0
931.088918910512 54.09025234163468 490.0853470424102 16.06156774271951 0.0 0.0
851.834609708267 24.102053742024964 434.9050564773705 14.879472641893996 0.0 0.0
775.167377539024 1.5119375494401481 384.07654529503276 13.052704650652545 0.0 0.0
701.5973181816603 -12.464916812603931 335.8351867097912 11.175810166664423 0.0 0.0
629.0318096889514 -18.275742539273246 281.1334697082753 10.362572169718396 0.0 0.0
554.024173102026 -22.14118751665086 209.28183838622607 11.682172507870188 0.0 0.0
476.26669230216964 -15.62588554571067 149.7007589588908 15.477101842790974 0.0 0.0
417.27591088584563 8.34196657518136 127.59244514802181 2.749690798707472 0.0 0.0
403.618836797852 -79.75410594292748 115.7484890481768 -54.82625168393956 0.0 0.0
169.7171216890318 -522.4038718420618 -181.8732609195779 110.39648266382919 0.0 0.0
68.98334298632722 -549.2375477801239 -243.28570280925197 -160.22061858516926 0.0 0.0
276.9921707612446 -72.25107394819258 61.691626439878156 8.788439635299637 0.0 0.0
366.0742675322107 33.42425285834869 119.85796121629774 -9.661330333379107 0.0 0.0
441.1338648607876 -14.02262011360225 132.89269283146464 -35.85210524829853 0.0 0.0
526.4189250175214 -22.24908162969161 186.4692838785342 -33.50033148643088 0.0 0.0
605.7129864997781 -18.98481297396536 261.5680598251072 -30.682831280571627 0.0 0.0
681.9057036307012 -12.62102332953745 322.93035972616406 -31.892345441904705 0.0 0.0
756.4372421151138 1.217372825546292 373.5867919347065 -34.73051849122287 0.0 0.0
831.6743597006237 22.403766473868842 423.5487423966071 -37.46277308632462 0.0 0.0
907.6432224925715 49.61547440591232 475.88458486963873 -38.860852442043054 0.0 0.0
982.872953793204 80.60797669956877 529.471734744218 -38.93987751097203 0.0 0.0
1056.9137200163404 114.20466481629161 583.6143531702668 -38.334878077810096 0.0 0.0
1130.046089034714 150.66518739800284 638.6398061639816 -37.48623667866915 0.0 0.0
1203.0927861838743 189.81721556490567 694.9092072744949 -36.44079174780223 0.0 0.0
1276.246246894264 231.7467434900925 752.5783814658998 -34.94305403009271 0.0 0.0
1349.0308476188181 276.22013614158664 811.3038689483176 -32.6023988068114 0.0 0.0
1420.4819918797996 322.68714053872924 870.3243606780671 -29.347820482154887 0.0 0.0
1490.1674245513666 371.4928475451363 929.5690771731158 -26.10965225069703 0.0 0.0
1565.106203692818 430.8954345395483 996.593765424651 -24.62655828041537 0.0 0.0
1621.0496605350863 478.0064756228956 1048.0046916153335 -24.923489783385573 0.0 0.0
1621.0496605353549 478.00647562317135 1048.0046916155916 24.92348978336335 0.0 0.0
1565.106203691751 430.89543453852417 996.5937654241127 24.626558280519752 0.0 0.0
1490.1674245511751 371.49284754504424 929.5690771730231 26.109652250948187 0.0 0.0
1420.4819918795367 322.6871405385689 870.3243606778095 29.347820482141863 0.0 0.0
1349.030847618272 276.2201361411512 811.3038689478569 32.602398806688825 0.0 0.0
1276.2462468936278 231.74674348960718 752.5783814653764 34.9430540301734 0.0 0.0
1203.0927861821858 189.81721556336942 694.9092072732733 36.44079174779713 0.0 0.0
1130.0460890334082 150.66518739690912 638.6398061629808 37.48623667875364 0.0 0.0
1056.9137200164123 114.20466481658946 583.6143531702345 38.3348780778706 0.0 0.0
982.8729537928627 80.60797669947698 529.4717347439735 38.939877511060836 0.0 0.0
907.6432224918228 49.61547440542901 475.88458486917995 38.86085244205341 0.0 0.0
831.6743597001474 22.403766473651274 423.54874239630254 37.4627730862694 0.0 0.0
756.4372421150989 1.2173728258495657 373.58679193470255 34.73051849134521 0.0 0.0
681.9057036307955 -12.621023329108553 322.9303597261993 31.892345442056524 0.0 0.0
605.7129864992334 -18.984812974223033 261.56805982468876 30.682831280584345 0.0 0.0
526.4189250167365 -22.24908163019296 186.46928387800924 33.50033148653797 0.0 0.0
441.1338648603919 -14.022620113884617 132.8926928312613 35.852105248247575 0.0 0.0
366.0742675321312 33.424252858451354 119.85796121630915 9.661330333552979 0.0 0.0
276.99217076142986 -72.25107394766677 61.69162644009343 -8.788439635324718 0.0 0.0
68.98334298663906 -549.237547779818 -243.2857028089325 160.2206185849094 0.0 0.0
14.716691350370127 -558.7496856307671 -269.07056658913626 -175.61554880629296 0.0 0.0
155.4434422801655 -60.631474114833765 28.44359044959952 -46.253407044650494 0.0 0.0
297.39463094838 37.373691777026394 100.43049681762191 -34.08297123621904 0.0 0.0
395.9436242492291 -4.877032379498174 118.6067649800222 -56.222190015014306 0.0 0.0
490.0457089853029 -21.02767773325036 162.9172944988944 -57.426314141998034 0.0 0.0
578.7877208808593 -20.925800406823278 237.3311090664617 -52.6331825128103 0.0 0.0
658.1536710188443 -11.935571849178885 307.0371430962016 -52.97167192669275 0.0 0.0
733.2844118975597 1.0149023648451134 360.4579496902644 -56.26736542451127 0.0 0.0
807.3353387009407 20.728256134740974 409.99596846395747 -59.48772603297713 0.0 0.0
879.9399567107398 44.8553743205711 459.36418315736637 -60.85121913652599 0.0 0.0
950.7380656721207 71.86664316618459 508.83627740998475 -60.526423630496325 0.0 0.0
1019.7609745453505 101.28920044634746 558.426278160815 -59.380623858979504 0.0 0.0
1087.8572672553341 132.91052448116397 608.5441397021918 -58.00557455726114 0.0 0.0
1155.1893252736754 167.00165421575963 659.4585945994228 -56.27653930225564 0.0 0.0
1222.0562605794537 203.10871054787066 711.1032617645944 -53.93110002158531 0.0 0.0
1288.6194759780692 241.48173994018106 763.6788668702169 -50.596094597198885 0.0 0.0
1355.2854130911446 283.0830636231136 817.8550894490331 -46.2944176650333 0.0 0.0
1424.0228034858942 330.80306374989 876.0467354517785 -41.89775974175888 0.0 0.0
1488.9645146989817 379.83752958365585 932.9731452296164 -37.45590772818169 0.0 0.0
1535.3982610351845 416.5098857124003 974.4502663358651 -31.69275240700469 0.0 0.0
1535.3982610360465 416.5098857133083 974.4502663363412 31.692752407139597 0.0 0.0
1488.9645146991502 379.83752958388004 932.9731452295289 37.45590772833131 0.0 0.0
1424.022803484513 330.8030637486069 876.0467354507331 41.89775974203506 0.0 0.0
1355.2854130907192 283.08306362277773 817.8550894487647 46.294417665018194 0.0 0.0
1288.619475976733 241.48173993893852 763.6788668691804 50.59609459710542 0.0 0.0
1222.0562605785483 203.1087105471396 711.1032617639761 53.93110002169955 0.0 0.0
1155.1893252745015 167.00165421676286 659.4585945999634 56.276539302333205 0.0 0.0
1087.857267255608 132.9105244816888 608.5441397024346 58.005574557464584 0.0 0.0
1019.7609745439615 101.28920044515772 558.4262781598965 59.38062385900713 0.0 0.0
950.7380656715217 71.8666431658229 508.83627740958605 60.526423630465644 0.0 0.0
879.9399567099113 44.855374319989465 459.3641831568124 60.85121913653978 0.0 0.0
807.335338699627 20.728256133652536 409.9959684631131 59.48772603288309 0.0 0.0
733.2844118965127 1.014902363993187 360.45794968957614 56.26736542428132 0.0 0.0
658.1536710187634 -11.93557184897385 307.03714309609717 52.97167192657167 0.0 0.0
578.7877208807033 -20.925800406670525 237.3311090662535 52.633182512667815 0.0 0.0
490.0457089848335 -21.02767773345782 162.91729449857905 57.426314141966024 0.0 0.0
395.9436242487614 -4.877032379849858 118.60676497979387 56.22219001490539 0.0 0.0
297.3946309482935 37.37369177686732 100.43049681754825 34.082971236005534 0.0 0.0
155.44344228024744 -60.63147411468885 28.443590449667575 46.25340704434732 0.0 0.0
14.716691350437856 -558.7496856306718 -269.070566588974 175.61554880610348 0.0 0.0
-6.078169284366254 -548.0518844362609 -267.12071706362354 -177.63929432850568 0.0 0.0
89.11738544980687 -56.46755806502337 9.794948215435058 -92.886119638685 0.0 0.0
232.4263707448432 33.790933545546814 79.865191287117 -67.13559196260735 0.0 0.0
342.18078756939184 4.480912717901334 104.14446362362432 -78.40389351463645 0.0 0.0
443.9594510573771 -19.039822349696777 139.04980179317414 -83.84418171382836 0.0 0.0
542.2289642779838 -21.073382459159465 209.28089913358627 -76.39545650976711 0.0 0.0
627.7636488478614 -12.429284572508212 285.144656897387 -74.73329142493303 0.0 0.0
705.5154941967546 1.3961973238601928 344.49838840260213 -77.74749122735386 0.0 0.0
778.062743130466 18.874780562040165 393.64447360261283 -80.92280769747568 0.0 0.0
847.5285247338813 39.87906209961007 440.28969750898807 -82.0445283638015 0.0 0.0
914.0892763651167 63.014628066195925 485.84284636381733 -81.29776274070124 0.0 0.0
978.4128097258858 88.12424099345898 530.9849644624401 -79.70045414686413 0.0 0.0
1041.1428739644239 115.09575724402369 576.1323501716249 -77.78527753365313 0.0 0.0
1103.0267775448694 143.9516920113672 621.742967799535 -75.46114171131643 0.0 0.0
1163.7261100497744 174.0671762579404 667.3422449400284 -72.4096600423299 0.0 0.0
1223.8288326829788 206.33348735511822 713.6487394390979 -68.3568277393362 0.0 0.0
1285.6657070295162 242.90890527916585 762.889137358002 -63.37835306225138 0.0 0.0
1348.9636862917816 284.6247957478543 815.3737759236325 -57.592453459262295 0.0 0.0
1407.9641941922434 326.63420029131765 865.8378169714438 -49.946236742777614 0.0 0.0
1451.0965908196213 358.32851732703523 903.1857456033521 -38.81816287549977 0.0 0.0
1451.0965908192081 358.3285173266622 903.1857456031238 38.81816287560689 0.0 0.0
1407.9641941901277 326.63420028919586 865.8378169698258 49.94623674262719 0.0 0.0
1348.9636862897144 284.6247957458821 815.3737759221001 57.592453459473816 0.0 0.0
1285.6657070286863 242.90890527841935 762.8891373574351 63.378353062221116 0.0 0.0
1223.8288326821944 206.3334873544086 713.6487394385321 68.35682773918002 0.0 0.0
1163.726110048642 174.06717625696558 667.3422449391907 72.40966004244268 0.0 0.0
1103.0267775446177 143.95169201130335 621.7429677992618 75.46114171138422 0.0 0.0
1041.1428739642104 115.09575724406426 576.1323501714056 77.78527753389628 0.0 0.0
978.4128097265152 88.12424099436032 530.9849644629103 79.70045414697998 0.0 0.0
914.0892763652223 63.01462806653569 485.8428463639016 81.29776274068612 0.0 0.0
847.5285247337646 39.879062099799256 440.289697508938 82.0445283639827 0.0 0.0
778.0627431305575 18.87478056247261 393.6444736026572 80.92280769754915 0.0 0.0
705.5154941963834 1.3961973237610295 344.49838840231325 77.74749122732618 0.0 0.0
627.7636488472273 -12.429284572880022 285.14465689689337 74.73329142482578 0.0 0.0
542.228964277552 -21.073382459323017 209.28089913321722 76.39545650960156 0.0 0.0
443.9594510568512 -19.039822349984306 139.04980179287747 83.84418171374166 0.0 0.0
342.18078756886325 4.4809127173057135 104.1444636232983 78.4038935145024 0.0 0.0
232.4263707448336 33.7909335453963 79.86519128706897 67.13559196261163 0.0 0.0
89.11738544990456 -56.467558064688696 9.794948215564762 92.88611963853555 0.0 0.0
-6.078169284301794 -548.0518844359495 -267.1207170633824 177.63929432847883 0.0 0.0
-11.069137817950804 -525.4246478116547 -249.79369433683294 -174.91910344702578 0.0 0.0
52.59733901606026 -53.54403649882792 -0.28400924483029755 -129.2172879179735 0.0 0.0
176.85617450026928 27.13538810245425 61.19746878081705 -100.48646285760486 0.0 0.0
284.88973268260736 10.718421333457654 88.70398050683934 -101.99132197291708 0.0 0.0
386.8344059376293 -14.570190557496636 116.39237129170039 -110.91215856559585 0.0 0.0
494.7731775621123 -20.752062964509598 177.80596413738851 -103.2857156580255 0.0 0.0
590.1260343095717 -13.206254787159228 257.0838612499183 -97.99663714461016 0.0 0.0
671.4278519318659 1.3063326052966104 323.6772545657745 -99.22024645670876 0.0 0.0
743.2731967762655 17.1012281886073 374.08753104382936 -101.79074649408543 0.0 0.0
809.75912137165 34.72434766086274 418.2841909929189 -102.49487792441835 0.0 0.0
872.3899056451694 54.060582747552274 460.1888259956407 -101.2680504850923 0.0 0.0
931.8743626857613 74.83989547286455 500.8391175253902 -99.233608872822 0.0 0.0
989.4138686382996 97.04535531471458 541.0689060606257 -96.91943206478699 0.0 0.0
1045.515860671614 120.74164875410432 581.2428065689195 -93.99295231835625 0.0 0.0
1100.3442700695855 145.2598086352115 621.14437753904 -90.31767665253506 0.0 0.0
1154.4896340551318 171.23048303463793 661.3598783342503 -85.85283170565371 0.0 0.0
1209.4147117435655 200.85972412224874 703.6930829488944 -80.37909106605993 0.0 0.0
1266.40362345951 235.44535006311347 749.4655915883533 -73.36236601049765 0.0 0.0
1321.2933136600943 271.54295850588557 794.9171832698254 -62.84951138310804 0.0 0.0
1364.7017000762828 300.9798696411836 831.2564886524134 -46.913988704058795 0.0 0.0
1364.7017000763651 300.97986964132565 831.2564886524348 46.91398870430258 0.0 0.0
1321.2933136613558 271.54295850722946 794.9171832706315 62.849511383172896 0.0 0.0
1266.4036234601067 235.44535006382984 749.465591588875 73.36236601075171 0.0 0.0
1209.4147117440295 200.8597241228747 703.6930829491866 80.37909106627816 0.0 0.0
1154.4896340564537 171.23048303612399 661.3598783351109 85.8528317056994 0.0 0.0
1100.34427007074 145.25980863650437 621.1443775399282 90.31767665251206 0.0 0.0
1045.5158606717437 120.74164875442972 581.2428065691041 93.99295231843041 0.0 0.0
989.4138686376683 97.04535531425097 541.0689060601381 96.91943206483015 0.0 0.0
931.874362686066 74.83989547338422 500.8391175254932 99.23360887284225 0.0 0.0
872.3899056458412 54.06058274847538 460.1888259959116 101.26805048506947 0.0 0.0
809.7591213716989 34.7243476611618 418.28419099284224 102.49487792441354 0.0 0.0
743.2731967752464 17.10122818778531 374.0875310431869 101.79074649398908 0.0 0.0
671.4278519308991 1.3063326045999872 323.67725456512056 99.22024645667587 0.0 0.0
590.1260343095908 -13.206254786672297 257.0838612498774 97.99663714475771 0.0 0.0
494.77317756169975 -20.752062964559727 177.8059641370669 103.28571565794653 0.0 0.0
386.8344059371424 -14.570190557876682 116.39237129142236 110.91215856538511 0.0 0.0
284.8897326820536 10.718421332757497 88.70398050646956 101.99132197290557 0.0 0.0
176.85617450040857 27.135388102587154 61.1974687808987 100.48646285742124 0.0 0.0
52.597339016063465 -53.54403649869234 -0.2840092447886633 129.21728791777707 0.0 0.0
-11.069137817952168 -525.4246478115188 -249.79369433665636 174.919103446922 0.0 0.0
-8.917994870023165 -494.76137671717606 -223.44035452420565 -170.9843268221354 0.0 0.0
31.276457789890358 -50.20649341306817 -5.679010686953344 -156.35399647889307 0.0 0.0
129.82922179372397 19.89087338589188 44.91602855388475 -129.80364663291488 0.0 0.0
227.23797576139907 13.179887180363231 72.12138242394512 -125.78942103297626 0.0 0.0
321.1007786256798 -7.766186708173626 95.6495978619578 -136.01888769785896 0.0 0.0
431.0965716659216 -19.7901121881799 143.65277087644589 -133.2907682787732 0.0 0.0
538.8449086383437 -12.982263362433361 221.5242118915678 -123.72096915646216 0.0 0.0
627.4155848691498 -0.006903816544305386 294.76080901340265 -121.40335800343621 0.0 0.0
701.3730838085214 14.99518024746045 349.76853065858415 -122.35327781642148 0.0 0.0
765.5257226781736 29.55588423123742 392.68349859872507 -122.2077769286415 0.0 0.0
824.1737544865828 44.94142551561298 431.04034703720674 -120.45761567561965 0.0 0.0
879.0672454143725 61.52060139577563 467.46442601481556 -118.00548289816194 0.0 0.0
931.1704751768917 78.990718710269 502.7017224288703 -115.295470259491 0.0 0.0
981.60310177877 97.33423313787357 537.4099888647654 -112.00776044755943 0.0 0.0
1031.0440296176328 116.60502788775936 572.0248657392444 -107.80333931843484 0.0 0.0
1078.6766366914 136.5841942380443 606.0482467305408 -102.8104564974578 0.0 0.0
1125.9567832081605 157.96737661335527 640.4934375849223 -97.1194443034833 0.0 0.0
1175.4419391625818 183.78525820642753 678.140633489814 -89.43772329922777 0.0 0.0
1226.7716968525556 214.0639441321269 718.8754674816935 -76.74333603965714 0.0 0.0
1273.213058536981 242.91653580329233 756.3884276518517 -56.650524151980285 0.0 0.0
1273.2130585361965 242.91653580260248 756.388427651523 56.650524152280525 0.0 0.0
1226.7716968523025 214.06394413188394 718.8754674816707 76.74333603965064 0.0 0.0
1175.4419391622953 183.78525820626885 678.1406334894143 89.43772329948841 0.0 0.0
1125.9567832077182 157.9673766130752 640.4934375846643 97.11944430365745 0.0 0.0
1078.6766366904194 136.58419423716043 606.0482467299304 102.81045649744306 0.0 0.0
1031.0440296171055 116.60502788740342 572.0248657387344 107.80333931852039 0.0 0.0
981.603101778721 97.3342331379479 537.409988864677 112.00776044754988 0.0 0.0
931.1704751764652 78.99071871014036 502.70172242862395 115.29547025974097 0.0 0.0
879.0672454138821 61.52060139545239 467.46442601442965 118.00548289813324 0.0 0.0
824.1737544865088 44.94142551571787 431.0403470371725 120.45761567553342 0.0 0.0
765.5257226788823 29.55588423230597 392.6834985991944 122.20777692873818 0.0 0.0
701.3730838093076 14.995180248590472 349.7685306590255 122.35327781644118 0.0 0.0
627.4155848691754 -0.006903816196583534 294.7608090133703 121.40335800339983 0.0 0.0
538.8449086379421 -12.98226336251546 221.5242118912051 123.7209691564207 0.0 0.0
431.0965716659681 -19.79011218752604 143.65277087650898 133.2907682787741 0.0 0.0
321.1007786255998 -7.766186707788662 95.64959786204842 136.0188876977288 0.0 0.0
227.23797576146308 13.179887180762496 72.12138242408554 125.78942103290223 0.0 0.0
129.82922179351098 19.890873385458995 44.91602855369099 129.80364663273124 0.0 0.0
31.276457790031266 -50.20649341273937 -5.679010686812429 156.3539964787479 0.0 0.0
-8.917994869996775 -494.76137671704134 -223.4403545240108 170.9843268219965 0.0 0.0
-3.4382630521945856 -457.6865482689303 -191.52473010930834 -167.3351501900207 0.0 0.0
16.990986988268332 -47.04747942609951 -9.016887367710584 -175.47901473511064 0.0 0.0
88.72022619636795 13.238834309134845 30.587172700400437 -153.32325934132948 0.0 0.0
169.86763523008838 14.123582590569576 55.194241768510196 -147.83867152335992 0.0 0.0
250.80341006424226 -1.3498827434375131 75.60488276013966 -157.79198170116882 0.0 0.0
352.5929735726818 -15.92233189983749 110.12237977580492 -163.9539621959214 0.0 0.0
469.0443798596646 -13.11878698333576 177.90840645563586 -153.3477772894594 0.0 0.0
569.4624993658654 -1.0832336849981523 255.67558143885088 -145.26837677671855 0.0 0.0
648.0227437403652 11.906653116255193 316.8786032955702 -143.06690807504103 0.0 0.0
712.1274162334187 24.205061091577463 361.49942858209357 -141.398046858085 0.0 0.0
767.0968804534394 35.66005871127055 397.0159043664372 -138.88935624724746 0.0 0.0
817.5377196957819 48.263065006535854 429.5848529891482 -136.00432392654463 0.0 0.0
864.1924102725974 60.96932943504095 459.89612964990965 -132.96286045251745 0.0 0.0
908.535266097602 74.02743093543076 489.0178257328463 -129.44910554764672 0.0 0.0
952.0549333479275 87.81362781472689 517.9519378810054 -124.92541677595734 0.0 0.0
994.816118847013 102.55303417038502 546.978857714746 -119.37386434853282 0.0 0.0
1033.88931325162 115.70989327220587 573.3318368130632 -113.29220691803538 0.0 0.0
1073.4866083773175 130.6025035498452 600.6110163579939 -105.70848363180872 0.0 0.0
1120.5729452092328 153.08728314873554 635.2636391166488 -92.21021779277088 0.0 0.0
1172.820504130375 182.50809874698083 675.8536930690551 -69.02094730694623 0.0 0.0
1172.820504129885 182.50809874651526 675.8536930686456 69.0209473070723 0.0 0.0
1120.572945208805 153.08728314843285 635.2636391162594 92.21021779304763 0.0 0.0
1073.4866083787545 130.60250355156677 600.6110163590178 105.70848363221654 0.0 0.0
1033.889313251634 115.70989327233127 573.3318368131252 113.29220691805685 0.0 0.0
994.8161188467516 102.5530341702302 546.9788577145551 119.37386434862987 0.0 0.0
952.0549333482888 87.81362781536791 517.9519378813097 124.92541677614116 0.0 0.0
908.5352660980732 74.02743093619324 489.0178257331014 129.44910554793626 0.0 0.0
864.1924102723569 60.96932943510916 459.8961296497457 132.96286045270844 0.0 0.0
817.5377196945263 48.26306500526289 429.58485298830806 136.00432392626448 0.0 0.0
767.0968804527142 35.66005871064769 397.0159043659618 138.88935624717362 0.0 0.0
712.1274162322472 24.205061090631574 361.4994285813663 141.3980468580564 0.0 0.0
648.0227437398082 11.906653115919127 316.87860329520294 143.06690807499265 0.0 0.0
569.4624993656644 -1.0832336849064248 255.67558143862018 145.2683767766249 0.0 0.0
469.0443798592065 -13.118786983414324 177.9084064553116 153.34777728944596 0.0 0.0
352.59297357210863 -15.92233190031849 110.12237977541567 163.95396219564373 0.0 0.0
250.80341006418428 -1.3498827430801255 75.6048827602288 157.79198170093358 0.0 0.0
169.86763523020733 14.123582590892877 55.19424176864386 147.8386715231617 0.0 0.0
88.72022619629156 13.238834309152182 30.587172700383142 153.32325934109093 0.0 0.0
16.990986988387004 -47.047479425839164 -9.016887367596933 175.47901473498956 0.0 0.0
-3.438263052067853 -457.6865482684493 -191.5247301089771 167.33515018998878 0.0 0.0
1.938945496001999 -415.6016153485697 -158.2991696594296 -164.8413281564768 0.0 0.0
4.0720033427937485 -44.76482318778042 -12.207564244185068 -186.78245210946454 0.0 0.0
51.202533553825646 7.9376045663237225 17.741638364797268 -170.99187181487875 0.0 0.0
113.545810261118 15.133352414179841 38.60709334604775 -166.18594601004955 0.0 0.0
178.45401968298137 2.837729163157609 54.83762044536269 -176.7538118700838 0.0 0.0
258.502618945874 -8.735465271089335 78.62332479525446 -189.3901200902924 0.0 0.0
371.3019921656803 -11.567014357058198 128.23110594100237 -186.799929484105 0.0 0.0
487.2739636014758 -2.450751730498551 202.10101271164405 -173.23551284883627 0.0 0.0
576.4785551275621 8.357876467619517 269.88386079848476 -164.99465605019986 0.0 0.0
642.5661301479472 18.185946591555275 319.13968450903013 -160.40256465179976 0.0 0.0
695.782969251442 26.150466101354084 354.56905990472546 -156.825782386782 0.0 0.0
741.5669400382972 34.893587530652844 383.9151178317852 -153.30875244953737 0.0 0.0
782.7109752928201 43.254743915135215 409.7812982407233 -149.85544696637382 0.0 0.0
820.7124378197569 51.016071272695754 433.32517016353125 -146.26963555412075 0.0 0.0
857.7867178290309 58.95462648375856 456.2193934105083 -141.82340721031935 0.0 0.0
895.4005248824211 68.28850618207471 479.9659509467913 -135.75906970990223 0.0 0.0
930.1335716000276 76.10659962444012 501.62268446626626 -128.78876926104323 0.0 0.0
957.6192546963258 77.97654344184895 516.5498679220268 -121.61172573254296 0.0 0.0
994.8388033138328 87.22827238325155 539.53435631931 -109.45791386173985 0.0 0.0
1055.0439388336627 117.2032229759609 584.1212498483402 -85.48730599693324 0.0 0.0
1055.0439388334557 117.20322297577587 584.1212498483119 85.487305996956 0.0 0.0
994.8388033141887 87.22827238357843 539.534356319698 109.45791386175696 0.0 0.0
957.6192546970309 77.9765434427722 516.5498679225448 121.611725732853 0.0 0.0
930.1335715984623 76.10659962297626 501.62268446512246 128.78876926113776 0.0 0.0
895.4005248827682 68.28850618261379 479.9659509468093 135.7590697099855 0.0 0.0
857.786717827817 58.95462648266323 456.2193934096404 141.82340721033864 0.0 0.0
820.712437819803 51.01607127275173 433.3251701635073 146.2696355539544 0.0 0.0
782.7109752935772 43.254743915986865 409.78129824123744 149.855446966311 0.0 0.0
741.5669400387442 34.89358753146004 383.91511783205726 153.30875244974155 0.0 0.0
695.782969250869 26.150466101031114 354.56905990428595 156.8257823868006 0.0 0.0
642.5661301466521 18.185946590253053 319.13968450812877 160.40256465155014 0.0 0.0
576.4785551266655 8.357876466851664 269.8838607978189 164.9946560501329 0.0 0.0
487.27396360111806 -2.450751730504521 202.10101271135557 173.23551284882257 0.0 0.0
371.3019921652826 -11.567014356916111 128.23110594081388 186.79992948413593 0.0 0.0
258.50261894572066 -8.735465270651511 78.6233247953169 189.3901200901291 0.0 0.0
178.4540196829432 2.8377291633343082 54.8376204454046 176.7538118698971 0.0 0.0
113.54581026112845 15.133352414369615 38.60709334611117 166.1859460099214 0.0 0.0
51.202533553973865 7.937604566730219 17.741638364964192 170.9918718147328 0.0 0.0
4.072003342696436 -44.76482318797028 -12.207564244272596 186.78245210931613 0.0 0.0
1.9389454958974 -415.6016153485374 -158.29916965932543 164.84132815632353 0.0 0.0
3.7267651270191706 -369.25166898997486 -127.88925041398028 -161.96174931187662 0.0 0.0
-11.527703094107965 -44.62957702926853 -16.84784046066722 -192.3556967265506 0.0 0.0
15.837204555705451 4.741269655224989 6.1745752838433035 -183.04129511852088 0.0 0.0
58.69078974304395 16.286966344996635 22.50884384115679 -180.0271357771685 0.0 0.0
103.87114829978911 6.6809235621939465 33.455744771695805 -191.300562003956 0.0 0.0
156.18310150932558 -2.6331364393800962 47.651568105903195 -207.89985170278604 0.0 0.0
239.6546148468288 -5.379550381468548 77.31114941039263 -216.45891059061148 0.0 0.0
356.7921282270228 -2.5076736737751926 131.07600261761314 -207.3897756602055 0.0 0.0
464.76497475973605 4.950845485798016 197.09968226361238 -191.39913235302726 0.0 0.0
539.5003608809454 11.122758371457362 251.8375522223807 -180.59037405386644 0.0 0.0
592.7911370482761 16.86982577158468 291.47554915660976 -174.48801521171262 0.0 0.0
634.3373849763171 21.27544373918053 319.899635006267 -170.10975680914706 0.0 0.0
669.8304939996162 25.648860034551717 342.89468535676224 -166.09472507567 0.0 0.0
701.1826109234075 28.698758578915957 361.7894413567462 -162.31421241954538 0.0 0.0
730.6771922560042 30.548752601451127 378.36262446758144 -158.10039660291528 0.0 0.0
761.4988496222361 32.8894474501582 395.35768456019474 -152.4076279066618 0.0 0.0
795.5664214672364 37.083614708089414 414.76038676086125 -144.20462353675387 0.0 0.0
820.7848615905295 33.37082958641534 426.1890769152483 -135.7912860559617 0.0 0.0
835.8976793083593 16.1965960971321 425.1004030889554 -127.44931357141066 0.0 0.0
902.1829053083701 40.74228085727157 469.19203027080715 -108.62848099507042 0.0 0.0
902.1829053078897 40.74228085692221 469.19203027057137 108.62848099546846 0.0 0.0
835.8976793075399 16.196596096575888 425.1004030884354 127.44931357191697 0.0 0.0
820.7848615889069 33.37082958489816 426.18907691409424 135.79128605614915 0.0 0.0
795.5664214664613 37.08361470743972 414.76038676044294 144.20462353692795 0.0 0.0
761.498849621382 32.88944744917947 395.3576845596898 152.40762790650803 0.0 0.0
730.6771922563847 30.54875260190201 378.3626244678769 158.10039660297826 0.0 0.0
701.1826109248037 28.69875858077711 361.78944135775674 162.31421241983082 0.0 0.0
669.8304939998147 25.648860035106082 342.89468535694095 166.0947250759068 0.0 0.0
634.3373849765876 21.275443739750045 319.89963500644126 170.10975680920617 0.0 0.0
592.7911370478699 16.86982577112971 291.47554915630593 174.48801521149164 0.0 0.0
539.5003608804323 11.122758370883915 251.83755222193946 180.5903740536094 0.0 0.0
464.7649747591978 4.950845485476741 197.09968226325032 191.39913235295893 0.0 0.0
356.79212822616205 -2.507673674699891 131.07600261697 207.389775660066 0.0 0.0
239.6546148464512 -5.379550381589215 77.31114941019703 216.45891059044416 0.0 0.0
156.18310150914587 -2.6331364392491956 47.651568105882646 207.89985170247127 0.0 0.0
103.87114829969906 6.680923562208373 33.45574477167428 191.30056200380065 0.0 0.0
58.69078974283818 16.286966344720074 22.508843841014624 180.0271357768573 0.0 0.0
15.83720455550667 4.741269654750315 6.174575283642457 183.0412951182767 0.0 0.0
-11.527703094187824 -44.62957702925161 -16.847840460687564 192.3556967264154 0.0 0.0
3.7267651270195543 -369.2516689896658 -127.88925041380465 161.96174931179235 0.0 0.0
0.5325943662437211 -319.390501941101 -102.07496103664367 -156.38179828050883 0.0 0.0
-30.529162143166378 -47.21609199759968 -23.326323586052876 -194.36591949872027 0.0 0.0
-18.1247618208953 3.7587147324077472 -4.311453990754709 -190.2288664453152 0.0 0.0
5.391886841034683 17.395978854002347 6.846512819849668 -188.9349666181148 0.0 0.0
28.64134745311167 10.914869276731208 11.964296766859945 -199.89998894601197 0.0 0.0
50.3076099040996 2.47519988610138 16.33378205261782 -218.44107776660044 0.0 0.0
80.43987782504536 -0.7679938975570026 25.536292331292493 -233.58766223286196 0.0 0.0
136.42080908417296 0.9450436543173772 45.578516683451404 -236.30118423575198 0.0 0.0
220.33353437713635 4.779984178557271 78.89154492457887 -223.21711592990658 0.0 0.0
301.5959569888773 7.04244268437791 118.38032130041555 -206.6653072405467 0.0 0.0
365.11184506842153 8.472406235734653 157.14231506497077 -194.30390238894304 0.0 0.0
406.22213770359207 8.76037886931168 186.8698172368531 -186.53989014574805 0.0 0.0
435.0218497271722 9.04714335781263 209.60177569074708 -181.05286390633466 0.0 0.0
458.41030864290457 7.124955616368254 226.65904815316378 -176.60224777523186 0.0 0.0
481.1489326604743 2.964540343977035 240.06387729556434 -172.44797114427482 0.0 0.0
508.80763339491216 -2.6575326288811425 252.93503629526782 -167.83136895789102 0.0 0.0
546.1466375640468 -6.298552422297689 269.943418336415 -160.72186667971877 0.0 0.0
592.8277849380411 -6.007215096274223 293.3255395975885 -149.49614922287887 0.0 0.0
612.4941173610881 -36.20347111167871 289.2442871943572 -139.90464313364913 0.0 0.0
648.2435475961712 -69.97640250081511 286.94348663901974 -138.3954267500275 0.0 0.0
648.2435475960531 -69.97640250069236 286.9434866390426 138.39542675027843 0.0 0.0
612.4941173615373 -36.20347111143974 289.24428719458933 139.9046431336643 0.0 0.0
592.8277849375326 -6.007215096937614 293.325539597291 149.49614922307322 0.0 0.0
546.1466375626987 -6.298552424242274 269.9434183353086 160.7218666797287 0.0 0.0
508.80763339390637 -2.657532630227081 252.93503629440008 167.83136895780552 0.0 0.0
481.14893266007226 2.9645403434368234 240.0638772952031 172.44797114437006 0.0 0.0
458.4103086423032 7.124955615714498 226.65904815275343 176.6022477752552 0.0 0.0
435.0218497273077 9.047143357870056 209.6017756907631 181.05286390640083 0.0 0.0
406.2221377029455 8.760378868450417 186.8698172363491 186.53989014574898 0.0 0.0
365.11184506820194 8.472406235454244 157.14231506472163 194.30390238888188 0.0 0.0
301.5959569890906 7.042442685023964 118.38032130056953 206.66530724046544 0.0 0.0
220.3335343771211 4.779984178949071 78.89154492464641 223.21711593000924 0.0 0.0
136.42080908450103 0.9450436554762192 45.578516683879606 236.30118423578367 0.0 0.0
80.43987782524061 -0.7679938968758044 25.536292331554005 233.58766223269396 0.0 0.0
50.307609903894836 2.4751998857183573 16.333782052442327 218.44107776635255 0.0 0.0
28.641347453221446 10.914869277070052 11.964296766994195 199.89998894581464 0.0 0.0
5.39188684115179 17.39597885426925 6.846512819965262 188.934966617953 0.0 0.0
-18.124761820800856 3.7587147326127477 -4.3114539906655756 190.22886644514185 0.0 0.0
-30.529162143327 -47.21609199778919 -23.326323586160715 194.36591949863515 0.0 0.0
0.5325943661104091 -319.3905019408915 -102.07496103657762 156.3817982803522 0.0 0.0
-10.93345931632016 -268.6158013537635 -84.69022594923283 -146.554435069434 0.0 0.0
-49.81856116563824 -49.97347933604628 -29.945363637611685 -194.2116990737785 0.0 0.0
-51.08893858474493 3.7965500607042215 -14.209516651704664 -193.15530992432627 0.0 0.0
-46.304230108396 18.373182270446343 -8.417561782423903 -192.64910584784735 0.0 0.0
-45.678670452274204 15.155806452069816 -9.28593858471309 -202.06664965563843 0.0 0.0
-56.62008046095302 7.414714267404388 -15.31287772665435 -219.41778639490005 0.0 0.0
-83.28236417654966 2.6361468255036966 -25.90268934993014 -233.74106717808704 0.0 0.0
-137.43515177760918 -0.5402821505917377 -45.813147269865084 -236.47466979532933 0.0 0.0
-220.22328316646474 -4.531406292108464 -78.78620449206736 -223.33920129287154 0.0 0.0
-301.3469677573324 -6.699376107116059 -118.17778938206533 -206.6424025300245 0.0 0.0
-365.33748913849035 -7.0102468080850855 -156.60649009267902 -194.1400809321089 0.0 0.0
-407.989595333631 -7.0922274189519925 -186.91722828476324 -186.0594542011396 0.0 0.0
-439.5801934092763 -9.491740765119843 -211.69861509937283 -180.64309176355542 0.0 0.0
-464.37558393776214 -14.927353327756691 -233.02147080970582 -177.29321024159694 0.0 0.0
-480.97933244944124 -23.778651250833803 -251.2529828658314 -175.85228041521486 0.0 0.0
-486.22800057240784 -35.10914192541364 -265.49417079885717 -175.82912507311636 0.0 0.0
-471.1897690252374 -46.2926989412631 -272.2790277833989 -175.9560709824032 0.0 0.0
-406.65139326800664 -39.956540448434055 -255.56324044976844 -175.71836857936435 0.0 0.0
-224.49527929625083 -38.711616224073225 -195.43127192842115 -178.71590949643294 0.0 0.0
-21.511497589630977 -175.78720846957142 -70.48688183123335 -170.47147244704905 0.0 0.0
-21.511497590552892 -175.78720847081445 -70.48688183181957 170.4714724474849 0.0 0.0
-224.49527929720716 -38.711616225909324 -195.431271929403 178.71590949685307 0.0 0.0
-406.6513932684661 -39.95654044869951 -255.56324045011195 175.71836857958488 0.0 0.0
-471.1897690246879 -46.292698940565856 -272.27902778296504 175.95607098249292 0.0 0.0
-486.2280005712163 -35.10914192429385 -265.49417079804687 175.82912507310056 0.0 0.0
-480.97933244859945 -23.7786512496981 -251.25298286512802 175.8522804151508 0.0 0.0
-464.3755839373032 -14.927353327334686 -233.02147080933904 177.29321024164244 0.0 0.0
-439.5801934096104 -9.491740766076774 -211.69861509966435 180.64309176373436 0.0 0.0
-407.98959533345135 -7.092227419639528 -186.91722828481062 186.05945420123146 0.0 0.0
-365.337489138271 -7.010246808629972 -156.60649009261738 194.14008093205325 0.0 0.0
-301.3469677562926 -6.6993761064512185 -118.1777893814382 206.64240252989077 0.0 0.0
-220.22328316583358 -4.531406292101195 -78.78620449181764 223.3392012929898 0.0 0.0
-137.43515177715514 -0.5402821504553827 -45.81314726966451 236.47466979529258 0.0 0.0
-83.28236417591377 2.636146826244051 -25.902689349502324 233.74106717788268 0.0 0.0
-56.62008046067008 7.414714267674746 -15.312877726486018 219.41778639474745 0.0 0.0
-45.67867045240284 15.155806451622322 -9.285938584886349 202.06664965547716 0.0 0.0
-46.30423010841338 18.37318227037943 -8.417561782450626 192.64910584774086 0.0 0.0
-51.088938584687284 3.7965500607126392 -14.209516651687462 193.15530992416015 0.0 0.0
-49.81856116582195 -49.97347933629507 -29.945363637748187 194.21169907362616 0.0 0.0
-10.933459316491085 -268.6158013535843 -84.69022594924373 146.55443506929635 0.0 0.0
-23.04272241802505 -219.75890134275832 -72.83289233591879 -133.59278059466303 0.0 0.0
-66.41777373933519 -50.150771172754254 -34.98183770761063 -190.71204489462662 0.0 0.0
-82.95902540415028 3.7404859706504876 -23.811274273536966 -192.23599766095327 0.0 0.0
-96.36921636301044 19.19270017878432 -23.25053181816773 -191.30559018419643 0.0 0.0
-118.27313445063551 18.539251545132945 -30.361222510322968 -197.56445573957856 0.0 0.0
-161.39112765745378 12.036100993378316 -46.647735659421144 -210.236549365551 0.0 0.0
-241.20855990783355 7.1191146392712525 -77.528401056212 -217.40711800274423 0.0 0.0
-356.4370460438347 2.84818128343003 -131.00968200997684 -207.90506192071 0.0 0.0
-464.3540543557082 -4.759923481131359 -196.88977659986637 -191.5818956354875 0.0 0.0
-539.1231677741191 -10.683194127407276 -251.50436858378322 -180.55327324028357 0.0 0.0
-592.3270373147875 -15.746745421078728 -290.7904680424334 -174.18374226932488 0.0 0.0
-634.4251719799361 -19.7912494982414 -319.2357232693115 -169.29094539166243 0.0 0.0
-671.889271885765 -25.942017935407506 -343.8806535867334 -165.08998730233995 0.0 0.0
-706.9366413515115 -35.25564538211029 -367.5706636992513 -162.69205381030727 0.0 0.0
-740.0179637279001 -48.359625284447446 -391.6680110152614 -162.61074911326077 0.0 0.0
-769.070789506362 -64.11663360483999 -414.9915433380821 -164.7817507855669 0.0 0.0
-789.0794630980006 -79.26612831594329 -433.62295322941685 -169.6432328671464 0.0 0.0
-797.3746340373445 -92.25562766082163 -445.20364252672675 -177.29647069888168 0.0 0.0
-830.6180782086758 -145.95888798455297 -489.9604501921486 -186.59876099375697 0.0 0.0
-844.7271511044745 -237.69899129967774 -544.6844882072339 -205.67827872902623 0.0 0.0
-844.7271511036636 -237.6989912988733 -544.6844882067359 205.67827872928157 0.0 0.0
-830.6180782068891 -145.9588879826626 -489.96045019101456 186.59876099392966 0.0 0.0
-797.3746340363364 -92.25562765938542 -445.2036425259491 177.2964706986731 0.0 0.0
-789.079463098838 -79.26612831733615 -433.62295323011426 169.64323286746117 0.0 0.0
-769.0707895046534 -64.11663360333975 -414.9915433370883 164.78175078552363 0.0 0.0
-740.0179637270521 -48.35962528344018 -391.6680110145989 162.6107491131285 0.0 0.0
-706.9366413508241 -35.25564538154262 -367.57066369882557 162.69205381027962 0.0 0.0
-671.8892718848426 -25.94201793443527 -343.8806535860573 165.08998730222845 0.0 0.0
-634.4251719787698 -19.791249497232656 -319.2357232685605 169.2909453915631 0.0 0.0
-592.327037314264 -15.746745420543718 -290.79046804196514 174.18374226912363 0.0 0.0
-539.1231677738019 -10.683194127269267 -251.50436858346248 180.55327324006583 0.0 0.0
-464.3540543553226 -4.759923481120367 -196.88977659955566 191.5818956354755 0.0 0.0
-356.4370460432201 2.848181283510254 -131.0096820096311 207.90506192074753 0.0 0.0
-241.20855990669835 7.119114640499671 -77.52840105545305 217.40711800256074 0.0 0.0
-161.39112765697186 12.036100993555385 -46.64773565921976 210.23654936537162 0.0 0.0
-118.27313445024133 18.53925154578519 -30.361222510009377 197.5644557393979 0.0 0.0
-96.36921636272459 19.19270017935425 -23.2505318179133 191.3055901839894 0.0 0.0
-82.95902540415982 3.740485970459619 -23.811274273600233 192.23599766067403 0.0 0.0
-66.41777373935767 -50.15077117270583 -34.981837707608825 190.71204489448377 0.0 0.0
-23.04272241795407 -219.758901342508 -72.83289233582462 133.59278059450483 0.0 0.0
-28.372194089085394 -173.87375989215732 -60.67378619437281 -118.7814317014817 0.0 0.0
-80.0975492002255 -47.80981715865748 -38.36943743675112 -183.28800103514627 0.0 0.0
-113.3178002431318 3.503821150128539 -32.98609210995539 -187.28266659200057 0.0 0.0
-144.70201127997174 19.48408410559656 -37.729322273736344 -184.83680918710368 0.0 0.0
-188.56992986481373 20.689198481788566 -51.20670028060297 -186.9934418784586 0.0 0.0
-260.6456749781938 16.994819784047383 -77.54081478678373 -192.79375126058994 0.0 0.0
-370.4219490402217 13.076979631784976 -127.91754750181408 -188.23364143126344 0.0 0.0
-486.4289330317074 2.8108968981860585 -201.70229057536386 -173.84607339459154 0.0 0.0
-576.2059860494007 -8.23461422894529 -269.71255531753366 -165.0692372859752 0.0 0.0
-642.2932750733487 -17.865826187396678 -318.89060997788624 -160.3815445719958 0.0 0.0
-695.4251736482217 -25.339687773290308 -354.0350126296448 -156.5165187774547 0.0 0.0
-741.4855885104266 -33.67106210918057 -383.2655807077425 -152.31125227818077 0.0 0.0
-784.1079739390682 -43.22710828095296 -410.33870407131235 -148.33703106531533 0.0 0.0
-825.5418216825996 -55.9824957661487 -437.9624825262273 -145.86940984526385 0.0 0.0
-866.8039236305367 -73.19696744061179 -467.60209032805716 -145.94250224965498 0.0 0.0
-905.6137284320408 -93.57585137205717 -497.64701722854704 -148.98654400732173 0.0 0.0
-939.6978430301938 -115.16405313491384 -525.9028597490094 -154.60734670530564 0.0 0.0
-977.767223137759 -148.13928609802048 -561.8039039682286 -160.79111019842324 0.0 0.0
-1021.5439917805761 -197.8255571092065 -608.7403461014052 -166.1804794753921 0.0 0.0
-1123.9280964854638 -335.50537066021377 -728.1957548879795 -171.76079795447362 0.0 0.0
-1123.9280964862282 -335.50537066122797 -728.19575488851 171.76079795473726 0.0 0.0
-1021.5439917811873 -197.82555711013913 -608.740346101761 166.1804794758427 0.0 0.0
-977.7672231363838 -148.1392860967843 -561.8039039672483 160.79111019849077 0.0 0.0
-939.6978430287344 -115.16405313349426 -525.9028597478948 154.60734670535174 0.0 0.0
-905.6137284320214 -93.5758513723377 -497.64701722852743 148.98654400741606 0.0 0.0
-866.8039236311523 -73.19696744132057 -467.60209032844057 145.94250224964955 0.0 0.0
-825.5418216826033 -55.98249576634484 -437.9624825262402 145.86940984520376 0.0 0.0
-784.1079739387548 -43.22710828073119 -410.3387040709953 148.3370310652562 0.0 0.0
-741.4855885110038 -33.6710621101669 -383.2655807081097 152.31125227836972 0.0 0.0
-695.4251736492034 -25.33968777466591 -354.03501263029295 156.51651877747162 0.0 0.0
-642.2932750736851 -17.865826188137966 -318.89060997814306 160.38154457203967 0.0 0.0
-576.2059860491654 -8.234614229380107 -269.7125553174304 165.06923728622513 0.0 0.0
-486.4289330316301 2.8108968974306805 -201.7022905753521 173.84607339486507 0.0 0.0
-370.421949039885 13.076979631265054 -127.91754750170024 188.23364143136155 0.0 0.0
-260.6456749782416 16.994819782982272 -77.54081478707256 192.7937512605253 0.0 0.0
-188.56992986459474 20.68919848187096 -51.206700280515776 186.99344187832457 0.0 0.0
-144.70201128010711 19.484084105104806 -37.72932227392801 184.8368091869209 0.0 0.0
-113.31780024288 3.503821150456778 -32.986092109786014 187.28266659174918 0.0 0.0
-80.09754920011122 -47.80981715836525 -38.369437436630264 183.28800103497517 0.0 0.0
-28.37219408901701 -173.87375989202621 -60.67378619431297 118.78143170135785 0.0 0.0
-30.25011359330765 -131.9676406163494 -48.66532626289711 -103.16921122683215 0.0 0.0
-91.36744935075967 -43.207562780938844 -40.37197660823387 -171.3689764092457 0.0 0.0
-141.85010467784235 3.0964182935250513 -41.6559726916356 -178.1492637710482 0.0 0.0
-191.11093851083567 18.739243937537797 -51.95715821460768 -173.52248770734963 0.0 0.0
-255.24774617421832 22.44815911931704 -71.34688836101874 -171.1213656918145 0.0 0.0
-350.47859633851243 22.237893228045365 -108.88312769012536 -168.0084574120301 0.0 0.0
-467.05930438761203 14.791563749088652 -176.80446053502078 -155.0529862421423 0.0 0.0
-568.9759333087169 1.2429492654583711 -255.35350262515556 -145.55672663255692 0.0 0.0
-647.9227806325197 -11.881469670093153 -316.8282726145603 -143.09050523896542 0.0 0.0
-711.9728555364744 -24.00977039585615 -361.3481552081754 -141.38745818258886 0.0 0.0
-766.9636905308512 -35.19587864643917 -396.73327925072465 -138.58304622208806 0.0 0.0
-817.560531337012 -47.456097429879264 -429.19337211123724 -134.9353473580438 0.0 0.0
-864.8973617845543 -60.554989671887796 -459.9816739885182 -131.134615390579 0.0 0.0
-911.2361102724832 -76.65261480082307 -491.5307732244313 -128.50295059896928 0.0 0.0
-958.0805536100742 -97.37156637594816 -525.5490664901093 -128.57719990899943 0.0 0.0
-1005.8306975802582 -123.67684552518418 -562.8231740963462 -131.83488453857697 0.0 0.0
-1055.4417553459639 -157.22695513291188 -604.6443068867195 -137.09286767610513 0.0 0.0
-1109.3032438932294 -201.36879371945645 -653.7979274768932 -141.70897252042403 0.0 0.0
-1182.061400664681 -274.06615321931883 -726.367470887333 -142.27554146349735 0.0 0.0
-1280.0636116955516 -397.9150526058812 -837.2788565889537 -142.07947174700988 0.0 0.0
-1280.0636116955438 -397.9150526059239 -837.2788565889397 142.07947174714818 0.0 0.0
-1182.061400664962 -274.06615321983355 -726.3674708876345 142.27554146392376 0.0 0.0
-1109.3032438930736 -201.36879371949084 -653.7979274768834 141.70897252057068 0.0 0.0
-1055.4417553459257 -157.22695513304342 -604.6443068866969 137.09286767622766 0.0 0.0
-1005.8306975793655 -123.67684552444658 -562.8231740957447 131.8348845386461 0.0 0.0
-958.0805536100461 -97.37156637617258 -525.5490664901197 128.5771999091996 0.0 0.0
-911.2361102726878 -76.65261480130849 -491.5307732245899 128.50295059914484 0.0 0.0
-864.8973617828459 -60.55498967033284 -459.9816739874066 131.13461539060066 0.0 0.0
-817.5605313362462 -47.45609742928323 -429.19337211070956 134.93534735794205 0.0 0.0
-766.9636905300179 -35.195878645631176 -396.733279250124 138.58304622175365 0.0 0.0
-711.972855535007 -24.00977039443724 -361.3481552071884 141.38745818232434 0.0 0.0
-647.9227806306571 -11.881469668145002 -316.8282726132867 143.09050523854708 0.0 0.0
-568.9759333076216 1.2429492665090223 -255.35350262429625 145.55672663233872 0.0 0.0
-467.05930438591275 14.791563750825645 -176.8044605338496 155.05298624192665 0.0 0.0
-350.4785963375698 22.23789322895836 -108.88312768950382 168.00845741176911 0.0 0.0
-255.24774617414266 22.44815911888207 -71.34688836112437 171.12136569164971 0.0 0.0
-191.11093851080733 18.739243937209576 -51.95715821470334 173.5224877071055 0.0 0.0
-141.85010467771215 3.0964182935492035 -41.655972691595714 178.14926377090967 0.0 0.0
-91.36744935078698 -43.207562781060844 -40.37197660827884 171.3689764090301 0.0 0.0
-30.2501135931971 -131.9676406161911 -48.66532626281645 103.16921122674248 0.0 0.0
-31.241355180240138 -94.76586495178844 -37.80216603960857 -87.10200576681567 0.0 0.0
-101.18724729224266 -36.829277810216034 -41.404957530737605 -155.24622281623758 0.0 0.0
-168.5414463983532 2.635210129189587 -49.78470545225 -164.52306435352796 0.0 0.0
-235.85588310176288 17.240749422898077 -65.80989609290835 -157.89563499850465 0.0 0.0
-318.70911453861873 24.584104802482337 -91.11070945710779 -150.7089412909815 0.0 0.0
-427.41817777964036 24.73272710300988 -141.8695664362937 -137.96948353463353 0.0 0.0
-537.1809579975413 14.360334603617652 -220.25162834163643 -124.63582197588237 0.0 0.0
-627.320973361929 -0.0698361777358798 -294.690493988361 -121.46204952814318 0.0 0.0
-701.3713201077577 -15.022351141904764 -349.79519702392435 -122.37628754705989 0.0 0.0
-765.517437324395 -29.479327387853104 -392.6462960176883 -122.19108902917152 0.0 0.0
-824.302958393649 -44.83719188140623 -431.048020246132 -120.14996569073425 0.0 0.0
-879.2753803868826 -61.21465888343832 -467.41806468670427 -116.98650803164678 0.0 0.0
-931.0625955877774 -78.20217395705552 -502.2537333510022 -113.48410375331834 0.0 0.0
-981.4361068116496 -97.12364513547229 -537.1588112635543 -110.80337841429092 0.0 0.0
-1033.7460721097073 -121.4668714670238 -575.6197765096613 -110.529115094758 0.0 0.0
-1090.7503990689745 -155.08904839780183 -621.0513074522974 -113.30386086977767 0.0 0.0
-1154.3394662038609 -199.9085905467561 -675.3758911763211 -117.94836120031128 0.0 0.0
-1227.329009874418 -260.7215689396712 -742.3001318680789 -121.04970646599908 0.0 0.0
-1311.0738344837955 -343.5465436878841 -825.5631743099625 -120.49509507022464 0.0 0.0
-1396.4841000002439 -452.70158137628744 -922.9634467721279 -121.26425236800664 0.0 0.0
-1396.4840999997532 -452.7015813756278 -922.963446771768 121.26425236779234 0.0 0.0
-1311.0738344836027 -343.5465436879213 -825.5631743098837 120.49509507057911 0.0 0.0
-1227.3290098742405 -260.7215689395429 -742.3001318679259 121.04970646605567 0.0 0.0
-1154.3394662044252 -199.9085905475479 -675.3758911767516 117.94836120054282 0.0 0.0
-1090.7503990697153 -155.0890483987909 -621.0513074528757 113.30386086995205 0.0 0.0
-1033.746072110625 -121.46687146810984 -575.6197765102897 110.52911509480238 0.0 0.0
-981.4361068123721 -97.12364513639545 -537.1588112640042 110.80337841434446 0.0 0.0
-931.0625955870511 -78.20217395655509 -502.25373335059453 113.48410375339833 0.0 0.0
-879.275380385923 -61.21465888268551 -467.41806468600754 116.98650803167487 0.0 0.0
-824.3029583935704 -44.83719188167883 -431.0480202460344 120.14996569083935 0.0 0.0
-765.5174373245221 -29.47932738833371 -392.6462960177552 122.19108902922872 0.0 0.0
-701.3713201080225 -15.022351142550882 -349.79519702408453 122.37628754711955 0.0 0.0
-627.3209733621951 -0.06983617844711176 -294.69049398848125 121.46204952820892 0.0 0.0
-537.1809579972156 14.360334603494294 -220.25162834131842 124.63582197589916 0.0 0.0
-427.41817777909614 24.732727103151245 -141.86956643594516 137.96948353456156 0.0 0.0
-318.7091145384693 24.584104802168188 -91.11070945713732 150.70894129084533 0.0 0.0
-235.85588310168146 17.240749422631556 -65.80989609296611 157.89563499831561 0.0 0.0
-168.54144639815985 2.6352101293467745 -49.78470545214952 164.52306435336243 0.0 0.0
-101.1872472920692 -36.82927781003189 -41.40495753063032 155.24622281618636 0.0 0.0
-31.24135518017328 -94.76586495173922 -37.80216603957375 87.10200576673455 0.0 0.0
-32.048106368070655 -62.830535606077476 -28.463592592244435 -70.5853534418945 0.0 0.0
-110.07846591919059 -29.24879314335535 -41.79817771876378 -135.3420550183444 0.0 0.0
-193.62945535408073 2.0392633773392994 -57.47487048720194 -146.4709676897748 0.0 0.0
-277.873833588469 15.279291656385848 -79.11086591694675 -137.95134892431523 0.0 0.0
-377.4098330759313 26.55402326793633 -111.34471691594308 -125.76555101888906 0.0 0.0
-490.157420128195 24.551039797068277 -175.38187534530678 -107.30666929005609 0.0 0.0
-589.2786957576511 13.91772059588454 -256.22968874138144 -98.22367995519993 0.0 0.0
-671.494636219604 -1.448136350723658 -323.7558831148349 -99.17996192459523 0.0 0.0
-743.3502763750276 -17.171970590098027 -374.16840718341103 -101.81756120547479 0.0 0.0
-809.876530836225 -34.766095276702856 -418.3561565247685 -102.45471623691698 0.0 0.0
-872.7282732236463 -54.253173611102625 -460.4394174604865 -100.95938325777566 0.0 0.0
-932.1928766204439 -74.95030852348503 -501.05879156580704 -98.38080570540771 0.0 0.0
-988.6129106566788 -96.04567649630431 -540.2049054251668 -95.44819813068995 0.0 0.0
-1042.9623484365488 -118.28088570970738 -578.7289714908184 -92.73634907687659 0.0 0.0
-1099.884668532398 -145.9399724797031 -621.0891876871481 -91.73286946409546 0.0 0.0
-1165.7290876601915 -186.1764873170397 -674.1439549288873 -93.57735955328745 0.0 0.0
-1243.0783164148238 -243.3417451877448 -741.4274489895281 -97.30245332831959 0.0 0.0
-1330.9067269987463 -318.24637112587493 -822.825460104747 -100.29541713243869 0.0 0.0
-1420.310402780848 -407.0064093115822 -911.9631532693297 -101.55832656748592 0.0 0.0
-1498.3867505262103 -507.6726182137887 -1001.5021678348411 -105.83167893144966 0.0 0.0
-1498.386750524876 -507.672618212509 -1001.5021678339172 105.83167893153879 0.0 0.0
-1420.310402778221 -407.00640930903893 -911.9631532676353 101.5583265677167 0.0 0.0
-1330.906726997462 -318.24637112461807 -822.8254601037704 100.29541713235167 0.0 0.0
-1243.07831641344 -243.34174518635677 -741.42744898842 97.30245332813101 0.0 0.0
-1165.7290876587044 -186.17648731564594 -674.1439549277989 93.57735955330651 0.0 0.0
-1099.8846685319345 -145.93997247940501 -621.0891876867706 91.73286946417281 0.0 0.0
-1042.9623484364874 -118.28088570986414 -578.7289714908542 92.73634907694658 0.0 0.0
-988.6129106556448 -96.04567649539766 -540.2049054244146 95.4481981305816 0.0 0.0
-932.1928766201909 -74.95030852347776 -501.0587915656323 98.38080570549181 0.0 0.0
-872.7282732239352 -54.253173611655356 -460.43941746067594 100.9593832577672 0.0 0.0
-809.8765308352008 -34.7660952759252 -418.3561565241441 102.45471623682803 0.0 0.0
-743.3502763732447 -17.171970588458215 -374.1684071822792 101.81756120529388 0.0 0.0
-671.4946362194821 -1.4481363509864167 -323.7558831147468 99.17996192467523 0.0 0.0
-589.2786957577397 13.917720595276847 -256.22968874136546 98.22367995533055 0.0 0.0
-490.1574201279297 24.551039796888578 -175.38187534508668 107.3066692900106 0.0 0.0
-377.40983307565773 26.554023267724897 -111.34471691587339 125.76555101880844 0.0 0.0
-277.873833588179 15.279291656614141 -79.11086591680585 137.95134892428703 0.0 0.0
-193.62945535390065 2.039263377314641 -57.47487048715616 146.47096768976564 0.0 0.0
-110.07846591920074 -29.2487931436281 -41.79817771884864 135.34205501814372 0.0 0.0
-32.04810636817921 -62.830535606167075 -28.463592592303883 70.5853534416639 0.0 0.0
-32.614391957830755 -36.659206703544015 -20.782079598412427 -53.57227588115298 0.0 0.0
-117.96789825078444 -21.02823223019859 -41.69883914429491 -112.06391587166469 0.0 0.0
-217.36629481590302 1.2104927378948025 -64.84598013931334 -123.94866336351716 0.0 0.0
-318.9690752046357 13.806557895064106 -92.00140176167007 -114.38603735965687 0.0 0.0
-432.01391074547666 27.017707119267317 -133.2662724700757 -97.1814610006019 0.0 0.0
-539.2077786881385 23.643740439706242 -206.94826801201026 -78.82932085744639 0.0 0.0
-627.6112433897547 12.527411354634893 -284.9051568054372 -74.54488284331262 0.0 0.0
-705.6462910475888 -1.5242196115354716 -344.62848899431265 -77.6860361802576 0.0 0.0
-778.2022083192286 -18.977113251702306 -393.7632328448881 -80.941540609183 0.0 0.0
-847.752886492911 -40.03539843804808 -440.46631314405704 -81.97917184125234 0.0 0.0
-914.5126022042539 -63.381458350536064 -486.2227626671453 -81.00555603413576 0.0 0.0
-978.6632805905022 -88.41481397834565 -531.2628628187008 -79.08088157338923 0.0 0.0
-1040.031040089735 -114.17248410756119 -575.1540450543251 -76.81374010428806 0.0 0.0
-1099.5557399121733 -140.787002382605 -618.4462513051146 -74.38053176304334 0.0 0.0
-1160.5961608394693 -171.5426541245126 -664.4033525785303 -72.49924851879469 0.0 0.0
-1231.7541446598254 -216.15694142488644 -722.2153776572176 -72.71154342417472 0.0 0.0
-1320.965029326249 -283.72421368721916 -800.5633813745349 -75.67497330389463 0.0 0.0
-1421.3796410629357 -370.57839198698366 -894.2511086759735 -79.83883080732225 0.0 0.0
-1519.0909293268423 -467.79512237022 -991.8079337361853 -84.51745449794372 0.0 0.0
-1595.7066658275216 -566.2301652667899 -1079.5180580347294 -93.45369144266235 0.0 0.0
-1595.706665827743 -566.2301652670642 -1079.5180580349581 93.45369144279387 0.0 0.0
-1519.090929327105 -467.79512237054774 -991.8079337364833 84.5174544980338 0.0 0.0
-1421.3796410642826 -370.5783919884469 -894.2511086770153 79.83883080740279 0.0 0.0
-1320.965029325333 -283.7242136863905 -800.5633813739212 75.6749733038946 0.0 0.0
-1231.7541446585192 -216.1569414237262 -722.2153776563338 72.71154342424609 0.0 0.0
-1160.5961608379848 -171.54265412313012 -664.4033525774416 72.49924851867635 0.0 0.0
-1099.5557399119537 -140.787002382561 -618.4462513048384 74.38053176304348 0.0 0.0
-1040.0310400899407 -114.17248410796628 -575.1540450544218 76.8137401042896 0.0 0.0
-978.6632805898751 -88.41481397796352 -531.2628628182553 79.08088157342749 0.0 0.0
-914.5126022028724 -63.381458349325435 -486.2227626661659 81.00555603397012 0.0 0.0
-847.7528864920513 -40.035398437503744 -440.4663131434601 81.97917184137609 0.0 0.0
-778.2022083191063 -18.977113251888404 -393.763232844826 80.94154060916577 0.0 0.0
-705.6462910479122 -1.5242196121537859 -344.62848899445925 77.68603618011943 0.0 0.0
-627.6112433897275 12.5274113543313 -284.905156805304 74.54488284318907 0.0 0.0
-539.207778688027 23.64374043941875 -206.94826801183356 78.8293208574018 0.0 0.0
-432.0139107451867 27.017707119103513 -133.2662724699553 97.18146100054611 0.0 0.0
-318.96907520428056 13.806557895401511 -92.0014017614779 114.38603735942635 0.0 0.0
-217.36629481556866 1.2104927381803035 -64.84598013912827 123.94866336339403 0.0 0.0
-117.96789825077082 -21.02823223032696 -41.698839144329334 112.06391587164761 0.0 0.0
-32.614391957852575 -36.65920670350952 -20.782079598408625 53.5722758811359 0.0 0.0
-32.33521232977 -16.71887804636101 -14.716227112839302 -36.18266313596066 0.0 0.0
-124.06126094069222 -12.656731587969453 -41.015397758598496 -85.64383174004713 0.0 0.0
-240.21920826935565 -0.033511666909392446 -72.07581598087951 -96.91438254843659 0.0 0.0
-359.984644771234 13.766075794993746 -104.66746417886091 -87.05660806125019 0.0 0.0
-479.3375180497135 26.020188519876747 -156.72602746021607 -67.12401400354803 0.0 0.0
-577.4151724419081 21.632929189086425 -236.01314106621092 -53.622301476368094 0.0 0.0
-658.3374141579568 11.767741979289767 -307.20132001823345 -52.70281466520839 0.0 0.0
-733.4686234419603 -1.134968369323687 -360.6108733841912 -56.196732513736286 0.0 0.0
-807.5159717788613 -20.854535147181878 -410.14027187569275 -59.49510748797332 0.0 0.0
-880.2265315698004 -45.098682182915724 -459.61548554584556 -60.77271782714687 0.0 0.0
-951.1117335834185 -72.27202448811497 -509.21608806094713 -60.284937956367386 0.0 0.0
-1019.811495370276 -101.54292295686167 -558.5850315287817 -58.99685626651163 0.0 0.0
-1086.7887589984634 -132.25401221848034 -607.70424193663 -57.49025192249795 0.0 0.0
-1152.3173891047772 -164.66299295364166 -656.8702688961837 -55.54817621238526 0.0 0.0
-1218.38990124518 -200.02258091236442 -707.6721928160086 -53.16210796839154 0.0 0.0
-1291.6084911098749 -245.6084415445172 -767.0002497220813 -51.559146371670806 0.0 0.0
-1383.4740896299709 -314.86628166564606 -847.4246560002067 -53.237850071081944 0.0 0.0
-1499.5506575856082 -416.48711618175327 -956.3000077274703 -59.02210244582753 0.0 0.0
-1610.9857858026055 -526.7220774039442 -1067.2689192787439 -68.1646610362458 0.0 0.0
-1696.8161900715695 -632.9539328405701 -1163.491290234404 -82.71565762692116 0.0 0.0
-1696.8161900717246 -632.9539328408098 -1163.4912902345109 82.7156576270877 0.0 0.0
-1610.9857858024864 -526.7220774038732 -1067.2689192786027 68.16466103625504 0.0 0.0
-1499.5506575845898 -416.4871161807914 -956.3000077266518 59.02210244582059 0.0 0.0
-1383.474089628474 -314.86628166424725 -847.4246559990577 53.237850071084566 0.0 0.0
-1291.6084911106605 -245.60844154546726 -767.0002497225056 51.559146371798185 0.0 0.0
-1218.3899012446188 -200.02258091195108 -707.6721928155923 53.16210796841831 0.0 0.0
-1152.3173891033634 -164.66299295239867 -656.8702688951588 55.548176212399696 0.0 0.0
-1086.7887589979252 -132.25401221816048 -607.7042419362808 57.49025192249389 0.0 0.0
-1019.8114953696889 -101.54292295650227 -558.5850315284424 58.996856266557174 0.0 0.0
-951.1117335829726 -72.27202448791903 -509.2160880606602 60.28493795630941 0.0 0.0
-880.2265315690321 -45.098682182406904 -459.6154855453412 60.77271782706438 0.0 0.0
-807.5159717777562 -20.85453514634449 -410.1402718749555 59.495107487931335 0.0 0.0
-733.4686234403648 -1.134968368021525 -360.6108733831594 56.1967325138352 0.0 0.0
-658.337414157507 11.767741979337515 -307.20132001791836 52.70281466535902 0.0 0.0
-577.4151724418514 21.632929188745365 -236.01314106605818 53.622301476369415 0.0 0.0
-479.3375180496407 26.02018851951331 -156.72602746016517 67.12401400351266 0.0 0.0
-359.98464477107456 13.766075794593297 -104.6674641789391 87.05660806108054 0.0 0.0
-240.21920826907703 -0.033511666814376895 -72.07581598076742 96.91438254827008 0.0 0.0
-124.06126094056998 -12.656731587904872 -41.015397758542456 85.64383173983789 0.0 0.0
-32.3352123298095 -16.71887804650299 -14.716227112893748 36.18266313578559 0.0 0.0
-29.891917458090106 -3.4021852583520316 -9.98823081493264 -18.93274057447923 0.0 0.0
-126.64126513217902 -4.766434247321918 -39.422309813850276 -56.04454921845145 0.0 0.0
-262.640623573716 -1.4279866841343694 -79.2205830773551 -64.86891775104607 0.0 0.0
-402.17234974036506 14.938843914423003 -118.10559456557975 -56.0802947874339 0.0 0.0
-518.127683950343 24.564527397883676 -180.65866195153 -38.657892335635076 0.0 0.0
-605.6207481349479 18.547398923847 -261.308458229494 -30.91274351790996 0.0 0.0
-682.343282973001 12.267943233066887 -323.37667040615116 -31.670569302218144 0.0 0.0
-756.5867753312866 -1.3189015027853799 -373.7095960668315 -34.6591556169668 0.0 0.0
-831.8756954816708 -22.544068895796443 -423.70705737809806 -37.461842443525114 0.0 0.0
-907.9475549382363 -49.91188481499708 -476.1749981415975 -38.790806331840756 0.0 0.0
-983.1041003889313 -80.94461284293939 -529.7521216606951 -38.78178517828254 0.0 0.0
-1056.752636732744 -114.33168940360315 -583.5998977247034 -38.14673978490902 0.0 0.0
-1129.2261239112763 -150.34400385370398 -638.0714374016944 -37.26516035657226 0.0 0.0
-1201.628506156526 -189.04329247516762 -693.782624131095 -36.01487294314387 0.0 0.0
-1274.6673517614531 -231.05832156403295 -751.4093497164822 -33.98714283179192 0.0 0.0
-1349.8066416806355 -278.3870250522443 -812.6488796314165 -31.304940427765228 0.0 0.0
-1434.7926509431954 -340.1419587259895 -885.8804370481131 -30.562570852743423 0.0 0.0
-1546.2042943712681 -435.68178416320904 -989.1957781642749 -36.472803205500796 0.0 0.0
-1704.4956641143401 -590.5695789384008 -1145.9378046455531 -50.8025058942079 0.0 0.0
-1811.003478771027 -715.1736684831901 -1261.7423017684446 -72.61462917278661 0.0 0.0
-1811.0034787704342 -715.1736684826476 -1261.7423017679318 72.61462917292653 0.0 0.0
-1704.4956641140689 -590.5695789381798 -1145.937804645277 50.80250589424855 0.0 0.0
-1546.20429437102 -435.68178416304323 -989.1957781639659 36.472803205540814 0.0 0.0
-1434.792650943341 -340.1419587262556 -885.8804370480773 30.56257085281368 0.0 0.0
-1349.8066416803742 -278.3870250521259 -812.6488796311909 31.304940427806784 0.0 0.0
-1274.6673517608945 -231.0583215636274 -751.4093497161515 33.98714283175368 0.0 0.0
-1201.6285061558278 -189.04329247464722 -693.7826241306458 36.014872943133525 0.0 0.0
-1129.2261239111572 -150.34400385381082 -638.0714374015614 37.26516035660734 0.0 0.0
-1056.7526367326216 -114.33168940371509 -583.5998977244947 38.146739784936656 0.0 0.0
-983.1041003886296 -80.94461284291417 -529.7521216603923 38.78178517836663 0.0 0.0
-907.947554937716 -49.911884814778844 -476.1749981412412 38.790806331936125 0.0 0.0
-831.8756954812717 -22.544068895695787 -423.7070573778079 37.46184244347143 0.0 0.0
-756.586775330251 -1.3189015020366384 -373.70959606613695 34.65915561695663 0.0 0.0
-682.3432829724068 12.267943233336737 -323.3766704057124 31.67056930219179 0.0 0.0
-605.6207481348073 18.547398923667018 -261.3084582292891 30.91274351782414 0.0 0.0
-518.1276839506327 24.56452739709081 -180.65866195165464 38.65789233568935 0.0 0.0
-402.1723497399754 14.93884391423995 -118.10559456551577 56.080294787509935 0.0 0.0
-262.6406235733791 -1.4279866837947601 -79.22058307715214 64.86891775090515 0.0 0.0
-126.6412651318418 -4.7664342470066 -39.422309813654515 56.04454921844718 0.0 0.0
-29.891917458045533 -3.4021852583352175 -9.988230814914225 18.932740574419448 0.0 0.0
-22.756342625570916 3.014456201298862 -5.922565927281617 -3.1131939289616652 0.0 0.0
-122.53228693416017 1.7604681006653067 -36.23154565004845 -22.677064355675498 0.0 0.0
-285.94332322003834 -2.2646052210054535 -86.46237853231312 -26.763119058261275 0.0 0.0
-442.1676752638002 17.075835830044312 -133.1304065009027 -22.4795668897924 0.0 0.0
-550.4097937050033 22.20073565627431 -204.94051100134396 -13.094096451700043 0.0 0.0
-630.0012189202425 16.934291451930058 -282.0608900661675 -10.339712314365482 0.0 0.0
-702.0770607912577 12.06796602447686 -336.31012895803235 -11.052710755672578 0.0 0.0
-775.350463204729 -1.566308653069683 -384.19526322773504 -13.00326999558682 0.0 0.0
-852.0484756057996 -24.25788433296927 -435.07667470118383 -14.866326273765466 0.0 0.0
-931.3695327865235 -54.396624496375665 -490.37270864952814 -16.026003504110975 0.0 0.0
-1011.0412803689326 -89.18159364839744 -548.0030833191299 -16.474498322243146 0.0 0.0
-1089.7203810874394 -127.32692833290332 -606.7060610265037 -16.43968753170095 0.0 0.0
-1167.9638034130699 -168.23352008675226 -666.4744240764743 -16.202679342875058 0.0 0.0
-1247.0534217899353 -212.95575977740472 -728.5071088234286 -15.653177324418305 0.0 0.0
-1327.6807764940024 -262.35290816603566 -793.6071982944782 -14.519235291079603 0.0 0.0
-1408.8965974411446 -315.89375422687715 -861.0416696840698 -12.524451292405558 0.0 0.0
-1488.8984012983642 -372.71573906006495 -929.44219075609 -10.155561222454267 0.0 0.0
-1574.4302433999833 -441.28405703933174 -1006.3247797759357 -11.985610739080617 0.0 0.0
-1700.2609880272278 -560.0704681083023 -1128.3710220079515 -27.96907167926921 0.0 0.0
-2015.3097842068446 -887.5076124643491 -1450.0709748728123 -60.26465121840923 0.0 0.0
-2015.309784207578 -887.5076124650825 -1450.0709748733118 60.26465121838041 0.0 0.0
-1700.2609880273142 -560.0704681084375 -1128.3710220080343 27.96907167926117 0.0 0.0
-1574.4302433987186 -441.2840570381512 -1006.3247797749725 11.985610739170289 0.0 0.0
-1488.8984012969224 -372.7157390587236 -929.4421907550682 10.15556122237884 0.0 0.0
-1408.8965974409355 -315.8937542268109 -861.0416696838732 12.52445129253943 0.0 0.0
-1327.680776493917 -262.3529081661144 -793.6071982943035 14.519235291170542 0.0 0.0
-1247.0534217893726 -212.95575977701833 -728.5071088230601 15.653177324353056 0.0 0.0
-1167.9638034110833 -168.23352008496175 -666.4744240750733 16.202679342792656 0.0 0.0
-1089.7203810876683 -127.32692833338027 -606.7060610266551 16.439687531662713 0.0 0.0
-1011.0412803698537 -89.18159364959169 -548.0030833197194 16.47449832211291 0.0 0.0
-931.3695327861113 -54.39662449623876 -490.37270864922516 16.026003504042595 0.0 0.0
-852.0484756054043 -24.257884332859277 -435.07667470093617 14.866326273703018 0.0 0.0
-775.3504632035906 -1.566308652218666 -384.19526322704274 13.003269995577606 0.0 0.0
-702.0770607904368 12.067966024995144 -336.3101289575099 11.052710755518472 0.0 0.0
-630.0012189203885 16.934291451423498 -282.06089006618055 10.339712314338882 0.0 0.0
-550.4097937046596 22.200735656369126 -204.9405110010684 13.094096451694131 0.0 0.0
-442.16767526313936 17.07583583036065 -133.13040650057783 22.4795668897445 0.0 0.0
-285.9433232199336 -2.264605221228962 -86.46237853234877 26.763119058163063 0.0 0.0
-122.53228693404262 1.7604681004716785 -36.231545650071276 22.677064355538853 0.0 0.0
-22.756342625430875 3.014456201359644 -5.922565927221369 3.1131939289445847 0.0 0.0
SCALARS Strain float 6
LOOKUP_TABLE default
0.01287921028989383 -0.013948330312042345 0.0 -0.007767335120558938 0.0 0.0
0.0026374559811916283 -0.001758229541385048 0.0 0.0013083722320287317 0.0 0.0
0.0018798635349895967 -0.0007734428897705481 0.0 -3.5356861072866064e-05 0.0 0.0
0.0024582028442539892 -0.001237519712822488 0.0 -0.000240888419086982 0.0 0.0
0.00403164318315315 -0.002549313535207931 0.0 -0.0003180719643927077 0.0 0.0
0.007268121862392396 -0.0054843427886723806 0.0 -0.0005052461318051371 0.0 0.0
0.012562418185926162 -0.010512483009760931 0.0 -0.0008279791260439318 0.0 0.0
0.02027831742548213 -0.017956805704711254 0.0 -0.0013342261067079697 0.0 0.0
0.03059774405636487 -0.027976060616506704 0.0 -0.0020420713012507252 0.0 0.0
0.04347719124960073 -0.040526662213010045 0.0 -0.002888636311968229 0.0 0.0
0.058725643975917216 -0.05543013611140646 0.0 -0.003766325433545048 0.0 0.0
0.07610682145322618 -0.07245847127405058 0.0 -0.004619190687394137 0.0 0.0
0.09537880710320856 -0.09137231301468729 0.0 -0.005453514202508392 0.0 0.0
0.11626027302524691 -0.1118860282360683 0.0 -0.006257384143055877 0.0 0.0
0.13831278595327756 -0.1335579521390411 0.0 -0.006984436167542463 0.0 0.0
0.16081058683012422 -0.1556665353298392 0.0 -0.007483866384416504 0.0 0.0
0.182689851201149 -0.1771610826347283 0.0 -0.0075063003310748555 0.0 0.0
0.2025904506270052 -0.19669401983671264 0.0 -0.006846797422313089 0.0 0.0
0.218896410666496 -0.21264712122336515 0.0 -0.005927230378831694 0.0 0.0
0.22917599399611585 -0.2223560852519979 0.0 -0.0072125930459376875 0.0 0.0
0.22917599399610125 -0.22235608525198192 0.0 0.007212593045949345 0.0 0.0
0.21889641066644808 -0.21264712122332163 0.0 0.005927230378859005 0.0 0.0
0.20259045062692665 -0.19669401983663004 0.0 0.006846797422326856 0.0 0.0
0.18268985120104778 -0.17716108263463148 0.0 0.007506300331082683 0.0 0.0
0.16081058683001448 -0.1556665353297375 0.0 0.0074838663844049025 0.0 0.0
0.13831278595316399 -0.1335579521389305 0.0 0.006984436167541519 0.0 0.0
0.11626027302513453 -0.11188602823595639 0.0 0.006257384143057099 0.0 0.0
0.09537880710309832 -0.09137231301457938 0.0 0.0054535142025078365 0.0 0.0
0.07610682145312114 -0.07245847127394844 0.0 0.004619190687384367 0.0 0.0
0.05872564397582275 -0.055430136111314976 0.0 0.003766325433539719 0.0 0.0
0.043477191249521874 -0.040526662212932774 0.0 0.002888636311957349 0.0 0.0
0.03059774405630339 -0.027976060616448084 0.0 0.0020420713012446745 0.0 0.0
0.020278317425436954 -0.017956805704669954 0.0 0.0013342261067038619 0.0 0.0
0.012562418185895763 -0.01051248300973806 0.0 0.000827979126042655 0.0 0.0
0.007268121862374521 -0.005484342788658614 0.0 0.0005052461318025836 0.0 0.0
0.004031643183144029 -0.0025493135352008256 0.0 0.00031807196439154195 0.0 0.0
0.0024582028442519666 -0.0012375197128212667 0.0 0.00024088841908626035 0.0 0.0
0.0018798635349889792 -0.0007734428897708812 0.0 3.5356861073920776e-05 0.0 0.0
0.0026374559811891407 -0.0017582295413829385 0.0 -0.0013083722320251234 0.0 0.0
0.012879210289882481 -0.0139483303120277 0.0 0.00776733512052491 0.0 0.0
0.009235102789616464 -0.010682182604822565 0.0 -0.009462140421742093 0.0 0.0
0.0014130543136785315 -0.000880188867172671 0.0 0.00012218949603870488 0.0 0.0
0.0016006205189400963 -0.000561907555726382 0.0 -0.00012565859210456054 0.0 0.0
0.0021388776619018918 -0.0010188697867445917 0.0 -0.0005049210234320256 0.0 0.0
0.0033980556418565927 -0.002016777387323865 0.0 -0.0007042756866699751 0.0 0.0
0.006177410523335869 -0.004480818056634028 0.0 -0.001161420761923937 0.0 0.0
0.01090491366663792 -0.008920483586583261 0.0 -0.001967233537822577 0.0 0.0
0.01788605250028307 -0.015623569686532335 0.0 -0.0031573956598129893 0.0 0.0
0.027236278126335715 -0.024681024389193507 0.0 -0.004736502553899735 0.0 0.0
0.03886172420637487 -0.035995437642838635 0.0 -0.006557141542205436 0.0 0.0
0.05255962612507676 -0.04937372079460278 0.0 -0.008415687885754641 0.0 0.0
0.06812868960760576 -0.06461922413159993 0.0 -0.010197945091033556 0.0 0.0
0.08539236970914017 -0.08155366754394677 0.0 -0.011957228501719375 0.0 0.0
0.10412339556280432 -0.09994775714475779 0.0 -0.013694226494562922 0.0 0.0
0.12394683538815404 -0.11942569264445346 0.0 -0.015276372447833475 0.0 0.0
0.14424982744998738 -0.13937671774456994 0.0 -0.01640812576084799 0.0 0.0
0.1641157226636678 -0.15888873567747464 0.0 -0.01662106787975154 0.0 0.0
0.18229071182315887 -0.17670825312461957 0.0 -0.015622723313047482 0.0 0.0
0.19703173191757475 -0.19104654111026065 0.0 -0.01378212654388733 0.0 0.0
0.20592390211915398 -0.19962978046360735 0.0 -0.010917732605199904 0.0 0.0
0.2059239021191404 -0.19962978046359225 0.0 0.010917732605224661 0.0 0.0
0.19703173191753037 -0.19104654111022157 0.0 0.013782126543933293 0.0 0.0
0.18229071182308978 -0.17670825312455118 0.0 0.015622723313081455 0.0 0.0
0.16411572266357963 -0.1588887356773876 0.0 0.01662106787976536 0.0 0.0
0.14424982744989 -0.13937671774447535 0.0 0.016408125760837944 0.0 0.0
0.12394683538805212 -0.11942569264435487 0.0 0.0152763724478292 0.0 0.0
0.10412339556270311 -0.09994775714466542 0.0 0.013694226494558981 0.0 0.0
0.0853923697090419 -0.08155366754385529 0.0 0.011957228501715655 0.0 0.0
0.06812868960751228 -0.06461922413150578 0.0 0.010197945091020899 0.0 0.0
0.052559626124992376 -0.04937372079451974 0.0 0.008415687885744094 0.0 0.0
0.03886172420630357 -0.03599543764277069 0.0 0.006557141542188782 0.0 0.0
0.027236278126280433 -0.024681024389140216 0.0 0.004736502553891908 0.0 0.0
0.017886052500242333 -0.015623569686491035 0.0 0.003157395659806772 0.0 0.0
0.010904913666610616 -0.00892048358655484 0.0 0.0019672335378191907 0.0 0.0
0.00617741052332077 -0.004480818056621372 0.0 0.0011614207619210504 0.0 0.0
0.003398055641849196 -0.00201677738732009 0.0 0.0007042756866701416 0.0 0.0
0.0021388776619005734 -0.0010188697867450358 0.0 0.000504921023431304 0.0 0.0
0.0016006205189396105 -0.0005619075557258268 0.0 0.0001256585921068365 0.0 0.0
0.0014130543136783302 -0.0008801888671706171 0.0 -0.00012218949603903795 0.0 0.0
0.009235102789602323 -0.01068218260480655 0.0 0.009462140421711729 0.0 0.0
0.00688655125601044 -0.008512758377749507 0.0 -0.008803261668289708 0.0 0.0
0.0008254990368986789 -0.0005789879196688164 0.0 -0.0006012942915804564 0.0 0.0
0.0012802668718499277 -0.0004098692327638709 0.0 -0.00044307862607084747 0.0 0.0
0.0018387024500981924 -0.0008193557363986859 0.0 -0.0007499434834291052 0.0 0.0
0.00283392497331679 -0.0015700543218148955 0.0 -0.0010269139531969285 0.0 0.0
0.005132275434415946 -0.00354188937533495 0.0 -0.0016439008405163547 0.0 0.0
0.00926153145210519 -0.007355020967573456 0.0 -0.0028093087106105252 0.0 0.0
0.015465518868483755 -0.013276004340578407 0.0 -0.00455339105188779 0.0 0.0
0.023808059185475343 -0.021331940058876064 0.0 -0.006814728804813819 0.0 0.0
0.03415440025467498 -0.0313860812262976 0.0 -0.009383195113041809 0.0 0.0
0.04629493509181545 -0.04323205311931888 0.0 -0.012003653683842541 0.0 0.0
0.06005281602453537 -0.056693863118230325 0.0 -0.014530314466681793 0.0 0.0
0.07529320541086225 -0.07163458154798485 0.0 -0.01700395048881298 0.0 0.0
0.09185137531016202 -0.08788807616198424 0.0 -0.01945984677709439 0.0 0.0
0.1094350590273645 -0.10516252256158065 0.0 -0.02173693864118903 0.0 0.0
0.12755212921065162 -0.12296456904507469 0.0 -0.0234188716245195 0.0 0.0
0.14543125120693545 -0.14051880407460882 0.0 -0.02394402311940591 0.0 0.0
0.1619010819639288 -0.15663933675855368 0.0 -0.022876787319754066 0.0 0.0
0.17526279372345122 -0.1696592433444266 0.0 -0.019731760858943903 0.0 0.0
0.1835863603644163 -0.17773364353824928 0.0 -0.013503086983972401 0.0 0.0
0.18358636036440298 -0.1777336435382315 0.0 0.013503086984017698 0.0 0.0
0.17526279372341166 -0.16965924334438665 0.0 0.01973176085900652 0.0 0.0
0.16190108196386735 -0.1566393367584995 0.0 0.022876787319801695 0.0 0.0
0.14543125120685868 -0.1405188040745342 0.0 0.023944023119423896 0.0 0.0
0.1275521292105663 -0.12296456904499653 0.0 0.02341887162450773 0.0 0.0
0.10943505902727424 -0.10516252256149494 0.0 0.021736938641183756 0.0 0.0
0.09185137531007254 -0.0878880761618901 0.0 0.01945984677708945 0.0 0.0
0.07529320541077555 -0.07163458154789604 0.0 0.017003950488807096 0.0 0.0
0.060052816024453726 -0.05669386311815572 0.0 0.014530314466665195 0.0 0.0
0.04629493509174082 -0.04323205311924694 0.0 0.012003653683824722 0.0 0.0
0.03415440025461153 -0.031386081226238094 0.0 0.00938319511302066 0.0 0.0
0.023808059185426222 -0.021331940058833432 0.0 0.006814728804800829 0.0 0.0
0.015465518868447492 -0.01327600434054732 0.0 0.004553391051873912 0.0 0.0
0.00926153145208125 -0.007355020967549475 0.0 0.0028093087106014214 0.0 0.0
0.005132275434403533 -0.0035418893753229597 0.0 0.0016439008405098599 0.0 0.0
0.0028339249733114746 -0.0015700543218115648 0.0 0.0010269139531945415 0.0 0.0
0.001838702450097096 -0.0008193557363996851 0.0 0.000749943483427884 0.0 0.0
0.0012802668718498444 -0.000409869232764426 0.0 0.0004430786260680719 0.0 0.0
0.0008254990368987691 -0.0005789879196683168 0.0 0.0006012942915765151 0.0 0.0
0.00688655125599652 -0.00851275837773494 0.0 0.008803261668264561 0.0 0.0
0.005230928499684068 -0.006873430041252571 0.0 -0.0074979850304985884 0.0 0.0
0.0005155958420234169 -0.00043070629082297973 0.0 -0.001207519555302905 0.0 0.0
0.0009916476664752205 -0.0002994826753202062 0.0 -0.0008727626955138956 0.0 0.0
0.0015512711302789889 -0.0006496588024571537 0.0 -0.0010226340620405061 0.0 0.0
0.0023366521104208893 -0.00120871324941918 0.0 -0.0013131216280024005 0.0 0.0
0.004168238109038033 -0.0027073651471332116 0.0 -0.001980905597198601 0.0 0.0
0.007648146639200659 -0.0058471885968551796 0.0 -0.003364723914250911 0.0 0.0
0.013046221169500508 -0.010943401009654075 0.0 -0.0055164447702843455 0.0 0.0
0.020348370909704677 -0.017967206915114442 0.0 -0.008267959897416244 0.0 0.0
0.0293949073204883 -0.026739512751803307 0.0 -0.011372144875756551 0.0 0.0
0.03996846381609613 -0.03704257031450586 0.0 -0.014532066167470548 0.0 0.0
0.05191021696354475 -0.04871517293318117 0.0 -0.017599878569125538 0.0 0.0
0.06512296076303581 -0.061658218800275666 0.0 -0.020618153021187025 0.0 0.0
0.07949570708143872 -0.07575826420672715 0.0 -0.023576846109122918 0.0 0.0
0.09481955124230612 -0.0908092801798106 0.0 -0.026324907880399817 0.0 0.0
0.11073003347819038 -0.10644241135923593 0.0 -0.02848037989002411 0.0 0.0
0.12660246434561806 -0.12201953684628464 0.0 -0.02940931163085747 0.0 0.0
0.14140801110354395 -0.13651008658761743 0.0 -0.028349234425364078 0.0 0.0
0.15367452552761024 -0.14847365310470018 0.0 -0.024200113708964466 0.0 0.0
0.16176786894617998 -0.15634264723867997 0.0 -0.015601287939993602 0.0 0.0
0.16176786894616632 -0.15634264723866842 0.0 0.015601287940049446 0.0 0.0
0.1536745255275755 -0.14847365310467708 0.0 0.02420011370903241 0.0 0.0
0.14140801110348938 -0.1365100865875739 0.0 0.028349234425417702 0.0 0.0
0.12660246434555159 -0.12201953684622246 0.0 0.029409311630879342 0.0 0.0
0.1107300334781165 -0.10644241135916621 0.0 0.028480379890011953 0.0 0.0
0.09481955124222738 -0.09080928017973777 0.0 0.026324907880391546 0.0 0.0
0.07949570708136117 -0.07575826420665077 0.0 0.02357684610911437 0.0 0.0
0.06512296076296042 -0.06165821880020106 0.0 0.020618153021178642 0.0 0.0
0.0519102169634737 -0.04871517293310612 0.0 0.017599878569105387 0.0 0.0
0.03996846381603192 -0.03704257031444058 0.0 0.0145320661674474 0.0 0.0
0.029394907320433705 -0.026739512751748684 0.0 0.011372144875733126 0.0 0.0
0.020348370909660962 -0.01796720691506959 0.0 0.0082679598974007 0.0 0.0
0.013046221169469241 -0.01094340100962432 0.0 0.005516444770270634 0.0 0.0
0.007648146639180342 -0.00584718859683786 0.0 0.003364723914241252 0.0 0.0
0.004168238109027889 -0.002707365147124996 0.0 0.0019809055971912737 0.0 0.0
0.0023366521104175586 -0.0012087132494180697 0.0 0.0013131216280001246 0.0 0.0
0.0015512711302779758 -0.0006496588024590411 0.0 0.0010226340620390073 0.0 0.0
0.0009916476664754703 -0.00029948267532087236 0.0 0.0008727626955139511 0.0 0.0
0.0005155958420232087 -0.00043070629082164746 0.0 0.0012075195553009621 0.0 0.0
0.0052309284996719385 -0.006873430041239208 0.0 0.007497985030480603 0.0 0.0
0.0039621957860533075 -0.005534770745986184 0.0 -0.006150507177554332 0.0 0.0
0.00034372876369578864 -0.00034619017715098455 0.0 -0.0016798247429336555 0.0 0.0
0.0007517815871764394 -0.00022140352440935818 0.0 -0.0013063240171488633 0.0 0.0
0.0012757722616144884 -0.0005071479925686795 0.0 -0.0013265586045462796 0.0 0.0
0.0019000095313057158 -0.0009226963579620495 0.0 -0.001579359250275636 0.0 0.0
0.003302842239056372 -0.0019991880815863894 0.0 -0.0022334967471435707 0.0 0.0
0.006108962606802451 -0.004440955325257789 0.0 -0.003655526898066308 0.0 0.0
0.010651349376615243 -0.008658526498409369 0.0 -0.00600621967759063 0.0 0.0
0.016891986353275615 -0.014623062441258217 0.0 -0.009089797769168517 0.0 0.0
0.024620651340505645 -0.022095116020454775 0.0 -0.012521623279787453 0.0 0.0
0.03361829090119735 -0.030845012272420647 0.0 -0.016011212906514916 0.0 0.0
0.04373838143514229 -0.040723274683774235 0.0 -0.01940517739400266 0.0 0.0
0.05491837338665137 -0.051663317126624086 0.0 -0.02274797266152434 0.0 0.0
0.06710111726380241 -0.06360611663181315 0.0 -0.02603946683949826 0.0 0.0
0.08015072972005174 -0.07641723280756407 0.0 -0.029090761785582453 0.0 0.0
0.09380987125665954 -0.08983571126581147 0.0 -0.0315477520911881 0.0 0.0
0.10762218652117964 -0.10339425148355019 0.0 -0.032846656707818056 0.0 0.0
0.12080187461455766 -0.11629924548433568 0.0 -0.03199702394858572 0.0 0.0
0.13214894906040947 -0.12737344214953783 0.0 -0.027397768943548506 0.0 0.0
0.14022943361624662 -0.13523555749950678 0.0 -0.017367144826506586 0.0 0.0
0.14022943361623383 -0.13523555749949345 0.0 0.01736714482656765 0.0 0.0
0.13214894906037808 -0.12737344214949964 0.0 0.027397768943622225 0.0 0.0
0.12080187461451156 -0.11629924548428594 0.0 0.03199702394864312 0.0 0.0
0.10762218652112288 -0.10339425148349068 0.0 0.03284665670784659 0.0 0.0
0.09380987125659573 -0.08983571126574041 0.0 0.031547752091178105 0.0 0.0
0.0801507297199851 -0.0764172328074908 0.0 0.029090761785568686 0.0 0.0
0.06710111726373666 -0.06360611663174609 0.0 0.026039466839487324 0.0 0.0
0.05491837338658828 -0.051663317126564134 0.0 0.02274797266151407 0.0 0.0
0.04373838143508196 -0.04072327468371206 0.0 0.01940517739398029 0.0 0.0
0.03361829090114338 -0.030845012272362915 0.0 0.016011212906488215 0.0 0.0
0.024620651340459987 -0.02209511602040859 0.0 0.012521623279758365 0.0 0.0
0.016891986353238242 -0.014623062441225798 0.0 0.009089797769148866 0.0 0.0
0.01065134937658907 -0.00865852649838783 0.0 0.006006219677576641 0.0 0.0
0.006108962606786061 -0.00444095532524047 0.0 0.00365552689805837 0.0 0.0
0.0033028422390483647 -0.00199918808157995 0.0 0.0022334967471372424 0.0 0.0
0.001900009531303648 -0.0009226963579622716 0.0 0.0015793592502720277 0.0 0.0
0.0012757722616134615 -0.0005071479925708999 0.0 0.0013265586045463351 0.0 0.0
0.0007517815871768141 -0.0002214035244090251 0.0 0.0013063240171464763 0.0 0.0
0.00034372876369553884 -0.0003461901771503739 0.0 0.001679824742931102 0.0 0.0
0.00396219578604351 -0.005534770745975767 0.0 0.006150507177539344 0.0 0.0
0.0029568411724580634 -0.004411080624680874 0.0 -0.004964560305692756 0.0 0.0
0.00024021054509948403 -0.00028942863771974636 0.0 -0.00203260195422561 0.0 0.0
0.000551935756058955 -0.00016266350859195366 0.0 -0.0016874474062278932 0.0 0.0
0.0010081508626452323 -0.0003830723719138174 0.0 -0.001635058152028579 0.0 0.0
0.0015147584496707361 -0.0006967900701118079 0.0 -0.0018395883357996134 0.0 0.0
0.002534058253007093 -0.0014241397922987176 0.0 -0.00243301934063489 0.0 0.0
0.004688727854184532 -0.003193954139849575 0.0 -0.003790479245912526 0.0 0.0
0.008328127487857592 -0.006483788507725574 0.0 -0.006100921333830056 0.0 0.0
0.013470060438170561 -0.011337786848741427 0.0 -0.009253306062935618 0.0 0.0
0.019868854830789984 -0.01749332461977371 0.0 -0.012820783469616404 0.0 0.0
0.027281668956581726 -0.02468135790250292 0.0 -0.016425431270237212 0.0 0.0
0.035577404078544234 -0.032761299532894306 0.0 -0.019936385263040313 0.0 0.0
0.04472199493540277 -0.04169626910277069 0.0 -0.023399870980567117 0.0 0.0
0.05470758792368946 -0.05147489327612664 0.0 -0.026801548871513203 0.0 0.0
0.06547020264938219 -0.06203085480289294 0.0 -0.029978363828009114 0.0 0.0
0.07683662246278011 -0.07319400430746015 0.0 -0.03260783835631764 0.0 0.0
0.08851575914289042 -0.08466692394807751 0.0 -0.03417235255698303 0.0 0.0
0.1000329941528417 -0.09595825849112405 0.0 -0.033705398183482616 0.0 0.0
0.11053557708234296 -0.10621615486541014 0.0 -0.029315382659746425 0.0 0.0
0.11875871645348585 -0.11421368040950153 0.0 -0.01884514254632952 0.0 0.0
0.11875871645347422 -0.11421368040949353 0.0 0.018845142546392468 0.0 0.0
0.1105355770823152 -0.1062161548653835 0.0 0.029315382659822253 0.0 0.0
0.10003299415280445 -0.09595825849108852 0.0 0.03370539818354246 0.0 0.0
0.08851575914284227 -0.08466692394803133 0.0 0.03417235255700857 0.0 0.0
0.0768366224627268 -0.07319400430741174 0.0 0.03260783835630754 0.0 0.0
0.06547020264932704 -0.06203085480284054 0.0 0.029978363827996346 0.0 0.0
0.05470758792363603 -0.05147489327607335 0.0 0.026801548871500214 0.0 0.0
0.04472199493535184 -0.041696269102721395 0.0 0.023399870980558957 0.0 0.0
0.03557740407849522 -0.032761299532847676 0.0 0.019936385263018663 0.0 0.0
0.027281668956537303 -0.02468135790245851 0.0 0.016425431270210455 0.0 0.0
0.019868854830752736 -0.017493324619731965 0.0 0.012820783469586705 0.0 0.0
0.013470060438140197 -0.011337786848706344 0.0 0.009253306062914302 0.0 0.0
0.008328127487836734 -0.006483788507704036 0.0 0.006100921333814069 0.0 0.0
0.004688727854172181 -0.003193954139838917 0.0 0.003790479245902978 0.0 0.0
0.0025340582530012923 -0.00142413979229139 0.0 0.002433019340628839 0.0 0.0
0.0015147584496695288 -0.0006967900701098095 0.0 0.0018395883357976706 0.0 0.0
0.0010081508626447744 -0.00038307237191215204 0.0 0.0016350581520276908 0.0 0.0
0.00055193575605883 -0.00016266350859350798 0.0 0.0016874474062255063 0.0 0.0
0.00024021054509948403 -0.0002894286377185251 0.0 0.002032601954223723 0.0 0.0
0.0029568411724505417 -0.0044110806246726395 0.0 0.004964560305680432 0.0 0.0
0.0021546324509054693 -0.003459931533766336 0.0 -0.003978797841197146 0.0 0.0
0.00016904344797193105 -0.0002471902075830146 0.0 -0.002281115541569456 0.0 0.0
0.00037785276606537577 -0.00011276029965356926 0.0 -0.001993140538879945 0.0 0.0
0.0007452939851056856 -0.00026692306592734916 0.0 -0.0019216520475968113 0.0 0.0
0.001161302146247628 -0.0005111853260857391 0.0 -0.002099459388445468 0.0 0.0
0.0018641416382176312 -0.0009705555953203326 0.0 -0.0025855332475624992 0.0 0.0
0.0034000854832977045 -0.002132417484633775 0.0 -0.003769313524099649 0.0 0.0
0.006139388396450771 -0.004491278702211332 0.0 -0.005875327274316888 0.0 0.0
0.010133956286995066 -0.00818034028669068 0.0 -0.008809438704472816 0.0 0.0
0.01517530970360853 -0.012979645891794345 0.0 -0.012238430174788983 0.0 0.0
0.020994931182859722 -0.018595385495797423 0.0 -0.01576183596601921 0.0 0.0
0.02746739822310368 -0.024876626947720748 0.0 -0.019180440562746703 0.0 0.0
0.03457716902093344 -0.031807053282218334 0.0 -0.022540332079336256 0.0 0.0
0.04235951791198428 -0.03941635686645251 0.0 -0.02585882227550218 0.0 0.0
0.05081734748243211 -0.0477017064843448 0.0 -0.02897730816690114 0.0 0.0
0.05986084924439111 -0.05657215322292686 0.0 -0.03157570152154299 0.0 0.0
0.06932389420844537 -0.06587803212177157 0.0 -0.03328321964291925 0.0 0.0
0.0790561859671286 -0.0754467857105583 0.0 -0.03336182199167437 0.0 0.0
0.08866532390889031 -0.08484747617394106 0.0 -0.02985059447716487 0.0 0.0
0.0971307642187264 -0.09306839962683355 0.0 -0.020019496120141866 0.0 0.0
0.09713076421871747 -0.09306839962682734 0.0 0.020019496120198932 0.0 0.0
0.08866532390886753 -0.08484747617392063 0.0 0.029850594477243475 0.0 0.0
0.07905618596709885 -0.0754467857105201 0.0 0.03336182199173454 0.0 0.0
0.06932389420840576 -0.0658780321217316 0.0 0.03328321964294112 0.0 0.0
0.05986084924434998 -0.05657215322288689 0.0 0.031575701521534105 0.0 0.0
0.05081734748238767 -0.04770170648429772 0.0 0.02897730816688715 0.0 0.0
0.04235951791194417 -0.03941635686640943 0.0 0.025858822275492854 0.0 0.0
0.03457716902089414 -0.0318070532821797 0.0 0.022540332079326597 0.0 0.0
0.027467398223065403 -0.024876626947689218 0.0 0.01918044056272239 0.0 0.0
0.020994931182825888 -0.018595385495767225 0.0 0.015761835965993898 0.0 0.0
0.015175309703579304 -0.012979645891770808 0.0 0.012238430174761672 0.0 0.0
0.010133956286972112 -0.008180340286670251 0.0 0.008809438704455053 0.0 0.0
0.006139388396435214 -0.004491278702196455 0.0 0.005875327274301845 0.0 0.0
0.0034000854832888783 -0.0021324174846266697 0.0 0.0037693135240912667 0.0 0.0
0.0018641416382140785 -0.0009705555953196665 0.0 0.0025855332475553383 0.0 0.0
0.0011613021462466289 -0.0005111853260839627 0.0 0.002099459388442304 0.0 0.0
0.0007452939851056162 -0.0002669230659261279 0.0 0.0019216520475943133 0.0 0.0
0.00037785276606500107 -0.00011276029965334722 0.0 0.001993140538876892 0.0 0.0
0.00016904344797197268 -0.0002471902075820709 0.0 0.002281115541568013 0.0 0.0
0.0021546324508997794 -0.0034599315337587692 0.0 0.003978797841189152 0.0 0.0
0.0015258563743987263 -0.002669780053422721 0.0 -0.0031969105878222326 0.0 0.0
0.00010585852020217335 -0.00021165928838051684 0.0 -0.0024291253490981712 0.0 0.0
0.00021748671348029158 -6.372316051039828e-05 0.0 -0.002222765586557096 0.0 0.0
0.00048721055573072714 -0.0001526380436880359 0.0 -0.002161126165520333 0.0 0.0
0.0008165002469890659 -0.0003442415084060624 0.0 -0.002341282665567934 0.0 0.0
0.001282815986474256 -0.0006260350295341777 0.0 -0.0027499040006038755 0.0 0.0
0.0022589420193223075 -0.0012830098518230582 0.0 -0.0036644899186791813 0.0 0.0
0.004122601370337736 -0.0027487529211724926 0.0 -0.005376339356125415 0.0 0.0
0.006953292056064486 -0.00524385147127715 0.0 -0.007853424951649868 0.0 0.0
0.01059225830989044 -0.008632474787393374 0.0 -0.010826786994243331 0.0 0.0
0.014799060903368216 -0.012646055912853171 0.0 -0.013978950963054126 0.0 0.0
0.019446734500884216 -0.01712598321008274 0.0 -0.017088419920900932 0.0 0.0
0.02452691139246846 -0.022055417357571105 0.0 -0.0201476366253992 0.0 0.0
0.03009987603943054 -0.02748976868091857 0.0 -0.02316253772155319 0.0 0.0
0.03623274763507789 -0.03348682615963128 0.0 -0.026040443831251703 0.0 0.0
0.04292891760073997 -0.04004160763671738 0.0 -0.028477482348422622 0.0 0.0
0.05011645572660611 -0.047100730015224634 0.0 -0.03009421671301482 0.0 0.0
0.05785779950258063 -0.05475350817046021 0.0 -0.03064503238588967 0.0 0.0
0.06635075841417074 -0.06310755555013792 0.0 -0.02868234272232073 0.0 0.0
0.07507601973804956 -0.07156328291473368 0.0 -0.020803201201314736 0.0 0.0
0.07507601973804343 -0.07156328291472835 0.0 0.020803201201364363 0.0 0.0
0.06635075841415419 -0.06310755555011927 0.0 0.02868234272238901 0.0 0.0
0.05785779950255826 -0.05475350817043356 0.0 0.030645032385943183 0.0 0.0
0.050116455726575526 -0.04710073001520243 0.0 0.03009421671303314 0.0 0.0
0.042928917600710687 -0.040041607636686294 0.0 0.028477482348409744 0.0 0.0
0.036232747635045304 -0.033486826159605076 0.0 0.02604044383123638 0.0 0.0
0.030099876039403145 -0.027489768680891036 0.0 0.02316253772154042 0.0 0.0
0.024526911392441175 -0.022055417357539575 0.0 0.020147636625386878 0.0 0.0
0.01944673450085796 -0.01712598321005343 0.0 0.017088419920883502 0.0 0.0
0.01479906090334468 -0.012646055912832299 0.0 0.013978950963034253 0.0 0.0
0.010592258309869235 -0.008632474787379163 0.0 0.010826786994216908 0.0 0.0
0.006953292056049165 -0.005243851471266492 0.0 0.007853424951635657 0.0 0.0
0.00412260137032755 -0.002748752921163611 0.0 0.005376339356114035 0.0 0.0
0.0022589420193167564 -0.0012830098518183952 0.0 0.0036644899186732416 0.0 0.0
0.0012828159864720634 -0.0006260350295312911 0.0 0.0027499040005996567 0.0 0.0
0.0008165002469885385 -0.0003442415084051742 0.0 0.0023412826655654917 0.0 0.0
0.00048721055573047733 -0.00015263804368725875 0.0 0.0021611261655192227 0.0 0.0
0.00021748671348018056 -6.372316050884397e-05 0.0 0.0022227655865553198 0.0 0.0
0.00010585852020214559 -0.00021165928838123849 0.0 0.002429125349097283 0.0 0.0
0.001525856374394563 -0.0026697800534184937 0.0 0.003196910587814683 0.0 0.0
0.0010560910333048679 -0.00204291934185874 0.0 -0.0026127166837381366 0.0 0.0
3.458546535953233e-05 -0.0001805957065276198 0.0 -0.0025012019616566517 0.0 0.0
6.282134632859537e-05 -9.315247339047872e-06 0.0 -0.0023803496818023406 0.0 0.0
0.0002355225682807438 -4.054936842234902e-05 0.0 -0.0023441060439508554 0.0 0.0
0.0004657035542247612 -0.00017768792095740338 0.0 -0.0025370267003616 0.0 0.0
0.0007538736117942979 -0.00035147054544260037 0.0 -0.0029288637644698245 0.0 0.0
0.001276777629732273 -0.000653605201980767 0.0 -0.003571179059605023 0.0 0.0
0.0023114823311982946 -0.001340761416856573 0.0 -0.004714509485176044 0.0 0.0
0.003988192776247096 -0.0026545617712288028 0.0 -0.006471673109173515 0.0 0.0
0.006189748455692673 -0.004584827112743106 0.0 -0.008686694305713893 0.0 0.0
0.008750214784809168 -0.006947941760856224 0.0 -0.011154181337420743 0.0 0.0
0.011553735517355002 -0.009602710589911467 0.0 -0.013692148386467262 0.0 0.0
0.014606157809786774 -0.012529409731004915 0.0 -0.01626027893813664 0.0 0.0
0.017971402494290162 -0.015788060872572007 0.0 -0.01880433136902382 0.0 0.0
0.021751069346635593 -0.01947189220798551 0.0 -0.021274865622170624 0.0 0.0
0.026057283490165367 -0.023677791526900194 0.0 -0.02348762797704118 0.0 0.0
0.03095479639199425 -0.028459975546121896 0.0 -0.025008693674876015 0.0 0.0
0.03655319393689804 -0.03399250440071366 0.0 -0.02564133431127613 0.0 0.0
0.043437111779765475 -0.040882722422776574 0.0 -0.02528707041077305 0.0 0.0
0.05221378072754518 -0.04938954629467229 0.0 -0.02090656178336936 0.0 0.0
0.052213780727541265 -0.04938954629467052 0.0 0.020906561783417876 0.0 0.0
0.04343711177975637 -0.040882722422771245 0.0 0.025287070410840884 0.0 0.0
0.03655319393688236 -0.03399250440070656 0.0 0.025641334311323982 0.0 0.0
0.03095479639197371 -0.02845997554610502 0.0 0.02500869367488756 0.0 0.0
0.026057283490147826 -0.023677791526887315 0.0 0.023487627977025416 0.0 0.0
0.02175106934661697 -0.019471892207964636 0.0 0.021274865622157302 0.0 0.0
0.017971402494275146 -0.01578806087254847 0.0 0.0188043313690176 0.0 0.0
0.014606157809772646 -0.012529409730988927 0.0 0.016260278938133088 0.0 0.0
0.011553735517340596 -0.009602710589895036 0.0 0.013692148386452718 0.0 0.0
0.00875021478479529 -0.006947941760844678 0.0 0.011154181337399094 0.0 0.0
0.006189748455680738 -0.004584827112734224 0.0 0.008686694305691578 0.0 0.0
0.00398819277623888 -0.0026545617712230296 0.0 0.006471673109161746 0.0 0.0
0.0023114823311929933 -0.0013407614168561288 0.0 0.004714509485167329 0.0 0.0
0.001276777629729553 -0.0006536052019794347 0.0 0.003571179059598306 0.0 0.0
0.0007538736117930489 -0.00035147054544149015 0.0 0.0029288637644643845 0.0 0.0
0.00046570355422434484 -0.00017768792095718133 0.0 0.002537026700359768 0.0 0.0
0.00023552256828038298 -4.05493684232372e-05 0.0 0.0023441060439474137 0.0 0.0
6.282134632862313e-05 -9.315247340824229e-06 0.0 0.002380349681799898 0.0 0.0
3.458546535914375e-05 -0.00018059570652739776 0.0 0.0025012019616553194 0.0 0.0
0.001056091033302342 -0.0020429193418552444 0.0 0.0026127166837338622 0.0 0.0
0.000720109375914435 -0.001561975113137437 0.0 -0.00219085170447586 0.0 0.0
-4.683607551103641e-05 -0.0001553070799426015 0.0 -0.0025284646799411115 0.0 0.0
-8.99681286423426e-05 5.2613126483858075e-05 0.0 -0.0024780109919540494 0.0 0.0
-9.532134741974119e-06 6.880089177174753e-05 0.0 -0.0024679223185016252 0.0 0.0
0.00011041648362461465 -7.3754566312089764e-06 0.0 -0.002655635127699618 0.0 0.0
0.00023536737796645002 -9.713419428081238e-05 0.0 -0.003068610622543433 0.0 0.0
0.000407777362415096 -0.00019736100989753425 0.0 -0.0036212466370540985 0.0 0.0
0.0007292485148014671 -0.0003633597759575835 0.0 -0.004243593374050558 0.0 0.0
0.0012831066293663707 -0.0006750965024058253 0.0 -0.0050934862972805695 0.0 0.0
0.002021321116734698 -0.001167283674787356 0.0 -0.006338791293299728 0.0 0.0
0.002883259823097284 -0.001821806690359029 0.0 -0.007991983094063015 0.0 0.0
0.003810354932272858 -0.002606650264653343 0.0 -0.009905485083523402 0.0 0.0
0.004816164359123742 -0.003508822821572277 0.0 -0.011990790527611317 0.0 0.0
0.005956462101352422 -0.0045720734765275495 0.0 -0.01421339044414216 0.0 0.0
0.00735390593220156 -0.005905551231601525 0.0 -0.016535055902532014 0.0 0.0
0.009216938444528533 -0.007698768170405934 0.0 -0.018788326997663307 0.0 0.0
0.011810936005310274 -0.010191352998353942 0.0 -0.020518330524842754 0.0 0.0
0.01534126330940419 -0.013580971090525473 0.0 -0.02106547411711901 0.0 0.0
0.020191283679546812 -0.018460213812659276 0.0 -0.020849155147519283 0.0 0.0
0.02806712299559863 -0.026336701732129875 0.0 -0.020231104012545797 0.0 0.0
0.0280671229955978 -0.026336701732128986 0.0 0.02023110401257977 0.0 0.0
0.020191283679543315 -0.018460213812653947 0.0 0.0208491551475658 0.0 0.0
0.01534126330939592 -0.013580971090520144 0.0 0.021065474117146987 0.0 0.0
0.011810936005302364 -0.01019135299835483 0.0 0.020518330524843753 0.0 0.0
0.009216938444524314 -0.0076987681704081545 0.0 0.018788326997647875 0.0 0.0
0.00735390593219673 -0.005905551231599304 0.0 0.016535055902522355 0.0 0.0
0.005956462101349536 -0.0045720734765279936 0.0 0.014213390444133944 0.0 0.0
0.004816164359122382 -0.003508822821570501 0.0 0.011990790527603767 0.0 0.0
0.0038103549322701658 -0.002606650264654675 0.0 0.009905485083511523 0.0 0.0
0.002883259823094453 -0.0018218066903576968 0.0 0.007991983094050692 0.0 0.0
0.002021321116732283 -0.0011672836747829152 0.0 0.006338791293287183 0.0 0.0
0.0012831066293645943 -0.0006750965024031608 0.0 0.0050934862972761286 0.0 0.0
0.0007292485148001904 -0.0003633597759524765 0.0 0.0042435933740465615 0.0 0.0
0.00040777736241448537 -0.00019736100989464767 0.0 0.00362124663704938 0.0 0.0
0.00023536737796625573 -9.713419428214465e-05 0.0 0.003068610622539436 0.0 0.0
0.00011041648362444811 -7.375456629876709e-06 0.0 0.002655635127696787 0.0 0.0
-9.532134741974119e-06 6.880089177274673e-05 0.0 0.002467922318500182 0.0 0.0
-8.99681286423426e-05 5.261312648463523e-05 0.0 0.0024780109919525506 0.0 0.0
-4.6836075511397235e-05 -0.00015530707994315662 0.0 0.0025284646799407784 0.0 0.0
0.0007201093759127419 -0.0015619751131354595 0.0 0.0021908517044728626 0.0 0.0
0.0004846811757656666 -0.0012131601490042998 0.0 -0.0019243012848738084 0.0 0.0
-0.00012928680910095913 -0.00013018799917763335 0.0 -0.002526708991659965 0.0 0.0
-0.00024056841397870898 0.00011756460362721821 0.0 -0.0025201368313634287 0.0 0.0
-0.00024807815174143766 0.00017538093250069053 0.0 -0.002524160517782925 0.0 0.0
-0.00024189584966771704 0.00016227824449788208 0.0 -0.002694476572896898 0.0 0.0
-0.00028695356687019613 0.00015791707902979013 0.0 -0.0030881112717593973 0.0 0.0
-0.00042710742653440104 0.0002140096131324487 0.0 -0.0036329943796100106 0.0 0.0
-0.0007359540286551447 0.00036837686625901256 0.0 -0.004252539602850713 0.0 0.0
-0.0012832012359210998 0.0006761194480198185 0.0 -0.005096849388724345 0.0 0.0
-0.0020204658752086824 0.0011680176087156546 0.0 -0.006338114265839745 0.0 0.0
-0.0028932416240319003 0.0018353331719533905 0.0 -0.007994833553760738 0.0 0.0
-0.003858921784915287 0.002654923682840593 0.0 -0.00991696845797907 0.0 0.0
-0.004913428799900976 0.0035918877013534356 0.0 -0.012001988678854714 0.0 0.0
-0.006013138601428603 0.004588489785278149 0.0 -0.014216792408011436 0.0 0.0
-0.007011793191138926 0.005499771258006714 0.0 -0.016549138262027197 0.0 0.0
-0.007630929046428203 0.006057266419834839 0.0 -0.01894593887340079 0.0 0.0
-0.0074527763390385415 0.005873253347538743 0.0 -0.021375828721752366 0.0 0.0
-0.006107948720343814 0.004703606372011393 0.0 -0.023920187576009444 0.0 0.0
-0.0032625909864832103 0.002345314651585717 0.0 -0.02624544656266381 0.0 0.0
0.003791163077319054 -0.004326734253099929 0.0 -0.02529733528613387 0.0 0.0
0.0037911630773179994 -0.0043267342531043695 0.0 0.025297335286153078 0.0 0.0
-0.0032625909864836544 0.0023453146515786116 0.0 0.026245446562681796 0.0 0.0
-0.006107948720340622 0.004703606372006064 0.0 0.02392018757601211 0.0 0.0
-0.00745277633903163 0.00587325334753519 0.0 0.021375828721743706 0.0 0.0
-0.007630929046417073 0.006057266419829954 0.0 0.018945938873382695 0.0 0.0
-0.007011793191130905 0.005499771258004049 0.0 0.016549138262014873 0.0 0.0
-0.006013138601418999 0.004588489785271044 0.0 0.014216792407999557 0.0 0.0
-0.004913428799890374 0.003591887701339669 0.0 0.012001988678846387 0.0 0.0
-0.0038589217849044066 0.0026549236828286027 0.0 0.009916968457963193 0.0 0.0
-0.002893241624023546 0.0018353331719445087 0.0 0.007994833553745972 0.0 0.0
-0.002020465875201355 0.00116801760871299 0.0 0.006338114265824313 0.0 0.0
-0.001283201235916659 0.000676119448017154 0.0 0.005096849388720459 0.0 0.0
-0.0007359540286526745 0.0003683768662581244 0.0 0.004252539602845995 0.0 0.0
-0.0004271074265327912 0.0002140096131344471 0.0 0.00363299437960507 0.0 0.0
-0.000286953566869419 0.00015791707903045626 0.0 0.0030881112717567327 0.0 0.0
-0.0002418958496674395 0.00016227824449610573 0.0 0.0026944765728950104 0.0 0.0
-0.00024807815174143766 0.0001753809325004685 0.0 0.002524160517782148 0.0 0.0
-0.00024056841397854245 0.00011756460362721821 0.0 0.0025201368313622075 0.0 0.0
-0.00012928680910131995 -0.0001301879991784105 0.0 0.002526708991659077 0.0 0.0
0.00048468117576475067 -0.001213160149003389 0.0 0.0019243012848725871 0.0 0.0
0.0003236008219653641 -0.0009548698541587686 0.0 -0.001736527256939513 0.0 0.0
-0.0002045146495166239 -9.858611572277631e-05 0.0 -0.002481632348750318 0.0 0.0
-0.0003860401474971298 0.0001799805200830562 0.0 -0.0025097238122175347 0.0 0.0
-0.00047904143656252174 0.000278187340557734 0.0 -0.0025088302724400324 0.0 0.0
-0.0005868184212476091 0.0003266282104159579 0.0 -0.0026476048609296865 0.0 0.0
-0.0008043238329396851 0.0004123183082926918 0.0 -0.00298997936803852 0.0 0.0
-0.0012955496981233994 0.0006723140054738508 0.0 -0.003607095593732901 0.0 0.0
-0.0023154708517442724 0.001346273758203509 0.0 -0.004734690998336344 0.0 0.0
-0.003986295230893111 0.002654287722019699 0.0 -0.006476457213323572 0.0 0.0
-0.0061894349482141675 0.004586813487243546 0.0 -0.008687070269504549 0.0 0.0
-0.0087631461567578 0.0069654176552012 0.0 -0.011154523178574127 0.0 0.0
-0.011600205469115471 0.009653301179620488 0.0 -0.013676867763536382 0.0 0.0
-0.014692963170329976 0.01260953928351416 0.0 -0.016206320383194806 0.0 0.0
-0.018010270343599838 0.015790744442734095 0.0 -0.018736663568971745 0.0 0.0
-0.02139699920001384 0.019036907999958608 0.0 -0.021342603942119176 0.0 0.0
-0.02451689012154676 0.02202053218864819 0.0 -0.024087616494494424 0.0 0.0
-0.02687298827331916 0.024269051184032442 0.0 -0.02706402552726428 0.0 0.0
-0.02789899239368529 0.025229324585235524 0.0 -0.030175597910642504 0.0 0.0
-0.026531085288077405 0.02359801045530663 0.0 -0.03162860561339731 0.0 0.0
-0.019470699879252457 0.01621647861802966 0.0 -0.029512867936422493 0.0 0.0
-0.019470699879255315 0.016216478618036767 0.0 0.029512867936465792 0.0 0.0
-0.02653108528807399 0.023598010455312846 0.0 0.03162860561345093 0.0 0.0
-0.027898992393670885 0.02522932458522753 0.0 0.03017559791066904 0.0 0.0
-0.02687298827329837 0.024269051184005797 0.0 0.027064025527264834 0.0 0.0
-0.02451689012152103 0.02202053218863087 0.0 0.024087616494474884 0.0 0.0
-0.0213969991999928 0.01903690799994262 0.0 0.021342603942102634 0.0 0.0
-0.018010270343577384 0.015790744442715 0.0 0.018736663568955425 0.0 0.0
-0.014692963170307966 0.012609539283497284 0.0 0.016206320383182482 0.0 0.0
-0.011600205469091851 0.009653301179602725 0.0 0.013676867763515732 0.0 0.0
-0.008763146156737872 0.006965417655184325 0.0 0.011154523178549258 0.0 0.0
-0.006189434948197514 0.004586813487228447 0.0 0.008687070269479347 0.0 0.0
-0.003986295230881481 0.002654287722009485 0.0 0.006476457213309694 0.0 0.0
-0.0023154708517375278 0.001346273758198846 0.0 0.004734690998328517 0.0 0.0
-0.0012955496981195969 0.0006723140054762933 0.0 0.003607095593726739 0.0 0.0
-0.0008043238329377422 0.00041231830829246974 0.0 0.0029899793680355224 0.0 0.0
-0.0005868184212471095 0.00032662821041817836 0.0 0.002647604860927466 0.0 0.0
-0.0004790414365624107 0.0002781873405598434 0.0 0.0025088302724378675 0.0 0.0
-0.00038604014749688 0.00017998052008227905 0.0 0.002509723812214537 0.0 0.0
-0.00020451464951684595 -9.858611572249876e-05 0.0 0.002481632348749263 0.0 0.0
0.0003236008219652253 -0.0009548698541577989 0.0 0.0017365272569375145 0.0 0.0
0.0002099603486843682 -0.0007357998290355994 0.0 -0.0015441586121192619 0.0 0.0
-0.00027119789921387083 -6.135570837739746e-05 0.0 -0.0023824301973752737 0.0 0.0
-0.0005235418750440535 0.00023794173263813612 0.0 -0.0024414479948815515 0.0 0.0
-0.0007009564059184126 0.00037506190702218944 0.0 -0.0024239583437963286 0.0 0.0
-0.0009204343430319617 0.0004822594797047053 0.0 -0.002516387969575873 0.0 0.0
-0.001330788806260197 0.0006884054662983363 0.0 -0.002852094368432534 0.0 0.0
-0.0022736462409857494 0.0013031212071652476 0.0 -0.0037166452570928654 0.0 0.0
-0.004120999914563744 0.0027503592611459737 0.0 -0.0053945033718267865 0.0 0.0
-0.006949870129264707 0.005241563818072947 0.0 -0.007852776319301258 0.0 0.0
-0.010594351346391973 0.008636251923914706 0.0 -0.010827597838958591 0.0 0.0
-0.014812719361030624 0.01266311961292832 0.0 -0.01397399893770912 0.0 0.0
-0.019481502835057257 0.017164658372402553 0.0 -0.01703626924836954 0.0 0.0
-0.02458375211773184 0.022108404545149174 0.0 -0.019990883990852693 0.0 0.0
-0.0301042720483225 0.027465298448372533 0.0 -0.022942984414725087 0.0 0.0
-0.035891381935644395 0.033076175972845956 0.0 -0.0261200735378343 0.0 0.0
-0.04156113034548828 0.03856745715142296 0.0 -0.029815756488123846 0.0 0.0
-0.046492007165992555 0.04333047765416431 0.0 -0.03417992675287895 0.0 0.0
-0.04970448582508655 0.046329064998678504 0.0 -0.03840301604786034 0.0 0.0
-0.04930624716464779 0.04565002737466539 0.0 -0.04049940198566959 0.0 0.0
-0.04140133755921466 0.037026079115147326 0.0 -0.03650617809221046 0.0 0.0
-0.04140133755921571 0.03702607911514377 0.0 0.0365061780922612 0.0 0.0
-0.04930624716463913 0.04565002737465296 0.0 0.04049940198573587 0.0 0.0
-0.04970448582506429 0.046329064998663405 0.0 0.038403016047901195 0.0 0.0
-0.04649200716596055 0.04333047765414033 0.0 0.0341799267528865 0.0 0.0
-0.04156113034545053 0.038567457151384765 0.0 0.02981575648810686 0.0 0.0
-0.03589138193560959 0.033076175972807764 0.0 0.026120073537814648 0.0 0.0
-0.030104272048287833 0.02746529844833745 0.0 0.02294298441470355 0.0 0.0
-0.024583752117697283 0.02210840454511631 0.0 0.019990883990836372 0.0 0.0
-0.01948150283502248 0.017164658372363917 0.0 0.017036269248348113 0.0 0.0
-0.014812719360999343 0.012663119612891016 0.0 0.013973998937679144 0.0 0.0
-0.010594351346365771 0.00863625192388584 0.0 0.010827597838930836 0.0 0.0
-0.006949870129245361 0.005241563818053407 0.0 0.007852776319288157 0.0 0.0
-0.00412099991455242 0.002750359261133317 0.0 0.005394503371819015 0.0 0.0
-0.0022736462409787828 0.0013031212071581422 0.0 0.003716645257086093 0.0 0.0
-0.001330788806257227 0.0006884054662925632 0.0 0.0028520943684284816 0.0 0.0
-0.0009204343430311845 0.0004822594797047053 0.0 0.002516387969574263 0.0 0.0
-0.0007009564059181628 0.00037506190702030207 0.0 0.0024239583437943857 0.0 0.0
-0.0005235418750436649 0.00023794173263924634 0.0 0.002441447994878998 0.0 0.0
-0.00027119789921392634 -6.135570837628723e-05 0.0 0.0023824301973731643 0.0 0.0
0.0002099603486844237 -0.0007357998290351362 0.0 0.001544158612117652 0.0 0.0
0.0001196988823523315 -0.0005414650432974399 0.0 -0.0013411997459488179 0.0 0.0
-0.00033145941330003925 -1.8434564179825585e-05 0.0 -0.0022277204335237055 0.0 0.0
-0.0006522189749823548 0.0002913996568304489 0.0 -0.002319509558113997 0.0 0.0
-0.0009126786830244982 0.000464020977448687 0.0 -0.0022783454371470002 0.0 0.0
-0.0012435418536663467 0.0006352489028345065 0.0 -0.002326268051105418 0.0 0.0
-0.0019060050895657599 0.0010317574279645747 0.0 -0.0027145550505922045 0.0 0.0
-0.003405177202246895 0.0021470327998998062 0.0 -0.0038199203041198726 0.0 0.0
-0.006132631591775156 0.004486458618438327 0.0 -0.005880367943496667 0.0 0.0
-0.010131529751883445 0.008178264706049099 0.0 -0.008805587537916493 0.0 0.0
-0.015180580306905417 0.012985918744624403 0.0 -0.012240254003001327 0.0 0.0
-0.021006345237876173 0.018608559541020142 0.0 -0.015751347507407254 0.0 0.0
-0.027479703103619774 0.024891283101863504 0.0 -0.01909565867198393 0.0 0.0
-0.034580039948691244 0.0318091718978013 0.0 -0.022289590497234224 0.0 0.0
-0.04230741233428828 0.039348573337692816 0.0 -0.025485417691280654 0.0 0.0
-0.05052711500182844 0.047365112628876105 0.0 -0.02902386368959531 0.0 0.0
-0.05881954762566263 0.055434886191259025 0.0 -0.033372560258419615 0.0 0.0
-0.06632130536412775 0.06268667932939653 0.0 -0.0386176220109703 0.0 0.0
-0.07148947580586021 0.067560535875681 0.0 -0.043716232666305754 0.0 0.0
-0.07166309478104446 0.06729810473150177 0.0 -0.04595681596290124 0.0 0.0
-0.06195984367354901 0.05692932863176825 0.0 -0.04207304452915461 0.0 0.0
-0.06195984367354643 0.056929328631765586 0.0 0.042073044529207904 0.0 0.0
-0.07166309478102978 0.0672981047314849 0.0 0.045956815962974296 0.0 0.0
-0.07148947580583062 0.0675605358756517 0.0 0.043716232666354715 0.0 0.0
-0.06632130536408615 0.06268667932935479 0.0 0.03861762201098118 0.0 0.0
-0.05881954762561417 0.05543488619121506 0.0 0.03337256025840751 0.0 0.0
-0.050527115001780865 0.04736511262882814 0.0 0.0290238636895791 0.0 0.0
-0.04230741233424112 0.039348573337643966 0.0 0.02548541769126056 0.0 0.0
-0.03458003994864382 0.03180917189776267 0.0 0.022289590497218348 0.0 0.0
-0.0274797031035747 0.024891283101822204 0.0 0.019095658671959503 0.0 0.0
-0.021006345237834387 0.01860855954098284 0.0 0.015751347507373448 0.0 0.0
-0.015180580306869251 0.012985918744595981 0.0 0.012240254002969186 0.0 0.0
-0.010131529751856841 0.008178264706032667 0.0 0.008805587537893456 0.0 0.0
-0.006132631591758489 0.004486458618427669 0.0 0.005880367943481846 0.0 0.0
-0.00340517720223657 0.002147032799898696 0.0 0.0038199203041094365 0.0 0.0
-0.0019060050895614716 0.0010317574279652408 0.0 0.002714555050585765 0.0 0.0
-0.001243541853665056 0.0006352489028322861 0.0 0.0023262680511029754 0.0 0.0
-0.0009126786830238459 0.0004640209774472437 0.0 0.002278345437144169 0.0 0.0
-0.0006522189749819662 0.0002913996568304489 0.0 0.002319509558112942 0.0 0.0
-0.00033145941329992823 -1.8434564180325186e-05 0.0 0.00222772043352093 0.0 0.0
0.00011969888235252579 -0.0005414650432969351 0.0 0.0013411997459476521 0.0 0.0
4.2645270585894846e-05 -0.00037026404292916926 0.0 -0.0011323260749686037 0.0 0.0
-0.0003885848834497829 2.9741918183390226e-05 0.0 -0.0020182008966110887 0.0 0.0
-0.0007723329194440076 0.00034095103600118026 0.0 -0.0021400270758575868 0.0 0.0
-0.0011124632463710427 0.0005436131868274963 0.0 -0.0020672162770383196 0.0 0.0
-0.0015696773218389914 0.0007992058834525029 0.0 -0.0020922692603147497 0.0 0.0
-0.0025624228818028616 0.001473312847577013 0.0 -0.0025546251724440916 0.0 0.0
-0.00468433735919388 0.003198192855722759 0.0 -0.0038205481092034033 0.0 0.0
-0.008319935396521372 0.006475772789465317 0.0 -0.006097181504212568 0.0 0.0
-0.013470454311014679 0.011338076574467504 0.0 -0.009248269997394809 0.0 0.0
-0.01987670008174569 0.017501413960285817 0.0 -0.012821593967975886 0.0 0.0
-0.02728754921582366 0.024687172874781282 0.0 -0.016406847624004017 0.0 0.0
-0.0355591022906524 0.032743286082738354 0.0 -0.01982895139419205 0.0 0.0
-0.04465364912044051 0.0416306121146488 0.0 -0.023096984115620778 0.0 0.0
-0.05457993137956549 0.05134849425314414 0.0 -0.026334865716753697 0.0 0.0
-0.06524018010088006 0.06177851466070727 0.0 -0.029919717833494452 0.0 0.0
-0.076159048586804 0.07242526707696584 0.0 -0.034377242762908544 0.0 0.0
-0.08617321246570067 0.08211396456984676 0.0 -0.03985857335341936 0.0 0.0
-0.09313289612370199 0.08867219470233767 0.0 -0.04531612304786803 0.0 0.0
-0.09351931300584351 0.0885589459008802 0.0 -0.04828882915096755 0.0 0.0
-0.08203088631063593 0.07648658805433861 0.0 -0.046927294796642594 0.0 0.0
-0.0820308863106303 0.07648658805433595 0.0 0.04692729479669322 0.0 0.0
-0.09351931300582172 0.08855894590085889 0.0 0.048288829151038826 0.0 0.0
-0.0931328961236648 0.08867219470230125 0.0 0.04531612304791677 0.0 0.0
-0.0861732124656501 0.08211396456979259 0.0 0.039858573353433235 0.0 0.0
-0.07615904858674555 0.07242526707690278 0.0 0.03437724276289822 0.0 0.0
-0.06524018010082047 0.061778514660642436 0.0 0.0299197178334773 0.0 0.0
-0.054579931379505287 0.051348494253079746 0.0 0.02633486571673177 0.0 0.0
-0.044653649120381264 0.041630612114592846 0.0 0.02309698411560357 0.0 0.0
-0.035559102290596084 0.03274328608268684 0.0 0.019828951394169347 0.0 0.0
-0.027287549215772353 0.024687172874729768 0.0 0.01640684762397493 0.0 0.0
-0.01987670008170085 0.01750141396023963 0.0 0.0128215939679453 0.0 0.0
-0.013470454310980845 0.011338076574431533 0.0 0.009248269997373826 0.0 0.0
-0.008319935396498473 0.006475772789440226 0.0 0.00609718150419708 0.0 0.0
-0.00468433735917996 0.0031981928557098804 0.0 0.003820548109193078 0.0 0.0
-0.002562422881796353 0.001473312847572572 0.0 0.0025546251724377633 0.0 0.0
-0.0015696773218371596 0.0007992058834502824 0.0 0.0020922692603120296 0.0 0.0
-0.0011124632463701961 0.000543613186826164 0.0 0.002067216277035988 0.0 0.0
-0.0007723329194435496 0.00034095103600162435 0.0 0.002140027075855866 0.0 0.0
-0.0003885848834493527 2.9741918183889826e-05 0.0 0.0020182008966104226 0.0 0.0
4.264527058610301e-05 -0.0003702640429290756 0.0 0.001132326074967549 0.0 0.0
-2.3299339542870445e-05 -0.00022338512958991474 0.0 -0.0009176095947446283 0.0 0.0
-0.00044382187330277434 8.15709997401548e-05 0.0 -0.0017594467152384774 0.0 0.0
-0.0008849375635681667 0.0003868074386402798 0.0 -0.00190396576541646 0.0 0.0
-0.0013021734565112353 0.0006187626408131752 0.0 -0.0018090429999241264 0.0 0.0
-0.001920333121093687 0.0009959320676458105 0.0 -0.0018357530754785634 0.0 0.0
-0.003311783367563881 0.002029806856211014 0.0 -0.002343134999175711 0.0 0.0
-0.006100475196764821 0.004437293868958525 0.0 -0.003670457633749402 0.0 0.0
-0.010645492466704265 0.008652095155333939 0.0 -0.005995337030059722 0.0 0.0
-0.016895834387701536 0.014626453079404467 0.0 -0.009085537631433271 0.0 0.0
-0.02462929652469703 0.022103298959421647 0.0 -0.012520686187063146 0.0 0.0
-0.03361496747934828 0.030840125750757785 0.0 -0.015983837476719276 0.0 0.0
-0.04368608704641441 0.0406696830929949 0.0 -0.019288673612454232 0.0 0.0
-0.05477669918599076 0.051526972200834464 0.0 -0.02245405507174214 0.0 0.0
-0.06688529385954217 0.06340534944826803 0.0 -0.02556974754669894 0.0 0.0
-0.07993072022328851 0.07619689256589002 0.0 -0.028855094345420662 0.0 0.0
-0.09340275032451534 0.0893506512647031 0.0 -0.032812638678324735 0.0 0.0
-0.10585655860834153 0.10140086358715727 0.0 -0.03787752429889302 0.0 0.0
-0.11451876148512671 0.10957480436866796 0.0 -0.043523192408759015 0.0 0.0
-0.11516092408547998 0.1096823641547564 0.0 -0.048260012821551124 0.0 0.0
-0.10220134714814502 0.09618622407499533 0.0 -0.051437665814220934 0.0 0.0
-0.10220134714813711 0.09618622407499444 0.0 0.05143766581427556 0.0 0.0
-0.11516092408545112 0.10968236415474131 0.0 0.04826001282162462 0.0 0.0
-0.11451876148508147 0.10957480436862976 0.0 0.04352319240880642 0.0 0.0
-0.10585655860828225 0.10140086358710576 0.0 0.03787752429890312 0.0 0.0
-0.09340275032444657 0.08935065126464226 0.0 0.032812638678318296 0.0 0.0
-0.07993072022321701 0.07619689256582074 0.0 0.028855094345410337 0.0 0.0
-0.06688529385947008 0.06340534944819565 0.0 0.025569747546681565 0.0 0.0
-0.05477669918591971 0.05152697220076874 0.0 0.022454055071723156 0.0 0.0
-0.04368608704634601 0.0406696830929274 0.0 0.019288673612433305 0.0 0.0
-0.0336149674792877 0.03084012575069517 0.0 0.015983837476688578 0.0 0.0
-0.02462929652464424 0.022103298959373685 0.0 0.012520686187033336 0.0 0.0
-0.016895834387660014 0.014626453079372048 0.0 0.009085537631412455 0.0 0.0
-0.010645492466675288 0.00865209515530485 0.0 0.005995337030045289 0.0 0.0
-0.006100475196747307 0.004437293868939651 0.0 0.003670457633740354 0.0 0.0
-0.0033117833675550545 0.002029806856202798 0.0 0.0023431349991687167 0.0 0.0
-0.0019203331210905367 0.000995932067642924 0.0 0.0018357530754756213 0.0 0.0
-0.001302173456510694 0.0006187626408139524 0.0 0.001809042999924404 0.0 0.0
-0.0008849375635673201 0.0003868074386398357 0.0 0.0019039657654164044 0.0 0.0
-0.0004438218733022886 8.157099973893356e-05 0.0 0.0017594467152358684 0.0 0.0
-2.3299339543189634e-05 -0.00022338512959011077 0.0 0.0009176095947416307 0.0 0.0
-7.691003033621913e-05 -0.00010320132618335531 0.0 -0.0006964395864549888 0.0 0.0
-0.000495748884192182 0.00013435894494162604 0.0 -0.001456830906331641 0.0 0.0
-0.0009913592081399192 0.0004293556437052759 0.0 -0.0016112930292122019 0.0 0.0
-0.0014888735179278134 0.00069454567978533 0.0 -0.001502330805376595 0.0 0.0
-0.0023152120221928696 0.0012386870700002994 0.0 -0.0015360368457384421 0.0 0.0
-0.004159661262458425 0.0027146366499375407 0.0 -0.002059620262009898 0.0 0.0
-0.007640834759846393 0.005840856782165282 0.0 -0.003364167265947904 0.0 0.0
-0.013045721114387232 0.01094212311508036 0.0 -0.00550311267601189 0.0 0.0
-0.020355480070513354 0.017973594961681716 0.0 -0.00826470044059524 0.0 0.0
-0.02940183747504077 0.026745328278890756 0.0 -0.011368546582515071 0.0 0.0
-0.03995230384467352 0.03702407019822962 0.0 -0.0144972209696842 0.0 0.0
-0.051825587890058256 0.04862890597528313 0.0 -0.01748961389098236 0.0 0.0
-0.06492098976479266 0.06146227462628939 0.0 -0.020383318317283572 0.0 0.0
-0.07918792012979331 0.07547034214259352 0.0 -0.023192714019416805 0.0 0.0
-0.09451056899653526 0.09051748466145026 0.0 -0.025931972760709243 0.0 0.0
-0.11036899102798575 0.10602873810050184 0.0 -0.02887745277359255 0.0 0.0
-0.12516628354215067 0.12035577829337463 0.0 -0.032801230005302995 0.0 0.0
-0.13563304531639897 0.13026062703294716 0.0 -0.03845749360422068 0.0 0.0
-0.13690370719714198 0.13094631922627542 0.0 -0.0459748862221625 0.0 0.0
-0.12292480444613757 0.11644189466787935 0.0 -0.05559285771265421 0.0 0.0
-0.1229248044461273 0.1164418946678678 0.0 0.055592857712706945 0.0 0.0
-0.13690370719710723 0.130946319226239 0.0 0.045974886222224676 0.0 0.0
-0.13563304531634549 0.13026062703288588 0.0 0.03845749360426265 0.0 0.0
-0.12516628354208198 0.12035577829331068 0.0 0.032801230005312654 0.0 0.0
-0.11036899102790623 0.10602873810042901 0.0 0.02887745277358872 0.0 0.0
-0.0945105689964519 0.09051748466137477 0.0 0.025931972760698307 0.0 0.0
-0.07918792012971015 0.07547034214251136 0.0 0.023192714019400484 0.0 0.0
-0.06492098976470968 0.061462274626205016 0.0 0.020383318317266308 0.0 0.0
-0.05182558788997847 0.048628905975206305 0.0 0.017489613890963263 0.0 0.0
-0.03995230384460287 0.037024070198166115 0.0 0.014497220969655056 0.0 0.0
-0.029401837474979958 0.026745328278833913 0.0 0.011368546582491923 0.0 0.0
-0.020355480070464504 0.017973594961632866 0.0 0.008264700440577089 0.0 0.0
-0.013045721114352996 0.010942123115043945 0.0 0.00550311267599507 0.0 0.0
-0.007640834759824258 0.005840856782142856 0.0 0.0033641672659362465 0.0 0.0
-0.004159661262447101 0.0027146366499262164 0.0 0.002059620262003403 0.0 0.0
-0.002315212022188824 0.0012386870699967467 0.0 0.0015360368457356666 0.0 0.0
-0.0014888735179271542 0.0006945456797864402 0.0 0.0015023308053739859 0.0 0.0
-0.0009913592081389755 0.00042935564370594204 0.0 0.0016112930292106475 0.0 0.0
-0.0004957488841918697 0.0001343589449410154 0.0 0.0014568309063314189 0.0 0.0
-7.691003033638566e-05 -0.00010320132618315582 0.0 0.0006964395864547668 0.0 0.0
-0.00011452340391004956 -1.30172310678911e-05 0.0 -0.0004703746207674886 0.0 0.0
-0.0005397981106836092 0.00018433133010908875 0.0 -0.0011133698126206126 0.0 0.0
-0.001092932049875095 0.00046827497804080576 0.0 -0.0012598869731296758 0.0 0.0
-0.0016836834940718304 0.0007819114277616279 0.0 -0.0011509046360074215 0.0 0.0
-0.00277099408430892 0.0015509073703288134 0.0 -0.0011911519272843063 0.0 0.0
-0.00511305290425218 0.0035294621356141143 0.0 -0.0016942464289240178 0.0 0.0
-0.00926043406958954 0.007352892085195739 0.0 -0.002800780963200633 0.0 0.0
-0.01547187957656121 0.013281450646170256 0.0 -0.0045405068570607 0.0 0.0
-0.02381760835777097 0.021340586800167483 0.0 -0.0068125525667175335 0.0 0.0
-0.034156894779346136 0.03138701338074901 0.0 -0.009376926192510071 0.0 0.0
-0.04626355865403847 0.043198358961773486 0.0 -0.011966858158636628 0.0 0.0
-0.05994087948258514 0.0565810005828733 0.0 -0.014440436004997781 0.0 0.0
-0.07504977399432439 0.07139627996801723 0.0 -0.016847691304415324 0.0 0.0
-0.09145942830287407 0.08751172700096488 0.0 -0.019208486372430666 0.0 0.0
-0.10893586358142437 0.10468369423147728 0.0 -0.021307584632005883 0.0 0.0
-0.12690524712824813 0.12229681276349513 0.0 -0.0229376360149105 0.0 0.0
-0.14385782339931744 0.1387662933447258 0.0 -0.02495308340469027 0.0 0.0
-0.15643312449885394 0.1506884489358642 0.0 -0.03004294698351795 0.0 0.0
-0.15901622547466393 0.15260627190969345 0.0 -0.040955391769984084 0.0 0.0
-0.1446954912000751 0.137708968373782 0.0 -0.05904716591413206 0.0 0.0
-0.14469549120006195 0.13770896837376778 0.0 0.059047165914173694 0.0 0.0
-0.15901622547462427 0.15260627190965437 0.0 0.04095539177003604 0.0 0.0
-0.15643312449879151 0.15068844893580735 0.0 0.03004294698355492 0.0 0.0
-0.14385782339923825 0.13876629334465473 0.0 0.024953083404698373 0.0 0.0
-0.12690524712815826 0.12229681276340099 0.0 0.022937636014908613 0.0 0.0
-0.10893586358132919 0.1046836942313849 0.0 0.021307584632001053 0.0 0.0
-0.09145942830277927 0.08751172700087739 0.0 0.019208486372419453 0.0 0.0
-0.07504977399423002 0.0713962799679253 0.0 0.016847691304402834 0.0 0.0
-0.059940879482494214 0.056581000582784924 0.0 0.014440436004983792 0.0 0.0
-0.046263558653958 0.04319835896169488 0.0 0.011966858158613425 0.0 0.0
-0.03415689477927729 0.031387013380683726 0.0 0.009376926192487256 0.0 0.0
-0.023817608357715854 0.021340586800117745 0.0 0.006812552566701657 0.0 0.0
-0.015471879576521373 0.013281450646138282 0.0 0.00454050685705093 0.0 0.0
-0.009260434069562819 0.007352892085170648 0.0 0.002800780963194527 0.0 0.0
-0.005113052904238677 0.0035294621356003475 0.0 0.0016942464289188552 0.0 0.0
-0.0027709940843038475 0.0015509073703232623 0.0 0.0011911519272817528 0.0 0.0
-0.0016836834940703593 0.0007819114277595185 0.0 0.001150904636005201 0.0 0.0
-0.0010929320498740125 0.00046827497804069473 0.0 0.0012598869731275109 0.0 0.0
-0.000539798110683179 0.00018433133010914426 0.0 0.0011133698126178926 0.0 0.0
-0.00011452340390995241 -1.3017231068460089e-05 0.0 0.00047037462076521264 0.0 0.0
-0.00012937396318052352 4.2809296117773954e-05 0.0 -0.00024612562746822997 0.0 0.0
-0.0005669232095691368 0.00022526319118243432 0.0 -0.0007285791398398689 0.0 0.0
-0.001192230263226346 0.0005056518765559348 0.0 -0.000843295930763599 0.0 0.0
-0.001904280373996814 0.00089360217321377 0.0 -0.0007570479784683726 0.0 0.0
-0.003303152547880217 0.001954708910872238 0.0 -0.0008050353746135164 0.0 0.0
-0.006155285591280257 0.004458521976399066 0.0 -0.0011854524020440405 0.0 0.0
-0.010913240423971071 0.008926336403678903 0.0 -0.0019562223704092108 0.0 0.0
-0.017899286954997984 0.015636056409196186 0.0 -0.0031481587687128276 0.0 0.0
-0.027246924956792207 0.024690671313281065 0.0 -0.004734264401195842 0.0 0.0
-0.03885785235643652 0.03598978348064685 0.0 -0.006549861028754211 0.0 0.0
-0.05251257112225893 0.04932496945247378 0.0 -0.008385540893173893 0.0 0.0
-0.06799512443423228 0.06448575598651018 0.0 -0.010138832510671714 0.0 0.0
-0.08512168484983362 0.0812864017195003 0.0 -0.01187338535282434 0.0 0.0
-0.10365798373771468 0.09948907489218906 0.0 -0.0135566827302942 0.0 0.0
-0.12319733039214403 0.11868306034606002 0.0 -0.014919756377849258 0.0 0.0
-0.1430037699923094 0.13812208489958078 0.0 -0.015490192237637257 0.0 0.0
-0.16170094412297134 0.15637931402953686 0.0 -0.015401481244930793 0.0 0.0
-0.17649836558953863 0.17055620187614107 0.0 -0.01799189036748916 0.0 0.0
-0.18173737807946874 0.17485537198407197 0.0 -0.03151367838258967 0.0 0.0
-0.1682385169823731 0.16066267808432766 0.0 -0.06097439128526405 0.0 0.0
-0.16823851698235737 0.16066267808431522 0.0 0.060974391285296026 0.0 0.0
-0.18173737807942356 0.17485537198402845 0.0 0.031513678382632526 0.0 0.0
-0.17649836558946685 0.1705562018760709 0.0 0.01799189036751675 0.0 0.0
-0.16170094412288072 0.15637931402944538 0.0 0.01540148124493479 0.0 0.0
-0.1430037699922087 0.1381220848994813 0.0 0.015490192237634093 0.0 0.0
-0.12319733039203701 0.11868306034595566 0.0 0.014919756377847149 0.0 0.0
-0.10365798373760786 0.09948907489208558 0.0 0.013556682730288455 0.0 0.0
-0.08512168484972854 0.0812864017193955 0.0 0.011873385352817123 0.0 0.0
-0.06799512443413061 0.06448575598640893 0.0 0.01013883251066261 0.0 0.0
-0.05251257112216885 0.04932496945238496 0.0 0.008385540893158738 0.0 0.0
-0.0388578523563606 0.035989783480573134 0.0 0.006549861028739334 0.0 0.0
-0.02724692495673111 0.024690671313221557 0.0 0.004734264401185961 0.0 0.0
-0.01789928695495219 0.01563605640915533 0.0 0.0031481587687050006 0.0 0.0
-0.010913240423940936 0.00892633640365137 0.0 0.0019562223704028825 0.0 0.0
-0.006155285591263937 0.004458521976383079 0.0 0.001185452402039322 0.0 0.0
-0.003303152547873306 0.0019547089108629123 0.0 0.0008050353746123506 0.0 0.0
-0.0019042803739944963 0.0008936021732119936 0.0 0.0007570479784692052 0.0 0.0
-0.0011922302632254751 0.000505651876556823 0.0 0.0008432959307617671 0.0 0.0
-0.0005669232095682174 0.00022526319118321148 0.0 0.0007285791398398134 0.0 0.0
-0.00012937396318035352 4.2809296117763546e-05 0.0 0.0002461256274674528 0.0 0.0
-0.00010941954853888047 5.8090643835773115e-05 0.0 -4.047152107650165e-05 0.0 0.0
-0.0005609548183467261 0.0002469480893796394 0.0 -0.00029480183662378145 0.0 0.0
-0.001296626140470214 0.0005472855265234999 0.0 -0.00034792054775739656 0.0 0.0
-0.0021746769204112892 0.001058232428541972 0.0 -0.00032608630437080954 0.0 0.0
-0.003916138702330874 0.002449839564230727 0.0 -0.0003507011007917171 0.0 0.0
-0.00725201524082808 0.00546175960575912 0.0 -0.0005044150442939377 0.0 0.0
-0.012581235600312435 0.010528597152862806 0.0 -0.0008234230348807547 0.0 0.0
-0.020296819935104182 0.017974595864933107 0.0 -0.00132865107165564 0.0 0.0
-0.030608274864550866 0.027985508795270952 0.0 -0.0020387675724339305 0.0 0.0
-0.043466358339512456 0.04051408060764761 0.0 -0.00288354694882198 0.0 0.0
-0.05866431844233139 0.05536786652765846 0.0 -0.0037519628753432954 0.0 0.0
-0.07595558721565837 0.07230808047476467 0.0 -0.004596769221291042 0.0 0.0
-0.09508486853859122 0.09107952504343864 0.0 -0.005422672703875753 0.0 0.0
-0.11572030960139973 0.11134327702061819 0.0 -0.006175822805272735 0.0 0.0
-0.13728979745258613 0.13252251568667717 0.0 -0.006693163931895896 0.0 0.0
-0.1588086135691783 0.153636949526474 0.0 -0.006616732843506723 0.0 0.0
-0.17878448826115328 0.17320237559892426 0.0 -0.005538982205362419 0.0 0.0
-0.19506389114076092 0.18901981298033022 0.0 -0.004585850883682241 0.0 0.0
-0.2038596664104494 0.1970822614541623 0.0 -0.013488492068334024 0.0 0.0
-0.19562307878525645 0.1869173020421684 0.0 -0.056173003150921 0.0 0.0
-0.19562307878523835 0.18691730204214618 0.0 0.056173003150930656 0.0 0.0
-0.2038596664103977 0.1970822614541099 0.0 0.013488492068354896 0.0 0.0
-0.19506389114067935 0.1890198129802556 0.0 0.004585850883696896 0.0 0.0
-0.17878448826104973 0.17320237559882834 0.0 0.005538982205360143 0.0 0.0
-0.1588086135690664 0.15363694952636298 0.0 0.006616732843505002 0.0 0.0
-0.1372897974524678 0.13252251568655904 0.0 0.006693163931898144 0.0 0.0
-0.11572030960128037 0.1113432770205014 0.0 0.0061758228052685715 0.0 0.0
-0.09508486853847477 0.0910795250433325 0.0 0.005422672703871201 0.0 0.0
-0.07595558721554597 0.07230808047465054 0.0 0.004596769221287211 0.0 0.0
-0.05866431844223244 0.0553678665275541 0.0 0.0037519628753333034 0.0 0.0
-0.04346635833942904 0.040514080607565894 0.0 0.0028835469488131538 0.0 0.0
-0.030608274864484523 0.027985508795206115 0.0 0.0020387675724290455 0.0 0.0
-0.020296819935052633 0.017974595864886922 0.0 0.0013286510716518096 0.0 0.0
-0.01258123560027851 0.010528597152832608 0.0 0.0008234230348765359 0.0 0.0
-0.007252015240808762 0.00546175960573847 0.0 0.0005044150442920503 0.0 0.0
-0.003916138702323005 0.0024498395642242876 0.0 0.0003507011007907179 0.0 0.0
-0.0021746769204081303 0.0010582324285414169 0.0 0.0003260863043700324 0.0 0.0
-0.0012966261404693015 0.0005472855265222787 0.0 0.0003479205477561198 0.0 0.0
-0.0005609548183458136 0.0002469480893785292 0.0 0.0002948018366220051 0.0 0.0
-0.00010941954853836179 5.8090643835776584e-05 0.0 4.0471521076279604e-05 0.0 0.0
SCALARS Statev float 8
LOOKUP_TABLE default
0.0 0.014143729119942581 0.01097420898230712 -0.01135454516167651 0.0003803361793693879 -0.006332180845926315 0.0 0.0
0.0 0.0009321593019506623 0.0006733533718600394 -0.0005804080229013237 -9.294534895871575e-05 0.0005956309601364807 0.0 0.0
0.0 3.566830137319448e-05 -2.6144018557455745e-06 2.1498114042442136e-06 4.6459045150133164e-07 3.891193092955056e-07 0.0 0.0
0.0 0.00036469089677370573 0.0002779816928619243 -0.00022043910820197286 -5.754258465995143e-05 -3.968609513022841e-05 0.0 0.0
0.0 0.0018652902491361845 0.0015422332939458694 -0.001293648580391956 -0.00024858471355391343 -0.0001662037217901209 0.0 0.0
0.0 0.005010880098923821 0.004517249404698693 -0.004027716156881042 -0.000489533247817652 -0.0003705326935977796 0.0 0.0
0.0 0.010753157324220832 0.009539486999859379 -0.008894009668363373 -0.000645477331496002 -0.000682693593877657 0.0 0.0
0.0 0.019318810162356575 0.016980863262051234 -0.016225499508208147 -0.0007553637538430841 -0.0011645409462492395 0.0 0.0
0.0 0.030915730627319893 0.0270270816731507 -0.026166461385938634 -0.0008606202872120554 -0.001848638156903054 0.0 0.0
0.0 0.04549959891025747 0.039638010054122756 -0.038665352075788605 -0.0009726579783341414 -0.002679835931312928 0.0 0.0
0.0 0.0628777281348169 0.05462602973124657 -0.05353666556345816 -0.0010893641677884 -0.0035514339970000625 0.0 0.0
0.0 0.08249462806896607 0.0717579508821474 -0.07054969622557586 -0.0012082546565715176 -0.004404777818962966 0.0 0.0
0.0 0.10437621492219307 0.09078901739464892 -0.08946048784340699 -0.0013285295512418336 -0.005241553632116654 0.0 0.0
0.0 0.1281921765694659 0.11143564118529242 -0.1099839106397674 -0.0014517305455249477 -0.006049588767489484 0.0 0.0
0.0 0.15337109743070743 0.13325844744568288 -0.1316794040485481 -0.0015790433971346629 -0.006784382164621465 0.0 0.0
0.0 0.17911112805678658 0.15553361560471912 -0.15382447758560222 -0.0017091380191169708 -0.00729768477011453 0.0 0.0
0.0 0.20415647118963892 0.1772032742231717 -0.17536559215132222 -0.0018376820718495031 -0.007341614940933633 0.0 0.0
0.0 0.226925104325555 0.19691351655367112 -0.19495308253353344 -0.0019604340201375826 -0.006706919270739263 0.0 0.0
0.0 0.2455616289780904 0.2130503373578166 -0.2109724546953764 -0.0020778826624401375 -0.005793008462110972 0.0 0.0
0.0 0.25702791682516424 0.2231103747141333 -0.2208444793124329 -0.0022658954017004095 -0.006993138452167913 0.0 0.0
0.0 0.25702791682514686 0.22311037471411801 -0.22084447931241769 -0.002265895401700289 0.006993138452178016 0.0 0.0
0.0 0.245561628978038 0.21305033735777038 -0.21097245469533157 -0.0020778826624387346 0.005793008462136425 0.0 0.0
0.0 0.2269251043254621 0.19691351655359068 -0.19495308253345328 -0.0019604340201373575 0.006706919270753195 0.0 0.0
0.0 0.20415647118952499 0.1772032742230726 -0.175365592151224 -0.0018376820718485865 0.007341614940940537 0.0 0.0
0.0 0.17911112805666465 0.15553361560461315 -0.1538244775854975 -0.0017091380191157405 0.007297684770105008 0.0 0.0
0.0 0.15337109743057853 0.13325844744557114 -0.13167940404843673 -0.0015790433971344118 0.006784382164619225 0.0 0.0
0.0 0.12819217656933685 0.11143564118518065 -0.10998391063965596 -0.0014517305455246622 0.006049588767489633 0.0 0.0
0.0 0.10437621492206775 0.09078901739454014 -0.08946048784329905 -0.0013285295512410669 0.005241553632115634 0.0 0.0
0.0 0.08249462806884705 0.07175795088204395 -0.07054969622547354 -0.0012082546565703694 0.0044047778189545824 0.0 0.0
0.0 0.06287772813471054 0.054626029731154005 -0.05353666556336631 -0.00108936416778769 0.0035514339969935256 0.0 0.0
0.0 0.045499598910167915 0.03963801005404538 -0.03866535207571156 -0.0009726579783338313 0.002679835931301995 0.0 0.0
0.0 0.030915730627251965 0.027027081673091147 -0.026166461385879754 -0.0008606202872114147 0.0018486381569000525 0.0 0.0
0.0 0.01931881016230838 0.016980863262008542 -0.01622549950816607 -0.0007553637538424677 0.0011645409462453789 0.0 0.0
0.0 0.010753157324191668 0.00953948699983324 -0.008894009668337864 -0.0006454773314953712 0.0006826935938760174 0.0 0.0
0.0 0.005010880098907019 0.004517249404683268 -0.004027716156866408 -0.0004895332478168596 0.0003705326935962445 0.0 0.0
0.0 0.001865290249127083 0.0015422332939382616 -0.0012936485803851931 -0.0002485847135530678 0.00016620372178922948 0.0 0.0
0.0 0.0003646908967715366 0.00027798169286088846 -0.00022043910820112282 -5.7542584659765546e-05 3.96860951299777e-05 0.0 0.0
0.0 3.566830137291476e-05 -2.614401855444553e-06 2.149811404013135e-06 4.6459045143146186e-07 -3.8911930927636516e-07 0.0 0.0
0.0 0.0009321593019469214 0.0006733533718577545 -0.0005804080228992579 -9.29453489584972e-05 -0.0005956309601339091 0.0 0.0
0.0 0.01414372911992397 0.010974208982294863 -0.01135454516166321 0.00038033617936834456 0.00633218084589513 0.0 0.0
0.0 0.010592761524076705 0.007701401198800765 -0.008197448405656333 0.0004960472068555647 -0.007379272380134892 0.0 0.0
0.0 1.6054837085925013e-05 1.225428860983665e-05 -1.09078016300239e-05 -1.3464869798127517e-06 7.939780779809585e-06 0.0 0.0
0.0 7.558773942675954e-07 1.7250239101269362e-07 -1.3047689536289147e-07 -4.2025495649804505e-08 -6.129777063217124e-08 0.0 0.0
0.0 0.0001524198930897486 0.0001115134466747473 -8.771684963820216e-05 -2.379659703654534e-05 -3.884365520414476e-05 0.0 0.0
0.0 0.0012704239269015003 0.0010122913201422497 -0.0008361996658313234 -0.00017609165431092659 -0.00026877137734637366 0.0 0.0
0.0 0.0038930491711084625 0.0035127204611136906 -0.0030849724222768737 -0.0004277480388368166 -0.0007625439552765059 0.0 0.0
0.0 0.008981965563534644 0.007960849153079354 -0.007350124374900277 -0.0006107247781790748 -0.001552633047077816 0.0 0.0
0.0 0.016717884374953196 0.014666072536847881 -0.013934620499585337 -0.0007314520372625427 -0.002705898919427092 0.0 0.0
0.0 0.027216125778533162 0.023746835091138313 -0.022910208568417006 -0.0008366265227212972 -0.004249486503777515 0.0 0.0
0.0 0.04037027557681465 0.03511175818282534 -0.03416822330382488 -0.0009435348790004683 -0.006051950460458876 0.0 0.0
0.0 0.05594746276620053 0.04856038092327642 -0.0475082436452945 -0.0010521372779819307 -0.007909469478112005 0.0 0.0
0.0 0.07375663863363201 0.0638908495345039 -0.06272945534590148 -0.0011613941886023864 -0.009699591676022025 0.0 0.0
0.0 0.09329853830057147 0.08092609675430956 -0.07965396463813874 -0.0012721321161708334 -0.011469907424896675 0.0 0.0
0.0 0.11460559828349115 0.09943502126614406 -0.09804984023239477 -0.0013851810337493044 -0.013220496201841493 0.0 0.0
0.0 0.1372398188501058 0.1190420918411167 -0.11754118941936369 -0.0015009024217529652 -0.01482211274544227 0.0 0.0
0.0 0.16041713286953316 0.13913595921952815 -0.13751731635042716 -0.0016186428691009809 -0.015984294576359446 0.0 0.0
0.0 0.18309156707780866 0.15880282995609402 -0.15706596185133148 -0.0017368681047625425 -0.016239546213483527 0.0 0.0
0.0 0.20383229734798622 0.17679146758747938 -0.17493611260975855 -0.0018553549777208245 -0.015283297833788418 0.0 0.0
0.0 0.22059803798587752 0.19134743469905696 -0.1893584683292822 -0.001988966369774706 -0.013461981286241929 0.0 0.0
0.0 0.2306564019817814 0.2001076705673359 -0.19801623131349622 -0.0020914392538396954 -0.010593727238015892 0.0 0.0
0.0 0.23065640198176512 0.20010767056732176 -0.19801623131348173 -0.002091439253840168 0.010593727238040938 0.0 0.0
0.0 0.22059803798583033 0.19134743469901558 -0.1893584683292404 -0.0019889663697751506 0.013461981286286536 0.0 0.0
0.0 0.20383229734790792 0.17679146758741102 -0.17493611260969008 -0.0018553549777207865 0.015283297833819128 0.0 0.0
0.0 0.183091567077708 0.1588028299560065 -0.1570659618512444 -0.0017368681047618888 0.01623954621349752 0.0 0.0
0.0 0.16041713286942227 0.13913595921943217 -0.1375173163503319 -0.0016186428691001501 0.01598429457635099 0.0 0.0
0.0 0.13723981884999037 0.11904209184101647 -0.1175411894192644 -0.0015009024217520306 0.014822112745436947 0.0 0.0
0.0 0.11460559828337977 0.09943502126604715 -0.09804984023229907 -0.001385181033748034 0.013220496201837618 0.0 0.0
0.0 0.09329853830046261 0.0809260967542147 -0.07965396463804525 -0.0012721321161694278 0.01146990742489186 0.0 0.0
0.0 0.07375663863352427 0.06389084953441046 -0.06272945534580876 -0.0011613941886016701 0.009699591676008581 0.0 0.0
0.0 0.05594746276610458 0.04856038092319324 -0.04750824364521187 -0.0010521372779813574 0.007909469478100303 0.0 0.0
0.0 0.04037027557673507 0.03511175818275637 -0.03416822330375633 -0.0009435348790000222 0.006051950460442088 0.0 0.0
0.0 0.02721612577847209 0.023746835091084627 -0.022910208568363795 -0.000836626522720815 0.004249486503770406 0.0 0.0
0.0 0.01671788437490731 0.014666072536807667 -0.01393462049954558 -0.0007314520372620903 0.002705898919419284 0.0 0.0
0.0 0.00898196556350416 0.007960849153052275 -0.007350124374873804 -0.0006107247781784661 0.001552633047072456 0.0 0.0
0.0 0.0038930491710932793 0.0035127204611003016 -0.0030849724222643737 -0.00042774803883592844 0.000762543955273454 0.0 0.0
0.0 0.0012704239268949706 0.0010122913201372377 -0.0008361996658270067 -0.00017609165431023102 0.00026877137734514797 0.0 0.0
0.0 0.00015241989308896478 0.00011151344667467861 -8.771684963813297e-05 -2.3796597036545528e-05 3.8843655204085466e-05 0.0 0.0
0.0 7.55877394132676e-07 1.7250239109508528e-07 -1.3047689542309063e-07 -4.2025495671997165e-08 6.12977706477887e-08 0.0 0.0
0.0 1.605483708552965e-05 1.2254288609820762e-05 -1.0907801629998295e-05 -1.3464869798224695e-06 -7.939780779816638e-06 0.0 0.0
0.0 0.010592761524054212 0.007701401198786002 -0.008197448405640899 0.0004960472068548944 0.007379272380107906 0.0 0.0
0.0 0.008085428467918387 0.005571237420928734 -0.006100540762453821 0.0005293033415250861 -0.006520259533807899 0.0 0.0
0.0 0.0 0.0 0.0 0.0 0.0 0.0 0.0
0.0 0.0 0.0 0.0 0.0 0.0 0.0 0.0
0.0 3.621032887210496e-05 2.9578927752832644e-05 -2.314499065731801e-05 -6.433937095514657e-06 -1.9055013233919284e-05 0.0 0.0
0.0 0.0007400500096084134 0.0005965308535387412 -0.00048547142792234774 -0.00011105942561639321 -0.0002803718693509541 0.0 0.0
0.0 0.003032574049241384 0.002562944793001107 -0.0022130821283798522 -0.0003498626646212546 -0.0009596694678498206 0.0 0.0
0.0 0.007274443958194031 0.006413415453881502 -0.005847556887154992 -0.0005658585667265099 -0.0021206769755635194 0.0 0.0
0.0 0.014141430438410037 0.01234130608707862 -0.011640465310020897 -0.0007008407770577147 -0.003821915301369143 0.0 0.0
0.0 0.0235353589150895 0.020417468828868687 -0.019609584378802423 -0.0008078844500662652 -0.006041388366385116 0.0 0.0
0.0 0.035267804818551136 0.030511029807338184 -0.029601401888098296 -0.0009096279192398655 -0.00859212926426697 0.0 0.0
0.0 0.04911594057420266 0.042412299144319106 -0.04140202482052664 -0.0010102743237924662 -0.011216810176646089 0.0 0.0
0.0 0.06478152201291495 0.055943584369719364 -0.05483302824140281 -0.0011105561283165284 -0.01375836635651506 0.0 0.0
0.0 0.08227564203012906 0.07096610107086061 -0.06975453205995438 -0.0012115690109062124 -0.016249878019568585 0.0 0.0
0.0 0.10107164183251376 0.08731511905701642 -0.08600111255325339 -0.0013140065037629612 -0.01872825176616507 0.0 0.0
0.0 0.12110377908428763 0.10469609568293592 -0.10327832683080393 -0.0014177688521319859 -0.02103583434090842 0.0 0.0
0.0 0.14178559832640852 0.12261677274097689 -0.12109353023050318 -0.00152324251047371 -0.022761122394755914 0.0 0.0
0.0 0.16214210868629916 0.14030623137108794 -0.13867450863891412 -0.0016317227321737786 -0.023342195689760474 0.0 0.0
0.0 0.18081393374244767 0.15659124264530183 -0.15484324776889663 -0.0017479948764052172 -0.0223321164431112 0.0 0.0
0.0 0.19588416363722333 0.16978718716217622 -0.167925524502452 -0.0018616626597241265 -0.01924483405847754 0.0 0.0
0.0 0.20516387033743017 0.1779958092873128 -0.1760514201757547 -0.0019443891115579494 -0.013091081202681338 0.0 0.0
0.0 0.20516387033741323 0.17799580928729722 -0.17605142017573944 -0.001944389111557675 0.013091081202724883 0.0 0.0
0.0 0.19588416363717964 0.16978718716213603 -0.16792552450241302 -0.001861662659723099 0.01924483405853821 0.0 0.0
0.0 0.1808139337423831 0.1565912426452438 -0.15484324776883968 -0.001747994876403986 0.02233211644315524 0.0 0.0
0.0 0.16214210868621295 0.1403062313710124 -0.13867450863883887 -0.0016317227321735787 0.02334219568977866 0.0 0.0
0.0 0.14178559832631404 0.12261677274089482 -0.12109353023042235 -0.0015232425104723952 0.022761122394745363 0.0 0.0
0.0 0.12110377908418657 0.10469609568284817 -0.10327832683071685 -0.001417768852131349 0.02103583434090166 0.0 0.0
0.0 0.10107164183240842 0.08731511905692513 -0.0860011125531622 -0.00131400650376292 0.01872825176615912 0.0 0.0
0.0 0.08227564203002856 0.0709661010707737 -0.06975453205986742 -0.001211569010906228 0.016249878019560057 0.0 0.0
0.0 0.06478152201282476 0.055943584369641496 -0.054833028241325715 -0.0011105561283158035 0.013758366356498103 0.0 0.0
0.0 0.04911594057411875 0.042412299144246324 -0.04140202482045439 -0.001010274323791914 0.011216810176628669 0.0 0.0
0.0 0.03526780481848067 0.030511029807277174 -0.029601401888037955 -0.0009096279192392111 0.008592129264245643 0.0 0.0
0.0 0.0235353589150374 0.020417468828823237 -0.019609584378757584 -0.0008078844500656465 0.00604138836637335 0.0 0.0
0.0 0.014141430438371889 0.012341306087045282 -0.011640465309988152 -0.0007008407770571222 0.0038219153013582547 0.0 0.0
0.0 0.007274443958167407 0.006413415453858118 -0.005847556887132315 -0.0005658585667258014 0.0021206769755559894 0.0 0.0
0.0 0.003032574049227344 0.0025629447929893905 -0.002213082128369172 -0.0003498626646202185 0.0009596694678451782 0.0 0.0
0.0 0.0007400500096033859 0.000596530853534989 -0.00048547142791915705 -0.00011105942561583191 0.00028037186934898306 0.0 0.0
0.0 3.6210328871922114e-05 2.9578927753205003e-05 -2.3144990657602952e-05 -6.433937095602075e-06 1.9055013234113986e-05 0.0 0.0
0.0 0.0 0.0 0.0 0.0 0.0 0.0 0.0
0.0 0.0 0.0 0.0 0.0 0.0 0.0 0.0
0.0 0.008085428467898146 0.005571237420914862 -0.006100540762439385 0.000529303341524519 0.006520259533785216 0.0 0.0
0.0 0.006103894612261332 0.004038560443856073 -0.0045429689485932505 0.0005044085047371771 -0.005188674204228015 0.0 0.0
0.0 0.0 0.0 0.0 0.0 0.0 0.0 0.0
0.0 0.0 0.0 0.0 0.0 0.0 0.0 0.0
0.0 6.443395459394297e-06 3.305256944318196e-06 -2.5754892571362216e-06 -7.297676871819585e-07 -3.3834463502321593e-06 0.0 0.0
0.0 0.00037771758682089024 0.0002968698242992196 -0.0002390002583948691 -5.786956590435034e-05 -0.00022314726572263187 0.0 0.0
0.0 0.002119390659012484 0.0017394045626597545 -0.0014747334397200594 -0.00026467112293969484 -0.0009877646625716286 0.0 0.0
0.0 0.005698235813770117 0.00491840145344867 -0.004415679715374766 -0.0005027217380739051 -0.002393191125726782 0.0 0.0
0.0 0.011620628938958245 0.010037485577106427 -0.009375361172374341 -0.0006621244047320886 -0.004505727384328745 0.0 0.0
0.0 0.019875512122696733 0.017076836075299327 -0.016304019992825027 -0.0007728160824743051 -0.00721596339734906 0.0 0.0
0.0 0.030168816002825886 0.025877517836231788 -0.025007180728937053 -0.0008703371072947038 -0.010305566007027131 0.0 0.0
0.0 0.04226064646167315 0.03622130364591557 -0.03525774527074344 -0.000963558375172118 -0.01347519525184143 0.0 0.0
0.0 0.05594207240897852 0.04794681672309917 -0.04689169747686598 -0.0010551192462331836 -0.016563772665216303 0.0 0.0
0.0 0.0710758543435121 0.06095408855433716 -0.05980778475029171 -0.0011463038040454537 -0.019606944413249533 0.0 0.0
0.0 0.08757141037190311 0.07512911518343073 -0.07389086804876738 -0.001238247134663321 -0.022595851266875803 0.0 0.0
0.0 0.10514045530282214 0.0902630348238542 -0.0889330135286156 -0.0013300212952385708 -0.02538358229984953 0.0 0.0
0.0 0.12312744158959593 0.10599086265496682 -0.10456786243782841 -0.0014230002171383444 -0.02759174112941274 0.0 0.0
0.0 0.14117384474985117 0.12168283287442622 -0.12016124910609918 -0.0015215837683269875 -0.028585393041048204 0.0 0.0
0.0 0.15788373064934438 0.1363131905295923 -0.13468670437303357 -0.0016264861565587088 -0.027600532530393667 0.0 0.0
0.0 0.17156242374969394 0.14842341258254316 -0.14669612108941124 -0.0017272914931318773 -0.023550812631308357 0.0 0.0
0.0 0.18039866314941227 0.15640465738647746 -0.15460286632068068 -0.0018017910657967759 -0.015096651822612104 0.0 0.0
0.0 0.18039866314939929 0.15640465738646497 -0.15460286632066822 -0.0018017910657968142 0.015096651822666557 0.0 0.0
0.0 0.17156242374966385 0.14842341258251338 -0.14669612108938312 -0.001727291493130145 0.02355081263137826 0.0 0.0
0.0 0.1578837306492912 0.13631319052954277 -0.13468670437298558 -0.001626486156557107 0.02760053253044454 0.0 0.0
0.0 0.14117384474977887 0.12168283287436193 -0.12016124910603537 -0.0015215837683265176 0.028585393041070467 0.0 0.0
0.0 0.12312744158951291 0.10599086265489494 -0.10456786243775716 -0.0014230002171377563 0.027591741129402617 0.0 0.0
0.0 0.1051404553027349 0.0902630348237784 -0.08893301352854086 -0.0013300212952375417 0.025383582299839794 0.0 0.0
0.0 0.08757141037181487 0.07512911518335393 -0.07389086804869147 -0.0012382471346624275 0.022595851266866373 0.0 0.0
0.0 0.07107585434342642 0.06095408855426257 -0.05980778475021796 -0.001146303804044616 0.019606944413237994 0.0 0.0
0.0 0.05594207240889463 0.04794681672302703 -0.04689169747679378 -0.0010551192462332384 0.016563772665194647 0.0 0.0
0.0 0.04226064646159857 0.03622130364585146 -0.03525774527067957 -0.0009635583751718712 0.01347519525181848 0.0 0.0
0.0 0.030168816002762625 0.025877517836177987 -0.025007180728883624 -0.0008703371072943445 0.01030556600700135 0.0 0.0
0.0 0.019875512122646332 0.01707683607525587 -0.01630401999278213 -0.0007728160824737411 0.0072159633973325615 0.0 0.0
0.0 0.01162062893892353 0.010037485577076434 -0.009375361172345081 -0.0006621244047313494 0.004505727384315394 0.0 0.0
0.0 0.0056982358137485575 0.004918401453430225 -0.004415679715357279 -0.0005027217380729459 0.002393191125718517 0.0 0.0
0.0 0.002119390659001054 0.00173940456265097 -0.0014747334397122271 -0.00026467112293874286 0.0009877646625664534 0.0 0.0
0.0 0.000377717586818034 0.0002968698242976423 -0.00023900025839355526 -5.786956590408709e-05 0.00022314726572148294 0.0 0.0
0.0 6.4433954590924695e-06 3.305256944565459e-06 -2.5754892573273465e-06 -7.297676872381018e-07 3.383446350476064e-06 0.0 0.0
0.0 0.0 0.0 0.0 0.0 0.0 0.0 0.0
0.0 0.0 0.0 0.0 0.0 0.0 0.0 0.0
0.0 0.006103894612243857 0.004038560443844449 -0.004542968948580986 0.0005044085047365351 0.005188674204210378 0.0 0.0
0.0 0.004471482091012224 0.00285471396192033 -0.003298941755160086 0.0004442277932397567 -0.0038765588327429974 0.0 0.0
0.0 0.0 0.0 0.0 0.0 0.0 0.0 0.0
0.0 0.0 0.0 0.0 0.0 0.0 0.0 0.0
0.0 9.640667737114135e-07 4.572009618970434e-07 -3.4952945179777957e-07 -1.0767151009926371e-07 -6.71418898357494e-07 0.0 0.0
0.0 0.00016493287310215341 0.00011857077271887468 -9.500523933057186e-05 -2.356553338830282e-05 -0.00013750118892288997 0.0 0.0
0.0 0.0013447724675113683 0.0010645572030051284 -0.0008865590542145902 -0.00017799814879053852 -0.0008907824435892391 0.0 0.0
0.0 0.004321093065648767 0.003524148844948731 -0.0031041092079827585 -0.0004200396369659728 -0.002381570615186376 0.0 0.0
0.0 0.00922649782902379 0.00778168549771252 -0.007172400501689392 -0.0006092849960231288 -0.004716356473653416 0.0 0.0
0.0 0.01626067373147641 0.013762403508242944 -0.01303252749047111 -0.0007298760177718377 -0.007766518064745407 0.0 0.0
0.0 0.02510803305702999 0.02125136854162807 -0.020426672790212236 -0.0008246957514158258 -0.011189189866770014 0.0 0.0
0.0 0.035450006551748736 0.03002771548608629 -0.029116447088697192 -0.000911268397389121 -0.014694728250208716 0.0 0.0
0.0 0.04708003863393675 0.03994252814121087 -0.03894840394082183 -0.0009941242003890126 -0.018115140478655974 0.0 0.0
0.0 0.0599949759497924 0.05092847543552288 -0.049852819741149274 -0.0010756556943736072 -0.02148802004468211 0.0 0.0
0.0 0.07392145100943318 0.06292651464342888 -0.061769686874722875 -0.0011568277687060197 -0.02481755845935963 0.0 0.0
0.0 0.08891635036137356 0.0757986146489652 -0.07456129887932719 -0.0012373157696380054 -0.027916631989099494 0.0 0.0
0.0 0.10464560068196145 0.08928630862843723 -0.08796808941240059 -0.001318219216036598 -0.0304316652790146 0.0 0.0
0.0 0.120190722813375 0.10293194217306852 -0.10152888841212274 -0.001403053760945751 -0.03180172852395928 0.0 0.0
0.0 0.13492741164222252 0.1159472229097373 -0.11445266841207945 -0.0014945544976578318 -0.031043313190449257 0.0 0.0
0.0 0.14742151719508417 0.12714217270477257 -0.12555684119667238 -0.0015853315081001565 -0.026580725295568104 0.0 0.0
0.0 0.15605129470789586 0.1351042796533056 -0.13344651956461964 -0.001657760088685868 -0.016757262973353823 0.0 0.0
0.0 0.15605129470788326 0.13510427965329264 -0.13344651956460687 -0.0016577600886856377 0.016757262973411714 0.0 0.0
0.0 0.14742151719504884 0.1271421727047381 -0.1255568411966378 -0.0015853315081002803 0.026580725295640976 0.0 0.0
0.0 0.13492741164217195 0.11594722290969009 -0.11445266841203162 -0.00149455449765847 0.03104331319050335 0.0 0.0
0.0 0.12019072281331111 0.10293194217301081 -0.10152888841206523 -0.0014030537609455776 0.031801728523984975 0.0 0.0
0.0 0.10464560068188404 0.08928630862837031 -0.0879680894123337 -0.0013182192160366877 0.030431665279004014 0.0 0.0
0.0 0.08891635036129299 0.07579861464889605 -0.07456129887925732 -0.0012373157696387751 0.02791663198908603 0.0 0.0
0.0 0.07392145100935704 0.06292651464336324 -0.06176968687465696 -0.00115682776870626 0.02481755845934773 0.0 0.0
0.0 0.059994975949722265 0.05092847543546153 -0.04985281974108868 -0.0010756556943728125 0.021488020044671277 0.0 0.0
0.0 0.04708003863386581 0.039942528141149944 -0.03894840394076164 -0.0009941242003882911 0.01811514047863334 0.0 0.0
0.0 0.035450006551683684 0.03002771548603075 -0.029116447088642663 -0.0009112683973880831 0.014694728250182311 0.0 0.0
0.0 0.02510803305697537 0.021251368541582497 -0.020426672790167584 -0.0008246957514149197 0.01118918986674099 0.0 0.0
0.0 0.016260673731435697 0.013762403508208466 -0.013032527490437075 -0.0007298760177713871 0.0077665180647270085 0.0 0.0
0.0 0.009226497828995872 0.007781685497689155 -0.007172400501666801 -0.0006092849960223544 0.0047163564736398544 0.0 0.0
0.0 0.004321093065629236 0.0035241488449329157 -0.0031041092079679066 -0.0004200396369650095 0.0023815706151765195 0.0 0.0
0.0 0.0013447724675026296 0.0010645572029986264 -0.0008865590542090015 -0.0001779981487896245 0.0008907824435839376 0.0 0.0
0.0 0.00016493287310049648 0.0001185707727182547 -9.500523933004109e-05 -2.3565533388213526e-05 0.00013750118892202128 0.0 0.0
0.0 9.640667735604947e-07 4.572009620339218e-07 -3.4952945190271615e-07 -1.076715101312036e-07 6.714188985626456e-07 0.0 0.0
0.0 0.0 0.0 0.0 0.0 0.0 0.0 0.0
0.0 0.0 0.0 0.0 0.0 0.0 0.0 0.0
0.0 0.004471482090997861 0.002854713961911008 -0.003298941755150086 0.0004442277932390757 0.0038765588327293573 0.0 0.0
0.0 0.0031054253871052916 0.0019241285499461067 -0.002285811265186337 0.00036168271524022956 -0.0027417640570049956 0.0 0.0
0.0 0.0 0.0 0.0 0.0 0.0 0.0 0.0
0.0 0.0 0.0 0.0 0.0 0.0 0.0 0.0
0.0 1.2459832782016668e-06 -8.711175530045244e-08 6.722946238267231e-08 1.9882292917777628e-08 2.0432140011233723e-07 0.0 0.0
0.0 7.231248404848669e-05 4.107967327301318e-05 -3.283357183948343e-05 -8.246101433529755e-06 -7.134279572744697e-05 0.0 0.0
0.0 0.0007501056117835887 0.0005643693827098841 -0.000463065217544267 -0.00010130416516561689 -0.000700239353010838 0.0 0.0
0.0 0.002930786011512159 0.0023073162337865155 -0.001988489142242541 -0.0003188270915439738 -0.002182106646878518 0.0 0.0
0.0 0.006954237220815573 0.0056331804213071305 -0.005100489397819024 -0.0005326910234881049 -0.004522677679785385 0.0 0.0
0.0 0.01276579854096261 0.010510340585487022 -0.00983605032827807 -0.0006742902572089483 -0.0076627134513221375 0.0 0.0
0.0 0.020106791129732487 0.016674585291644062 -0.01590379020901455 -0.0007707950826295095 -0.011232082369544065 0.0 0.0
0.0 0.028667522853635052 0.023874772842978037 -0.0230232438777953 -0.00085152896518274 -0.014859482266454154 0.0 0.0
0.0 0.03827233872537799 0.031975545392588255 -0.031049105032729403 -0.0009264403598588561 -0.018402313985364207 0.0 0.0
0.0 0.0488601566149069 0.04093868122122702 -0.03994041439991339 -0.0009982668213136107 -0.021901029867193736 0.0 0.0
0.0 0.06041587913426416 0.05075168874779957 -0.049683044805850715 -0.0010686439419488616 -0.025345447985694932 0.0 0.0
0.0 0.07287595259127723 0.06134792734173454 -0.060209276599296424 -0.001138650742438134 -0.02857692041686946 0.0 0.0
0.0 0.08576268308230457 0.072557187940776 -0.07134983795351746 -0.0012073499872585379 -0.031271302421850694 0.0 0.0
0.0 0.09913133962218086 0.08408366644814703 -0.08280708549995465 -0.0012765809481923372 -0.032909799781037745 0.0 0.0
0.0 0.11204543094141921 0.09544867329457316 -0.09409681092317759 -0.0013518623713955574 -0.03254270778059266 0.0 0.0
0.0 0.12328920224392496 0.10580112771550092 -0.1043680038395694 -0.0014331238759314436 -0.02831771929123088 0.0 0.0
0.0 0.13187457821451293 0.11389160860598367 -0.11238386085923474 -0.0015077477467488488 -0.018108685732353774 0.0 0.0
0.0 0.1318745782145047 0.11389160860597443 -0.11238386085922497 -0.0015077477467494167 0.01810868573241282 0.0 0.0
0.0 0.1232892022438995 0.10580112771547402 -0.10436800383954195 -0.0014331238759320746 0.028317719291306796 0.0 0.0
0.0 0.11204543094138343 0.0954486732945365 -0.0940968109231423 -0.0013518623713942252 0.032542707780649105 0.0 0.0
0.0 0.09913133962213014 0.08408366644810028 -0.08280708549990813 -0.0012765809481921323 0.03290979978106102 0.0 0.0
0.0 0.08576268308224581 0.07255718794072533 -0.07134983795346703 -0.0012073499872582822 0.03127130242184078 0.0 0.0
0.0 0.07287595259121527 0.06134792734168072 -0.0602092765992438 -0.0011386507424369083 0.02857692041685558 0.0 0.0
0.0 0.06041587913420289 0.05075168874774637 -0.04968304480579799 -0.001068643941948382 0.025345447985682064 0.0 0.0
0.0 0.04886015661485003 0.04093868122117766 -0.03994041439986446 -0.0009982668213132121 0.021901029867182325 0.0 0.0
0.0 0.03827233872532186 0.031975545392540626 -0.03104910503268247 -0.0009264403598581469 0.018402313985342932 0.0 0.0
0.0 0.028667522853582282 0.023874772842934096 -0.02302324387775158 -0.0008515289651825229 0.01485948226642852 0.0 0.0
0.0 0.020106791129685032 0.016674585291605575 -0.01590379020897638 -0.0007707950826291895 0.011232082369513108 0.0 0.0
0.0 0.012765798540924115 0.010510340585455084 -0.009836050328246797 -0.0006742902572082806 0.007662713451300566 0.0 0.0
0.0 0.006954237220790102 0.005633180421286617 -0.005100489397799234 -0.0005326910234873835 0.004522677679769871 0.0 0.0
0.0 0.0029307860114980632 0.0023073162337755053 -0.0019884891422326193 -0.00031882709154288573 0.002182106646869509 0.0 0.0
0.0 0.0007501056117761868 0.0005643693827049265 -0.0004630652175400444 -0.00010130416516488198 0.0007002393530047757 0.0 0.0
0.0 7.231248404741182e-05 4.1079673272919476e-05 -3.283357183939398e-05 -8.246101433525498e-06 7.134279572719648e-05 0.0 0.0
0.0 1.245983277765114e-06 -8.711175526903953e-08 6.722946235833695e-08 1.9882292910690027e-08 -2.0432140003799813e-07 0.0 0.0
0.0 0.0 0.0 0.0 0.0 0.0 0.0 0.0
0.0 0.0 0.0 0.0 0.0 0.0 0.0 0.0
0.0 0.003105425387093814 0.0019241285499389475 -0.0022858112651784443 0.0003616827152394971 0.002741764056994478 0.0 0.0
0.0 0.002023487040509432 0.0011980068485990844 -0.0014639432821639386 0.0002659364335648543 -0.0018034408887268765 0.0 0.0
0.0 5.610935232125803e-07 -8.037160125762508e-09 8.338978319598262e-09 -3.018181938355691e-10 1.1164998698213293e-07 0.0 0.0
0.0 3.152167117633121e-07 -9.354402161032181e-09 6.627145909053401e-09 2.7272562519795243e-09 6.183255733803838e-08 0.0 0.0
0.0 1.343535810957597e-06 -6.745450613659108e-08 5.1836617700734505e-08 1.5617888435866596e-08 2.5068220686766373e-07 0.0 0.0
0.0 3.8824506709484226e-05 1.8667595951469765e-05 -1.4823473131978605e-05 -3.84412281949117e-06 -4.81636263302735e-05 0.0 0.0
0.0 0.0004040285371915197 0.0002424768421681731 -0.00019687090579841512 -4.560593636975812e-05 -0.0004541317390155211 0.0 0.0
0.0 0.001803552748925456 0.0013020480132078314 -0.0010963943702441458 -0.00020565364296368612 -0.001775792419336677 0.0 0.0
0.0 0.004799103561776837 0.0036739644212522233 -0.0032481554125792667 -0.0004258090086729539 -0.003986838376219547 0.0 0.0
0.0 0.009379858545824092 0.007387020452910978 -0.0067925215317180525 -0.0005944989211929208 -0.006949568899497283 0.0 0.0
0.0 0.015195460610672132 0.012193229356951944 -0.011490230930028962 -0.0007029984269229736 -0.01040025556563388 0.0 0.0
0.0 0.021964537669425594 0.017808460725209085 -0.017027516612123962 -0.0007809441130851213 -0.013956274334804994 0.0 0.0
0.0 0.029519214341428776 0.024096481501618295 -0.023247258413726032 -0.0008492230878922647 -0.017412384351701622 0.0 0.0
0.0 0.037844211850009794 0.03103750515819788 -0.03012576711950978 -0.0009117380386880912 -0.02081181489345353 0.0 0.0
0.0 0.04689646915912652 0.03866140946649868 -0.03769016438338399 -0.0009712450831146829 -0.024175983903382773 0.0 0.0
0.0 0.056725143292789035 0.046965721164236064 -0.04593576431657503 -0.0010299568476610458 -0.027353277748813694 0.0 0.0
0.0 0.0671422432635603 0.055861066487983745 -0.054772225928936144 -0.0010888405590476333 -0.03002384128501206 0.0 0.0
0.0 0.07786511188275155 0.06518801023731517 -0.06404574986303557 -0.0011422603742795778 -0.03181042095298479 0.0 0.0
0.0 0.08872739253964226 0.07478557320510376 -0.07358865179120455 -0.0011969214138992253 -0.03198761170446085 0.0 0.0
0.0 0.09915167415377868 0.08424498556624224 -0.08297915771319592 -0.001265827853046293 -0.02865186164585885 0.0 0.0
0.0 0.10787381369547673 0.09255420438579859 -0.09120792882476932 -0.0013462755610292422 -0.019122223805151568 0.0 0.0
0.0 0.10787381369547112 0.09255420438579078 -0.09120792882476211 -0.0013462755610286286 0.019122223805206992 0.0 0.0
0.0 0.09915167415376146 0.08424498556622054 -0.0829791577131752 -0.001265827853045441 0.028651861645933856 0.0 0.0
0.0 0.08872739253961114 0.07478557320507095 -0.07358865179117127 -0.0011969214138996076 0.03198761170451572 0.0 0.0
0.0 0.07786511188270985 0.06518801023727577 -0.06404574986299612 -0.001142260374279678 0.03181042095300638 0.0 0.0
0.0 0.06714224326351349 0.055861066487943395 -0.05477222592889608 -0.0010888405590473034 0.03002384128500192 0.0 0.0
0.0 0.05672514329273626 0.046965721164191246 -0.04593576431653016 -0.0010299568476610644 0.027353277748797315 0.0 0.0
0.0 0.0468964691590789 0.03866140946645775 -0.03769016438334363 -0.0009712450831141076 0.024175983903369683 0.0 0.0
0.0 0.03784421184996549 0.031037505158159635 -0.03012576711947209 -0.00091173803868753 0.020811814893441388 0.0 0.0
0.0 0.02951921434138649 0.02409648150158313 -0.023247258413691282 -0.0008492230878918564 0.01741238435168095 0.0 0.0
0.0 0.021964537669386167 0.017808460725177232 -0.01702751661209245 -0.0007809441130847664 0.013956274334780642 0.0 0.0
0.0 0.015195460610638577 0.012193229356926065 -0.011490230930003545 -0.0007029984269225137 0.010400255565606939 0.0 0.0
0.0 0.009379858545797173 0.0073870204528897546 -0.0067925215316973295 -0.0005944989211924239 0.006949568899480148 0.0 0.0
0.0 0.004799103561757628 0.003673964421237462 -0.0032481554125654965 -0.00042580900867196405 0.0039868383762057215 0.0 0.0
0.0 0.0018035527489155304 0.0013020480132006915 -0.001096394370237821 -0.0002056536429628698 0.001775792419328469 0.0 0.0
0.0 0.0004040285371875951 0.00024247684216618102 -0.00019687090579678762 -4.560593636939318e-05 0.00045413173901196976 0.0 0.0
0.0 3.882450670822126e-05 1.8667595951430195e-05 -1.4823473131942431e-05 -3.844122819487775e-06 4.816362633016744e-05 0.0 0.0
0.0 1.343535810551308e-06 -6.74545061154224e-08 5.1836617684484416e-08 1.561788843093987e-08 -2.5068220678900275e-07 0.0 0.0
0.0 3.152167115246035e-07 -9.35440215378019e-09 6.627145903901019e-09 2.7272562498794715e-09 -6.183255729017234e-08 0.0 0.0
0.0 5.610935225658215e-07 -8.037160116491167e-09 8.3389783100577e-09 -3.018181935663175e-10 -1.1164998685127716e-07 0.0 0.0
0.0 0.002023487040500598 0.001198006848593979 -0.00146394328215809 0.00026593643356410994 0.0018034408887192981 0.0 0.0
0.0 0.0011806284678943751 0.0006553104694067176 -0.0008263123129250143 0.00017100184351829644 -0.0010539733217880343 0.0 0.0
0.0 1.3818253602156672e-06 3.9922340256381224e-08 -3.851379370172271e-08 -1.4085465546598333e-09 -9.534716751322448e-07 0.0 0.0
0.0 6.305102464673167e-07 -7.0898921551877894e-09 5.074535917472657e-09 2.0153562377156586e-09 1.2874703632778445e-07 0.0 0.0
0.0 1.3949713904696416e-06 9.21730654784958e-08 -7.545034818650781e-08 -1.672271729198583e-08 -7.088673896889421e-07 0.0 0.0
0.0 3.129776339628233e-05 1.0743172986939318e-05 -8.492694029334326e-06 -2.2504789576050057e-06 -4.348311125684483e-05 0.0 0.0
0.0 0.00021601459542894128 9.513468103113366e-05 -7.666878756703832e-05 -1.846589346409532e-05 -0.0002878324394300744 0.0 0.0
0.0 0.0009844908579270065 0.0005774281958698222 -0.0004758751328777431 -0.00010155306299207875 -0.001236090835385816 0.0 0.0
0.0 0.002908592333217522 0.001985706943802075 -0.0017024366980503201 -0.00028327024575175447 -0.0031242776890905433 0.0 0.0
0.0 0.00618030129840811 0.0044882618863258325 -0.004016097229726177 -0.00047216465659965167 -0.00570849442299727 0.0 0.0
0.0 0.010368343632217942 0.007885416105801582 -0.007280845798365684 -0.0006045703074358969 -0.008741553653769935 0.0 0.0
0.0 0.01542204297320902 0.011891225346120126 -0.01120128019962569 -0.0006899451464944332 -0.011940215792025961 0.0 0.0
0.0 0.020891968312407517 0.016367112858736387 -0.01561222806093088 -0.0007548847978055017 -0.015095406139056947 0.0 0.0
0.0 0.02690760254892641 0.021292910579238142 -0.020482952666846466 -0.0008099579123916833 -0.018199515814836344 0.0 0.0
0.0 0.03351851334025777 0.026722825712486097 -0.025863792625307115 -0.0008590330871789776 -0.021261032459349617 0.0 0.0
0.0 0.04079229010106829 0.032716575075774135 -0.03181059012519076 -0.0009059849505833577 -0.024196739537517553 0.0 0.0
0.0 0.048557922233839326 0.03927429666202116 -0.03832000045388394 -0.000954296208137213 -0.026712614442193895 0.0 0.0
0.0 0.05680486295386658 0.046332381794742035 -0.0453336286292474 -0.0009987531654946306 -0.028419962712621257 0.0 0.0
0.0 0.06540326176662027 0.05396149284614482 -0.05293213720374193 -0.0010293556424028727 -0.02906407995136661 0.0 0.0
0.0 0.07445933427831852 0.06231670834065542 -0.06124213717260446 -0.0010745711680509233 -0.02725938984211811 0.0 0.0
0.0 0.08325509183628328 0.0708527867531177 -0.06969055124659049 -0.0011622355065272658 -0.0196918662233546 0.0 0.0
0.0 0.08325509183628065 0.07085278675311228 -0.06969055124658458 -0.0011622355065277125 0.019691866223403937 0.0 0.0
0.0 0.0744593342783063 0.06231670834063817 -0.06124213717258633 -0.0010745711680518392 0.02725938984218617 0.0 0.0
0.0 0.0654032617666004 0.05396149284612108 -0.05293213720371806 -0.001029355642403019 0.029064079951416095 0.0 0.0
0.0 0.056804862953839776 0.046332381794715355 -0.04533362862922193 -0.0009987531654934542 0.028419962712638348 0.0 0.0
0.0 0.0485579222338035 0.039274296661990976 -0.038320000453855 -0.0009542962081359736 0.026712614442179934 0.0 0.0
0.0 0.04079229010103295 0.03271657507574467 -0.03181059012516221 -0.000905984950582482 0.02419673953750198 0.0 0.0
0.0 0.03351851334022503 0.026722825712458518 -0.025863792625279828 -0.0008590330871787047 0.021261032459339014 0.0 0.0
0.0 0.02690760254889199 0.021292910579209127 -0.020482952666817288 -0.000809957912391841 0.018199515814824836 0.0 0.0
0.0 0.020891968312374023 0.016367112858709513 -0.015612228060904527 -0.0007548847978049802 0.015095406139036862 0.0 0.0
0.0 0.015422042973181201 0.011891225346098312 -0.011201280199604723 -0.0006899451464935797 0.011940215792005845 0.0 0.0
0.0 0.010368343632192849 0.007885416105783546 -0.007280845798348257 -0.0006045703074352859 0.008741553653746757 0.0 0.0
0.0 0.006180301298390853 0.004488261886312843 -0.004016097229714024 -0.00047216465659881873 0.005708494422983929 0.0 0.0
0.0 0.002908592333205229 0.001985706943793236 -0.001702436698042378 -0.0002832702457508578 0.0031242776890793413 0.0 0.0
0.0 0.0009844908579207824 0.0005774281958661898 -0.00047587513287466993 -0.00010155306299151966 0.0012360908353794748 0.0 0.0
0.0 0.00021601459542654975 9.513468103045803e-05 -7.666878756647722e-05 -1.846589346398079e-05 0.000287832439427978 0.0 0.0
0.0 3.129776339547924e-05 1.0743172986930875e-05 -8.492694029324072e-06 -2.2504789576067933e-06 4.348311125682938e-05 0.0 0.0
0.0 1.3949713902058387e-06 9.217306555617857e-08 -7.545034824740695e-08 -1.6722717308774597e-08 7.088673902441255e-07 0.0 0.0
0.0 6.305102458760242e-07 -7.089892147158693e-09 5.074535912009278e-09 2.015356235150372e-09 -1.2874703620679312e-07 0.0 0.0
0.0 1.3818253597046135e-06 3.9922340299113864e-08 -3.851379375134742e-08 -1.408546547766474e-09 9.534716761735461e-07 0.0 0.0
0.0 0.0011806284678875878 0.0006553104694032819 -0.0008263123129209486 0.0001710018435176673 0.0010539733217824771 0.0 0.0
0.0 0.0005348355981414111 0.0002917458285638392 -0.000382904724839307 9.115889627546797e-05 -0.0005072139426837405 0.0 0.0
0.0 2.658136102430486e-06 7.85459516852168e-09 -1.1136713439894736e-08 3.2821182713732714e-09 -5.779042114938633e-07 0.0 0.0
0.0 1.3787365545870257e-06 9.090958670549206e-09 -3.925855849690997e-09 -5.16510282085855e-09 -8.128452615693057e-07 0.0 0.0
0.0 3.7463618965424823e-06 2.623348447541992e-07 -1.8474977103110202e-07 -7.758507372309398e-08 -3.7532788476647465e-06 0.0 0.0
0.0 3.321562512445773e-05 6.552815226650186e-06 -5.102199161145754e-06 -1.450616065504437e-06 -5.011939431017209e-05 0.0 0.0
0.0 0.0001570543108292499 4.048575174745446e-05 -3.2552858822856706e-05 -7.932892924597753e-06 -0.00022616569233360593 0.0 0.0
0.0 0.0005132576749847196 0.0001864019540415151 -0.00015125880368759212 -3.5143150353922874e-05 -0.0007572132219270739 0.0 0.0
0.0 0.0014354970543659408 0.0007203741834789375 -0.0005964208522207432 -0.00012395333125819443 -0.0020184424015933723 0.0 0.0
0.0 0.0032909148797290164 0.001967443694072531 -0.0016865190131227703 -0.0002809246809497608 -0.00398348438858416 0.0 0.0
0.0 0.005897780680295662 0.003886687117178703 -0.003453434034945404 -0.0004332530822332996 -0.00633901944301363 0.0 0.0
0.0 0.009005770752478371 0.0062487771619600795 -0.0057058908604068195 -0.0005428863015532574 -0.008885837139668479 0.0 0.0
0.0 0.012539279999851972 0.008893811210591587 -0.008277732278633492 -0.0006160789319580884 -0.011480721547948351 0.0 0.0
0.0 0.016356188448811985 0.011809820657875662 -0.011138566262143105 -0.0006712543957325595 -0.014101047512152931 0.0 0.0
0.0 0.02055592155517206 0.015051221739576619 -0.014337096587046357 -0.0007141251525302458 -0.01669424660756973 0.0 0.0
0.0 0.025209359414227434 0.01871105045095912 -0.017961076245907388 -0.0007499742050517247 -0.019219560466332726 0.0 0.0
0.0 0.03036584274043158 0.022892159940069715 -0.02210695396287734 -0.000785205977192382 -0.02150632881425458 0.0 0.0
0.0 0.036038530252089716 0.027654730286861495 -0.026829903407320197 -0.0008248268795413181 -0.02313403356889822 0.0 0.0
0.0 0.04231849017616868 0.03313860948869789 -0.032288897640887076 -0.0008497118478108243 -0.02387604759254863 0.0 0.0
0.0 0.049839371782337674 0.03991956888200281 -0.03907220827966626 -0.0008473606023365401 -0.02363022933434471 0.0 0.0
0.0 0.05857560784116329 0.04846776766769544 -0.04753619529558989 -0.0009315723721055734 -0.019494391530433443 0.0 0.0
0.0 0.05857560784116528 0.048467767667693055 -0.04753619529558743 -0.0009315723721056391 0.019494391530476787 0.0 0.0
0.0 0.04983937178233909 0.03991956888199619 -0.03907220827966016 -0.0008473606023360034 0.023630229334405964 0.0 0.0
0.0 0.04231849017616398 0.03313860948868631 -0.03228889764087654 -0.0008497118478097642 0.023876047592594044 0.0 0.0
0.0 0.03603853025207089 0.027654730286843225 -0.026829903407301865 -0.0008248268795413638 0.023134033568907496 0.0 0.0
0.0 0.030365842740410577 0.022892159940054217 -0.022106953962861605 -0.0007852059771926073 0.021506328814240812 0.0 0.0
0.0 0.025209359414202076 0.018711050450939713 -0.017961076245887754 -0.0007499742050519548 0.019219560466318585 0.0 0.0
0.0 0.02055592155514975 0.015051221739558926 -0.014337096587028515 -0.0007141251525304124 0.0166942466075598 0.0 0.0
0.0 0.016356188448794894 0.011809820657861642 -0.011138566262129324 -0.0006712543957323237 0.0141010475121463 0.0 0.0
0.0 0.012539279999831822 0.008893811210576946 -0.008277732278619242 -0.0006160789319576998 0.011480721547933039 0.0 0.0
0.0 0.0090057707524589 0.006248777161947093 -0.005705890860394063 -0.0005428863015530304 0.008885837139649702 0.0 0.0
0.0 0.005897780680278119 0.003886687117167812 -0.0034534340349350865 -0.00043325308223272327 0.006339019442994656 0.0 0.0
0.0 0.0032909148797187994 0.0019674436940659815 -0.001686519013116741 -0.00028092468094923986 0.00398348438857328 0.0 0.0
0.0 0.0014354970543599482 0.0007203741834755884 -0.0005964208522179315 -0.0001239533312576569 0.0020184424015864703 0.0 0.0
0.0 0.0005132576749810145 0.00018640195404020864 -0.00015125880368651635 -3.514315035369223e-05 0.0007572132219225319 0.0 0.0
0.0 0.00015705431082726142 4.048575174726966e-05 -3.2552858822701394e-05 -7.93289292456825e-06 0.00022616569233225775 0.0 0.0
0.0 3.321562512398818e-05 6.55281522667352e-06 -5.10219916116322e-06 -1.450616065510301e-06 5.0119394310359476e-05 0.0 0.0
0.0 3.746361896341014e-06 2.6233484479417586e-07 -1.847497710583897e-07 -7.758507373578352e-08 3.7532788482688513e-06 0.0 0.0
0.0 1.3787365545069334e-06 9.090958678929928e-09 -3.925855852114145e-09 -5.165102826815318e-09 8.128452623008843e-07 0.0 0.0
0.0 2.6581361018857504e-06 7.854595174139048e-09 -1.1136713452816548e-08 3.2821182786771703e-09 5.779042119191824e-07 0.0 0.0
0.0 0.0005348355981372155 0.00029174582856203874 -0.00038290472483709285 9.115889627505387e-05 0.0005072139426805621 0.0 0.0
0.0 0.000163998472393212 8.52482096165995e-05 -0.00011733615343753209 3.208794382093255e-05 -0.00015788832682924522 0.0 0.0
0.0 3.6085953632721397e-06 -3.888170683355202e-09 -9.848548431949093e-09 1.373671911530554e-08 -1.7077264577476833e-06 0.0 0.0
0.0 4.74037524905525e-06 -1.7342842538654488e-07 1.6522910434432494e-07 8.1993210422206e-09 -5.035728164951913e-06 0.0 0.0
0.0 7.956763630843514e-06 -1.2783143636951394e-07 1.7859699306231767e-07 -5.076555669280299e-08 -1.1767752466132478e-05 0.0 0.0
0.0 3.9180985429581435e-05 1.5284954244430113e-06 -1.0413366849076015e-06 -4.871587395354167e-07 -5.693527140146232e-05 0.0 0.0
0.0 0.00014820526657253184 1.2042801354030846e-05 -9.54810577624317e-06 -2.494695577787661e-06 -0.000228876611577627 0.0 0.0
0.0 0.0003601141696063314 4.2730420940472406e-05 -3.4556785175242457e-05 -8.173635765229966e-06 -0.0005846070280268928 0.0 0.0
0.0 0.0007439319895349174 0.0001169298098872556 -9.508600557773386e-05 -2.184380430952161e-05 -0.0011716779789857823 0.0 0.0
0.0 0.001358861135427915 0.0003069462511353932 -0.0002501588043460389 -5.678744678935402e-05 -0.002191663790191784 0.0 0.0
0.0 0.0024010093640323906 0.0007014754777675017 -0.0005725314707753065 -0.00012894400699219518 -0.0036521422991726213 0.0 0.0
0.0 0.0036661779912431918 0.0013061226797062343 -0.001080787481337614 -0.00022533519836861966 -0.005466032363006756 0.0 0.0
0.0 0.0052897618312336995 0.0020726895379141446 -0.0017608142265892338 -0.00031187531132491 -0.007480466511628678 0.0 0.0
0.0 0.00713021535102645 0.002969028489060721 -0.0025871231002344616 -0.0003819053888262585 -0.009637103296828967 0.0 0.0
0.0 0.00922081859532002 0.004015086563792197 -0.0035800942194152883 -0.0004349923443769096 -0.011917561223064145 0.0 0.0
0.0 0.01157517672822644 0.0053127038953585 -0.0048385547183873515 -0.0004741491769711452 -0.01429323227765644 0.0 0.0
0.0 0.01432678387090101 0.007048316533053552 -0.006542866502726258 -0.0005054500303272925 -0.016606519201210722 0.0 0.0
0.0 0.01750654545374961 0.009475670116361214 -0.008935725152391761 -0.0005399449639694512 -0.01842894625800641 0.0 0.0
0.0 0.021193109892175193 0.012808101871465957 -0.01222170502824066 -0.0005863968432252926 -0.019122024177221583 0.0 0.0
0.0 0.026219557082262146 0.017508374316865388 -0.016926588850267713 -0.0005817854665976716 -0.019030394786781844 0.0 0.0
0.0 0.03404293317322372 0.025151355883825083 -0.024584039168273012 -0.0005673167155520644 -0.01843196346479544 0.0 0.0
0.0 0.03404293317322765 0.02515135588382506 -0.024584039168272884 -0.000567316715552172 0.01843196346482615 0.0 0.0
0.0 0.026219557082264356 0.017508374316860354 -0.01692658885026256 -0.0005817854665978008 0.019030394786828164 0.0 0.0
0.0 0.021193109892171935 0.012808101871458786 -0.01222170502823322 -0.0005863968432255633 0.019122024177247038 0.0 0.0
0.0 0.01750654545374196 0.00947567011635547 -0.008935725152386607 -0.0005399449639688584 0.01842894625800728 0.0 0.0
0.0 0.014326783870892082 0.0070483165330510415 -0.0065428665027245595 -0.0005054500303264813 0.016606519201196403 0.0 0.0
0.0 0.011575176728216802 0.005312703895354329 -0.004838554718383576 -0.0004741491769707517 0.014293232277645545 0.0 0.0
0.0 0.009220818595313896 0.004015086563790722 -0.003580094219413981 -0.0004349923443767405 0.011917561223055626 0.0 0.0
0.0 0.007130215351019683 0.0029690284890587933 -0.002587123100232745 -0.00038190538882604887 0.009637103296820557 0.0 0.0
0.0 0.005289761831225947 0.002072689537912638 -0.0017608142265879854 -0.00031187531132465185 0.007480466511616786 0.0 0.0
0.0 0.003666177991234929 0.0013061226797037068 -0.0010807874813355827 -0.000225335198368124 0.005466032362995228 0.0 0.0
0.0 0.0024010093640240556 0.0007014754777652203 -0.0005725314707735449 -0.0001289440069916759 0.0036521422991611318 0.0 0.0
0.0 0.001358861135424323 0.00030694625113438206 -0.00025015880434525495 -5.678744678912684e-05 0.0021916637901860086 0.0 0.0
0.0 0.0007439319895322381 0.00011692980988671892 -9.50860055772866e-05 -2.184380430943222e-05 0.0011716779789813737 0.0 0.0
0.0 0.0003601141696039146 4.2730420940299564e-05 -3.45567851750767e-05 -8.173635765222836e-06 0.0005846070280243586 0.0 0.0
0.0 0.0001482052665710494 1.2042801354022559e-05 -9.548105776230705e-06 -2.4946955777918496e-06 0.000228876611576853 0.0 0.0
0.0 3.9180985428654056e-05 1.5284954244372464e-06 -1.0413366849035158e-06 -4.871587395337343e-07 5.6935271401196936e-05 0.0 0.0
0.0 7.956763630643151e-06 -1.2783143638130305e-07 1.7859699307605135e-07 -5.0765556694748345e-08 1.1767752466793133e-05 0.0 0.0
0.0 4.740375248367903e-06 -1.7342842541756606e-07 1.6522910437184798e-07 8.199321045717368e-09 5.035728165706624e-06 0.0 0.0
0.0 3.608595362961039e-06 -3.888170687086032e-09 -9.848548442228011e-09 1.3736719129316572e-08 1.7077264585211415e-06 0.0 0.0
0.0 0.00016399847239124857 8.524820961598625e-05 -0.00011733615343670288 3.2087943820716575e-05 0.00015788832682828434 0.0 0.0
0.0 2.0507555977365263e-05 9.389431392772923e-06 -1.3516670133811643e-05 4.127238741038709e-06 -1.9093628971166574e-05 0.0 0.0
0.0 3.2691510297388017e-06 -7.226773325484386e-08 3.35102977232218e-08 3.875743553162694e-08 -1.956903700844492e-06 0.0 0.0
0.0 7.196158764367007e-06 -7.431709414849818e-07 6.341704690227238e-07 1.0900047246225866e-07 -9.117802347187158e-06 0.0 0.0
0.0 1.358725234656455e-05 -1.6235704674240244e-06 1.4323333122289856e-06 1.912371551950407e-07 -1.9722141760909637e-05 0.0 0.0
0.0 4.7718500589346145e-05 -4.697695605310921e-06 4.052298682052054e-06 6.453969232588749e-07 -6.761012737359793e-05 0.0 0.0
0.0 0.00015730945746613074 -1.5700409754305937e-05 1.2944070411357117e-05 2.7563393429488077e-06 -0.0002356800486256967 0.0 0.0
0.0 0.0003659613157473776 -4.559541943829228e-05 3.7051298715210514e-05 8.544120723081742e-06 -0.0005943605062948792 0.0 0.0
0.0 0.0007473891907163342 -0.00011830841389778404 9.620582844075989e-05 2.2102585457024118e-05 -0.0011783688955114323 0.0 0.0
0.0 0.0013585564926943809 -0.0003070612362650399 0.00025026224799256275 5.6798988272477045e-05 -0.002193439771917015 0.0 0.0
0.0 0.0024001508946245075 -0.0007010467846557926 0.0005722273535421385 0.00012881943111365415 -0.0036517630329494263 0.0 0.0
0.0 0.003682287943204082 -0.0013119792836905945 0.001087468437147062 0.00022451084654353203 -0.005471012501643323 0.0 0.0
0.0 0.005321368096030495 -0.002109987991802705 0.0017980245845077617 0.0003119634072949419 -0.007498195553364255 0.0 0.0
0.0 0.007192917755236203 -0.0030473133666513337 0.002662428192416061 0.0003848851742352702 -0.009653628485928493 0.0 0.0
0.0 0.009249571756816184 -0.0040631839179459854 0.003617030969795731 0.00044615294815025114 -0.011911980674870676 0.0 0.0
0.0 0.011322534276511002 -0.005019443980066718 0.004520316041287974 0.0004991279387787446 -0.014263058616629402 0.0 0.0
0.0 0.013247371675066146 -0.00565069401265257 0.00510522887240501 0.0005454651402475538 -0.01666016024745028 0.0 0.0
0.0 0.014680344768310514 -0.005574685083999348 0.004989513647032104 0.0005851714369672435 -0.019088399798981123 0.0 0.0
0.0 0.015505397933164612 -0.004517971425351085 0.003910067123676901 0.0006079043016741812 -0.021635848784477704 0.0 0.0
0.0 0.015725066814435192 -0.002491328922230698 0.001908982905869075 0.0005823460163616203 -0.02392213973921018 0.0 0.0
0.0 0.015612247082633451 0.003529309429816002 -0.003585795779883368 5.648635006736301e-05 -0.02308120614432223 0.0 0.0
0.0 0.01561224708263912 0.0035293094298168132 -0.003585795779883856 5.648635006704644e-05 0.023081206144335772 0.0 0.0
0.0 0.015725066814437277 -0.0024913289222305863 0.0019089829058682429 0.0005823460163623402 0.023922139739222706 0.0 0.0
0.0 0.015505397933155467 -0.004517971425346509 0.003910067123671694 0.0006079043016748113 0.021635848784477506 0.0 0.0
0.0 0.01468034476829868 -0.005574685083993487 0.00498951364702654 0.0005851714369669448 0.019088399798971298 0.0 0.0
0.0 0.013247371675050985 -0.005650694012644503 0.005105228872397529 0.0005454651402469693 0.016660160247432387 0.0 0.0
0.0 0.01132253427649908 -0.005019443980060147 0.004520316041281948 0.0004991279387781938 0.014263058616617913 0.0 0.0
0.0 0.009249571756801862 -0.004063183917937493 0.003617030969787754 0.0004461529481497384 0.011911980674858207 0.0 0.0
0.0 0.007192917755220778 -0.003047313366640933 0.0026624281924061406 0.0003848851742347912 0.00965362848591784 0.0 0.0
0.0 0.005321368096013791 -0.002109987991793825 0.0017980245844994077 0.00031196340729441684 0.007498195553347185 0.0 0.0
0.0 0.003682287943191531 -0.001311979283684062 0.001087468437141326 0.00022451084654273557 0.005471012501629281 0.0 0.0
0.0 0.0024001508946129156 -0.0007010467846517261 0.0005722273535386501 0.00012881943111307537 0.0036517630329357324 0.0 0.0
0.0 0.0013585564926903338 -0.00030706123626336924 0.00025026224799118315 5.67989882721861e-05 0.0021934397719115912 0.0 0.0
0.0 0.0007473891907134154 -0.00011830841389707854 9.620582844017181e-05 2.2102585456906773e-05 0.001178368895507191 0.0 0.0
0.0 0.0003659613157452015 -4.5595419438109787e-05 3.705129871510274e-05 8.544120723007059e-06 0.000594360506292595 0.0 0.0
0.0 0.00015730945746461782 -1.5700409754285487e-05 1.2944070411348398e-05 2.7563393429371077e-06 0.00023568004862501595 0.0 0.0
0.0 4.7718500588118964e-05 -4.697695605321332e-06 4.052298682060341e-06 6.453969232609839e-07 6.761012737380714e-05 0.0 0.0
0.0 1.3587252346299981e-05 -1.6235704674775543e-06 1.4323333122753217e-06 1.9123715520223223e-07 1.9722141761516912e-05 0.0 0.0
0.0 7.1961587638906435e-06 -7.431709415682794e-07 6.34170469092918e-07 1.0900047247536204e-07 9.117802348125495e-06 0.0 0.0
0.0 3.2691510294891002e-06 -7.226773327509279e-08 3.351029770965292e-08 3.875743556544475e-08 1.956903701936266e-06 0.0 0.0
0.0 2.050755597683955e-05 9.389431392964158e-06 -1.3516670134069766e-05 4.127238741105606e-06 1.909362897173453e-05 0.0 0.0
0.0 1.2794705618513804e-06 -7.325646252627723e-08 1.1123042410747284e-07 -3.797396158117645e-08 1.788907911065407e-07 0.0 0.0
0.0 2.256312165149922e-06 -1.2469414049525757e-07 6.832297057623963e-08 5.637116991901645e-08 -2.3757651201716943e-06 0.0 0.0
0.0 8.461001753557356e-06 -1.351202930708076e-06 1.1226407132729115e-06 2.2856221743516122e-07 -1.065584262514221e-05 0.0 0.0
0.0 1.8600082722503982e-05 -3.2821022065446126e-06 2.7942173920451382e-06 4.87884814499486e-07 -2.1857600045478638e-05 0.0 0.0
0.0 5.529219477742955e-05 -1.318570544221652e-05 1.0980417248855484e-05 2.205288193361038e-06 -7.926693631516532e-05 0.0 0.0
0.0 0.00017664219803910762 -4.928564665148043e-05 4.0079508350487844e-05 9.20613830099257e-06 -0.0002569042262863565 0.0 0.0
0.0 0.0005353710097442296 -0.00019512082820964297 0.00015861299083142632 3.650783737821669e-05 -0.0007808030596972256 0.0 0.0
0.0 0.0014459105597653408 -0.000725527872614919 0.0006008627597056415 0.0001246651129092773 -0.0020319251933671135 0.0 0.0
0.0 0.0032900515440686773 -0.001966999509236066 0.0016862215929919942 0.0002807779162440726 -0.003985892570062234 0.0 0.0
0.0 0.005897788633979557 -0.003887100453410358 0.003454288153343729 0.0004328123000666267 -0.006339877717380862 0.0 0.0
0.0 0.00901915282294713 -0.006261316790379131 0.005719475124270763 0.0005418416661083678 -0.008890134529072903 0.0 0.0
0.0 0.012578958951496733 -0.00893662006836712 0.008321766084237823 0.0006148539841292917 -0.01147608547344477 0.0 0.0
0.0 0.016420406184624627 -0.011888250818184362 0.011215594484982449 0.0006726563332019084 -0.014060150548264386 0.0 0.0
0.0 0.020561588416471415 -0.015079826600464322 0.0143552617120685 0.0007245648883958238 -0.01662166686943775 0.0 0.0
0.0 0.024853304304692375 -0.0183569508358239 0.017581177164266104 0.0007757736715577856 -0.019228664203646783 0.0 0.0
0.0 0.028957086054714094 -0.021390198439429332 0.020565021857405722 0.0008251765820236078 -0.021945453734282052 0.0 0.0
0.0 0.03243376955177853 -0.023696924580147195 0.022831328201121034 0.000865596379026168 -0.024858663499991378 0.0 0.0
0.0 0.0346392941591626 -0.02471830812877989 0.023826735308693527 0.000891572820086385 -0.027870743791557042 0.0 0.0
0.0 0.03387615946600363 -0.023331873904299076 0.022346937102628157 0.0009849368016708999 -0.02920282172047847 0.0 0.0
0.0 0.02730539609779445 -0.01642063934299045 0.015320856115560489 0.0010997832274299412 -0.026839050312945156 0.0 0.0
0.0 0.02730539609781091 -0.01642063934299541 0.015320856115565534 0.0010997832274298744 0.026839050312985134 0.0 0.0
0.0 0.033876159466017325 -0.02333187390430006 0.0223469371026293 0.0009849368016707457 0.029202821720529848 0.0 0.0
0.0 0.03463929415915547 -0.024718308128767207 0.023826735308681027 0.0008915728200861628 0.027870743791586286 0.0 0.0
0.0 0.03243376955175334 -0.023696924580125355 0.022831328201099052 0.0008655963790263102 0.02485866349998784 0.0 0.0
0.0 0.028957086054686998 -0.021390198439408405 0.020565021857384957 0.0008251765820234518 0.021945453734263078 0.0 0.0
0.0 0.024853304304667825 -0.0183569508358046 0.017581177164247345 0.0007757736715572564 0.019228664203631965 0.0 0.0
0.0 0.020561588416445065 -0.015079826600443815 0.014355261712048237 0.0007245648883955776 0.01662166686942179 0.0 0.0
0.0 0.016420406184600875 -0.01188825081816449 0.01121559448496311 0.0006726563332013698 0.014060150548253512 0.0 0.0
0.0 0.012578958951469712 -0.008936620068346692 0.008321766084217893 0.0006148539841287989 0.011476085473425412 0.0 0.0
0.0 0.009019152822920838 -0.006261316790360315 0.0057194751242527 0.0005418416661076142 0.008890134529050651 0.0 0.0
0.0 0.0058977886339563815 -0.0038871004533946023 0.003454288153328897 0.0004328123000657059 0.006339877717358491 0.0 0.0
0.0 0.0032900515440542977 -0.0019669995092258825 0.0016862215929827698 0.0002807779162431139 0.003985892570048512 0.0 0.0
0.0 0.0014459105597581995 -0.0007255278726106087 0.0006008627597020181 0.00012466511290859086 0.002031925193358799 0.0 0.0
0.0 0.0005353710097407863 -0.00019512082820853505 0.00015861299083056785 3.650783737796724e-05 0.0007808030596934495 0.0 0.0
0.0 0.00017664219803748823 -4.928564665137954e-05 4.007950835040544e-05 9.206138300974117e-06 0.00025690422628569154 0.0 0.0
0.0 5.52921947765213e-05 -1.3185705442239075e-05 1.0980417248876353e-05 2.205288193362713e-06 7.926693631529294e-05 0.0 0.0
0.0 1.8600082721863384e-05 -3.2821022066262937e-06 2.794217392115309e-06 4.878848145109863e-07 2.185760004600512e-05 0.0 0.0
0.0 8.461001752870961e-06 -1.3512029307917568e-06 1.1226407133408777e-06 2.2856221745087847e-07 1.0655842625774759e-05 0.0 0.0
0.0 2.256312164886994e-06 -1.246941405295595e-07 6.832297058064173e-08 5.637116994891811e-08 2.3757651209741958e-06 0.0 0.0
0.0 1.2794705614589102e-06 -7.325646250320453e-08 1.1123042407310628e-07 -3.797396156990146e-08 -1.7889079104850708e-07 0.0 0.0
0.0 0.0 0.0 0.0 0.0 0.0 0.0 0.0
0.0 1.546319917433396e-06 2.096489414379388e-08 -7.102539574969584e-09 -1.3862354568826943e-08 3.138160816275471e-07 0.0 0.0
0.0 7.6128321031907555e-06 -1.1762802681346995e-06 9.6678835786263e-07 2.0949191027206494e-07 -6.773329185544526e-06 0.0 0.0
0.0 2.1347728146933154e-05 -4.81420677076347e-06 3.994486163644529e-06 8.197206071189499e-07 -2.1079824363980557e-05 0.0 0.0
0.0 6.557211993830412e-05 -2.3360946406114508e-05 1.9148542077637406e-05 4.212404328477116e-06 -8.547322515591079e-05 0.0 0.0
0.0 0.0002607503948372394 -0.00011837942387333231 9.615163273063313e-05 2.222779114269908e-05 -0.00034577560204486496 0.0 0.0
0.0 0.0010173648923265202 -0.0005937973475896844 0.0004902270641932691 0.00010357028339641545 -0.0012696079184864406 0.0 0.0
0.0 0.0029142319430585143 -0.0019871923399209734 0.0017041079412444366 0.0002830843986765374 -0.0031345044176970967 0.0 0.0
0.0 0.006176045907329262 -0.004485760953337422 0.004013859077167272 0.0004719018761701496 -0.00570687623458358 0.0 0.0
0.0 0.010370651754964095 -0.007888019625273152 0.007283805227274837 0.0006042143979983136 -0.008742637759522647 0.0 0.0
0.0 0.015435680681118575 -0.011904655543393919 0.011215627772377971 0.0006890277710159561 -0.011939284193602209 0.0 0.0
0.0 0.02091607975083934 -0.016399479856730508 0.0156458869291212 0.0007535929276093016 -0.01505622296875319 0.0 0.0
0.0 0.026926693162215493 -0.021343560966564895 0.02053287006953837 0.0008106908970265301 -0.018062502587003593 0.0 0.0
0.0 0.03346068228659936 -0.026717480407348063 0.025849954470890037 0.0008675259364580143 -0.021046682086736657 0.0 0.0
0.0 0.040423023713474636 -0.032368560904144715 0.03144055178911112 0.0009280091150335633 -0.024222821008588788 0.0 0.0
0.0 0.04734716026368635 -0.037919896006228984 0.03693044528979236 0.0009894507164365887 -0.027878931416028662 0.0 0.0
0.0 0.05368444528722859 -0.04275511832016747 0.04170789686567007 0.001047221454497386 -0.03217003124570998 0.0 0.0
0.0 0.05793985390186078 -0.04588056449449713 0.044760404738509625 0.0011201597559874744 -0.03631273161528084 0.0 0.0
0.0 0.05806284563749454 -0.045408376060560834 0.044193728653388456 0.001214647407172352 -0.0383390557524895 0.0 0.0
0.0 0.04869291496476222 -0.03737724876510963 0.03592542019138823 0.0014518285737213817 -0.0342732877188023 0.0 0.0
0.0 0.04869291496477233 -0.03737724876510917 0.03592542019138781 0.001451828573721366 0.03427328771884962 0.0 0.0
0.0 0.058062845637496335 -0.045408376060551044 0.04419372865337923 0.0012146474071718161 0.03833905575254992 0.0 0.0
0.0 0.05793985390184864 -0.045880564494478415 0.04476040473849188 0.0011201597559864892 0.036312731615320816 0.0 0.0
0.0 0.053684445287198894 -0.042755118320138966 0.04170789686564286 0.001047221454496131 0.03217003124571693 0.0 0.0
0.0 0.04734716026364187 -0.03791989600619172 0.03693044528975563 0.0009894507164360984 0.02787893141601045 0.0 0.0
0.0 0.040423023713430754 -0.03236856090410847 0.03144055178907498 0.0009280091150334937 0.024222821008569203 0.0 0.0
0.0 0.03346068228655747 -0.02671748040731369 0.02584995447085591 0.0008675259364577789 0.021046682086715902 0.0 0.0
0.0 0.026926693162175712 -0.0213435609665311 0.020532870069505344 0.0008106908970257475 0.018062502586988043 0.0 0.0
0.0 0.020916079750795714 -0.016399479856694876 0.01564588692908608 0.0007535929276087929 0.015056222968729306 0.0 0.0
0.0 0.01543568068107603 -0.011904655543360763 0.0112156277723451 0.0006890277710156608 0.011939284193572014 0.0 0.0
0.0 0.010370651754928828 -0.007888019625246767 0.007283805227248788 0.0006042143979979808 0.00874263775949432 0.0 0.0
0.0 0.006176045907306636 -0.00448576095331975 0.004013859077150414 0.00047190187616933386 0.00570687623456723 0.0 0.0
0.0 0.002914231943045158 -0.0019871923399111513 0.0017041079412356908 0.00028308439867546153 0.0031345044176857685 0.0 0.0
0.0 0.001017364892318508 -0.0005937973475850108 0.0004902270641894391 0.00010357028339557144 0.0012696079184783926 0.0 0.0
0.0 0.00026075039483376445 -0.00011837942387215463 9.615163272968064e-05 2.222779114247394e-05 0.0003457756020416524 0.0 0.0
0.0 6.557211993724807e-05 -2.3360946406178036e-05 1.9148542077684756e-05 4.212404328493241e-06 8.547322515604328e-05 0.0 0.0
0.0 2.1347728146160643e-05 -4.814206770862015e-06 3.994486163725384e-06 8.197206071366178e-07 2.1079824364413916e-05 0.0 0.0
0.0 7.612832102704416e-06 -1.1762802682586719e-06 9.667883579634439e-07 2.0949191029523458e-07 6.77332918625896e-06 0.0 0.0
0.0 1.5463199168796422e-06 2.0964894136532813e-08 -7.10253957316928e-09 -1.3862354563367244e-08 -3.138160815128601e-07 0.0 0.0
0.0 0.0 0.0 0.0 0.0 0.0 0.0 0.0
0.0 0.0 0.0 0.0 0.0 0.0 0.0 0.0
0.0 3.8538157917848767e-07 8.524370000021943e-09 -5.889213621647465e-09 -2.6351563783748637e-09 7.625979648851619e-08 0.0 0.0
0.0 4.583464561504888e-06 -8.07783190308755e-07 6.584493086066941e-07 1.4933388170205595e-07 -3.5691290903701946e-06 0.0 0.0
0.0 2.0708210139852678e-05 -6.9508618859246325e-06 5.722612672832994e-06 1.2282492130916295e-06 -2.2553096951454632e-05 0.0 0.0
0.0 8.714589458641011e-05 -4.065121665780764e-05 3.3116155435065826e-05 7.535061222741834e-06 -0.00010169029711182932 0.0 0.0
0.0 0.00046013247264842716 -0.0002835799595663174 0.00023152537578139117 5.205458378492624e-05 -0.000530445104235813 0.0 0.0
0.0 0.001835349536914803 -0.0013129000254877331 0.0011072793337704137 0.000205620691717319 -0.0018042314829720225 0.0 0.0
0.0 0.00479566153184131 -0.0036689177552711176 0.0032437497182102263 0.00042516803706089013 -0.003988130497273428 0.0 0.0
0.0 0.009375903533146547 -0.007384980462147827 0.006790545474528945 0.0005944349876188827 -0.006945410969809942 0.0 0.0
0.0 0.01519903537920712 -0.012198752917629093 0.011495986080486709 0.0007027668371423814 -0.010402217046627672 0.0 0.0
0.0 0.021974979089970675 -0.017819420522067662 0.017038993479579975 0.0007804270424876878 -0.013949767906520109 0.0 0.0
0.0 0.029515446987609974 -0.02410687465124639 0.023258432733840526 0.0008484419174058493 -0.01734149915632936 0.0 0.0
0.0 0.03779736156253989 -0.03103635813525908 0.03012462829250113 0.0009117298427579279 -0.020584840497156698 0.0 0.0
0.0 0.046764543757075 -0.03860350686496375 0.03762768608645156 0.0009758207785121973 -0.023814879333494052 0.0 0.0
0.0 0.05640100186681411 -0.046671093183077154 0.04562652603060557 0.0010445671524715132 -0.027352360090778315 0.0 0.0
0.0 0.06626825694124937 -0.054820144167193635 0.053700289611370036 0.0011198545558235677 -0.03165870675941811 0.0 0.0
0.0 0.07532817287625519 -0.06218690348042738 0.06098268501171207 0.0012042184687152846 -0.03683541473118093 0.0 0.0
0.0 0.08178665409116077 -0.06722570966818858 0.0659227280872231 0.0013029815809654376 -0.04187401602354024 0.0 0.0
0.0 0.08220432460647562 -0.06725343821388104 0.06580579219027036 0.001447646023610665 -0.044107233923875784 0.0 0.0
0.0 0.07072672609366602 -0.0574123164788635 0.0557428901923709 0.0016694262864926195 -0.04022601139644348 0.0 0.0
0.0 0.07072672609367277 -0.057412316478861 0.05574289019236848 0.0016694262864924967 0.04022601139649498 0.0 0.0
0.0 0.08220432460647022 -0.06725343821386617 0.06580579219025517 0.001447646023610979 0.044107233923943286 0.0 0.0
0.0 0.08178665409113628 -0.06722570966815981 0.06592272808719421 0.0013029815809655707 0.0418740160235873 0.0 0.0
0.0 0.0753281728762106 -0.06218690348038613 0.060982685011671076 0.0012042184687150307 0.036835414731190216 0.0 0.0
0.0 0.06626825694119616 -0.05482014416714763 0.05370028961132463 0.0011198545558230052 0.03165870675940512 0.0 0.0
0.0 0.056401001866758574 -0.046671093183030074 0.04562652603055876 0.001044567152471271 0.027352360090759503 0.0 0.0
0.0 0.04676454375701878 -0.03860350686491653 0.037627686086404585 0.0009758207785119553 0.023814879333471678 0.0 0.0
0.0 0.037797361562489834 -0.0310363581352162 0.030124628292458953 0.0009117298427572655 0.020584840497140537 0.0 0.0
0.0 0.029515446987558952 -0.024106874651203456 0.023258432733798188 0.0008484419174052537 0.017341499156306256 0.0 0.0
0.0 0.02197497908992184 -0.01781942052202793 0.01703899347954078 0.0007804270424871465 0.013949767906490652 0.0 0.0
0.0 0.01519903537916626 -0.012198752917596653 0.011495986080454875 0.0007027668371417757 0.01040221704659897 0.0 0.0
0.0 0.009375903533118585 -0.0073849804621257025 0.006790545474507477 0.0005944349876182303 0.006945410969792343 0.0 0.0
0.0 0.004795661531823474 -0.0036689177552570616 0.0032437497181972475 0.0004251680370598127 0.003988130497261442 0.0 0.0
0.0 0.0018353495369057182 -0.0013129000254815419 0.0011072793337649242 0.00020562069171661744 0.0018042314829643902 0.0 0.0
0.0 0.0004601324726444988 -0.00028357995956444077 0.00023152537577983867 5.205458378460205e-05 0.0005304451042327665 0.0 0.0
0.0 8.714589458517374e-05 -4.0651216657706296e-05 3.311615543497521e-05 7.535061222731015e-06 0.0001016902971115288 0.0 0.0
0.0 2.07082101390678e-05 -6.950861886049927e-06 5.722612672929834e-06 1.2282492131200903e-06 2.2553096951797528e-05 0.0 0.0
0.0 4.583464561093534e-06 -8.077831904753758e-07 6.584493087411288e-07 1.4933388173424535e-07 3.569129091116289e-06 0.0 0.0
0.0 3.8538157904294466e-07 8.52436999717895e-09 -5.889213619678072e-09 -2.6351563774992616e-09 -7.62597964614563e-08 0.0 0.0
0.0 0.0 0.0 0.0 0.0 0.0 0.0 0.0
0.0 0.0 0.0 0.0 0.0 0.0 0.0 0.0
0.0 0.0 0.0 0.0 0.0 0.0 0.0 0.0
0.0 1.967801996483654e-06 -3.499304368320897e-07 2.8575757932751105e-07 6.417285750458221e-08 -1.227239261723274e-06 0.0 0.0
0.0 1.9606076560124256e-05 -6.037550867243646e-06 4.910770920999085e-06 1.1267799462445717e-06 -1.4573022057759164e-05 0.0 0.0
0.0 0.00014069250417028586 -7.592165612783583e-05 6.155562344650143e-05 1.4366032681334367e-05 -0.00013305302353198992 0.0 0.0
0.0 0.0008214777689579235 -0.0006010372519045854 0.0004957175957380625 0.0001053196561665228 -0.0007610218864938557 0.0 0.0
0.0 0.002945348259814842 -0.002307269509813201 0.0019902423031959043 0.0003170272066172967 -0.0022002824235169325 0.0 0.0
0.0 0.006946433951820666 -0.005625471024960872 0.005093104769328562 0.0005323662556323077 -0.004518174860346706 0.0 0.0
0.0 0.012764948298531191 -0.010510824032724634 0.009836438554479503 0.0006743854782451281 -0.00765737825928303 0.0 0.0
0.0 0.020115412556982085 -0.01668230133023203 0.01591156499721196 0.0007707363330200698 -0.011233109810596656 0.0 0.0
0.0 0.02867014851161112 -0.02387986224204672 0.023028332366228643 0.0008515298758180775 -0.014844898070024471 0.0 0.0
0.0 0.038233560156381914 -0.0319556744740732 0.031029319209545166 0.0009263552645280402 -0.018308126789780645 0.0 0.0
0.0 0.04873731871231825 -0.04086902000346371 0.03987164849102591 0.0009973715124377619 -0.02162169076682764 0.0 0.0
0.0 0.06020672214210563 -0.05062417453010578 0.049556220101708695 0.0010679544283970885 -0.024894421797367915 0.0 0.0
0.0 0.07260628808104123 -0.06111707971229656 0.05997180024511334 0.00114527946718321 -0.0284828393372626 0.0 0.0
0.0 0.08520720993549304 -0.07186950712523427 0.07063300975917294 0.0012364973660613223 -0.032904292571601435 0.0 0.0
0.0 0.09714391743490167 -0.08171444185726598 0.08036893448651028 0.0013455073707556804 -0.03832524465781531 0.0 0.0
0.0 0.10553016110657894 -0.08850078362554152 0.08702135883442227 0.0014794247911192608 -0.04374247686381004 0.0 0.0
0.0 0.1061088584020613 -0.08871760841042131 0.087071723106129 0.0016458853042922931 -0.04672239291505463 0.0 0.0
0.0 0.09293850914138901 -0.07711196335285733 0.07527092464106148 0.001841038711795843 -0.0453508595158585 0.0 0.0
0.0 0.09293850914139233 -0.07711196335285263 0.07527092464105681 0.001841038711795769 0.04535085951591192 0.0 0.0
0.0 0.10610885840204733 -0.08871760841040041 0.08707172310610826 0.001645885304292133 0.0467223929151213 0.0 0.0
0.0 0.1055301611065439 -0.08850078362550479 0.08702135883438572 0.0014794247911189542 0.04374247686385804 0.0 0.0
0.0 0.0971439174348447 -0.08171444185721441 0.08036893448645856 0.0013455073707557982 0.03832524465782618 0.0 0.0
0.0 0.08520720993542368 -0.07186950712517448 0.07063300975911284 0.0012364973660616192 0.03290429257158885 0.0 0.0
0.0 0.07260628808096932 -0.06111707971223494 0.05997180024505161 0.001145279467183347 0.028482839337244867 0.0 0.0
0.0 0.060206722142033195 -0.050624174530044024 0.04955622010164716 0.00106795442839687 0.024894421797345294 0.0 0.0
0.0 0.04873731871225194 -0.04086902000340673 0.03987164849096916 0.0009973715124375637 0.021621690766809393 0.0 0.0
0.0 0.03823356015631911 -0.03195567447401951 0.03102931920949237 0.0009263552645271252 0.018308126789757576 0.0 0.0
0.0 0.028670148511550524 -0.02387986224199607 0.023028332366178753 0.0008515298758172989 0.014844898069994016 0.0 0.0
0.0 0.020115412556928204 -0.016682301330187374 0.015911564997167886 0.0007707363330194925 0.011233109810565326 0.0 0.0
0.0 0.012764948298490177 -0.010510824032690685 0.009836438554446127 0.000674385478244563 0.007657378259261272 0.0 0.0
0.0 0.0069464339517923785 -0.005625471024937889 0.005093104769306448 0.0005323662556314429 0.004518174860330364 0.0 0.0
0.0 0.0029453482597986097 -0.002307269509800618 0.001990242303184608 0.00031702720661601016 0.0022002824235063893 0.0 0.0
0.0 0.0008214777689509261 -0.000601037251900063 0.000495717595734254 0.00010531965616580856 0.0007610218864884628 0.0 0.0
0.0 0.0001406925041683292 -7.592165612726651e-05 6.155562344603154e-05 1.4366032681234866e-05 0.00013305302353104013 0.0 0.0
0.0 1.9606076559347845e-05 -6.03755086729068e-06 4.910770921034881e-06 1.1267799462558072e-06 1.4573022057885076e-05 0.0 0.0
0.0 1.9678019963919845e-06 -3.499304369544417e-07 2.857575794264693e-07 6.417285752797026e-08 1.2272392621542153e-06 0.0 0.0
0.0 0.0 0.0 0.0 0.0 0.0 0.0 0.0
0.0 0.0 0.0 0.0 0.0 0.0 0.0 0.0
0.0 0.0 0.0 0.0 0.0 0.0 0.0 0.0
0.0 0.0 0.0 0.0 0.0 0.0 0.0 0.0
0.0 9.159772724021529e-07 5.630253744311479e-08 -4.536700834069255e-08 -1.0935529102421052e-08 1.5681455061216043e-07 0.0 0.0
0.0 1.684561730430686e-05 -8.55164995973156e-06 6.889133273122479e-06 1.6625166866091212e-06 -1.5675463908028384e-05 0.0 0.0
0.0 0.0002327700775698507 -0.00016046999618604026 0.00013003012631831735 3.0439869867722952e-05 -0.0002008009122330056 0.0 0.0
0.0 0.0013807433436455324 -0.0010872425202452637 0.00090874271401542 0.00017849980622984408 -0.000948148298404982 0.0 0.0
0.0 0.004322498023313538 -0.0035175496701948103 0.0030994426892305537 0.00041810698096425754 -0.002393549794331803 0.0 0.0
0.0 0.009219307036660402 -0.007775825314804583 0.0071664600580858984 0.0006093652567186829 -0.004705997525039984 0.0 0.0
0.0 0.01626412718570434 -0.013766093572486662 0.0130360349070173 0.0007300586654693669 -0.0077619093357620995 0.0 0.0
0.0 0.02511704904443893 -0.021259597248218114 0.02043478040476367 0.0008248168434544507 -0.011188774875983224 0.0 0.0
0.0 0.035441080839954786 -0.03002336499983743 0.0291116400827871 0.0009117249170503092 -0.014671365494368193 0.0 0.0
0.0 0.0470045658470528 -0.03988913631344613 0.03889455713333295 0.000994579180113142 -0.01800972313828393 0.0 0.0
0.0 0.05980126618496813 -0.05078801050558958 0.04971397385919321 0.0010740366463963592 -0.021213228496043172 0.0 0.0
0.0 0.07363114400099284 -0.06271599690316021 0.061564216896925525 0.001151780006234708 -0.024364175008699543 0.0 0.0
0.0 0.08864408876730417 -0.07558184062087679 0.07434513164395921 0.001236708976917589 -0.02766256704238742 0.0 0.0
0.0 0.10428065852801995 -0.08886458554958326 0.08752172413740468 0.00134286141217859 -0.031596133004132 0.0 0.0
0.0 0.1185875378450922 -0.10111832081753332 0.09964081366498947 0.001477507152543788 -0.03661259240562486 0.0 0.0
0.0 0.12868814654969793 -0.10957583559697892 0.10793543794364209 0.0016403976533368035 -0.042219351986037316 0.0 0.0
0.0 0.12972419179472358 -0.1100378264154471 0.10821898586723905 0.0018188405482080033 -0.0469397545761738 0.0 0.0
0.0 0.11564110369198463 -0.0969731755745869 0.0949747537885227 0.0019984217860642074 -0.05006185398811209 0.0 0.0
0.0 0.11564110369198737 -0.09697317557458238 0.0949747537885188 0.0019984217860635083 0.05006185398816555 0.0 0.0
0.0 0.12972419179470715 -0.11003782641542502 0.1082189858672177 0.001818840548207288 0.0469397545762443 0.0 0.0
0.0 0.12868814654965569 -0.10957583559693673 0.107935437943601 0.0016403976533357323 0.042219351986085854 0.0 0.0
0.0 0.11858753784503029 -0.10111832081747721 0.09964081366493475 0.001477507152542405 0.03661259240563742 0.0 0.0
0.0 0.10428065852794564 -0.08886458554951822 0.08752172413734073 0.0013428614121774691 0.03159613300412531 0.0 0.0
0.0 0.08864408876722338 -0.07558184062080661 0.0743451316438897 0.001236708976916844 0.027662567042376088 0.0 0.0
0.0 0.07363114400090974 -0.06271599690308871 0.06156421689685396 0.0011517800062347434 0.02436417500868126 0.0 0.0
0.0 0.05980126618488943 -0.0507880105055212 0.04971397385912563 0.0010740366463955098 0.021213228496025596 0.0 0.0
0.0 0.047004565846974614 -0.03988913631337872 0.038894557133266054 0.000994579180112659 0.018009723138261914 0.0 0.0
0.0 0.03544108083988269 -0.030023364999776522 0.029111640082726528 0.0009117249170499941 0.014671365494337604 0.0 0.0
0.0 0.025117049044379693 -0.021259597248168338 0.020434780404714293 0.0008248168434540316 0.011188774875954571 0.0 0.0
0.0 0.016264127185661177 -0.013766093572449897 0.013036034906981053 0.0007300586654688418 0.007761909335743633 0.0 0.0
0.0 0.009219307036627053 -0.0077758253147764776 0.0071664600580584395 0.0006093652567180313 0.004705997525024512 0.0 0.0
0.0 0.004322498023292515 -0.0035175496701777406 0.0030994426892146094 0.000418106980963133 0.002393549794321057 0.0 0.0
0.0 0.001380743343635347 -0.0010872425202377034 0.0009087427140088308 0.00017849980622887214 0.0009481482983985791 0.0 0.0
0.0 0.00023277007756670914 -0.00016046999618447063 0.0001300301263170028 3.0439869867467707e-05 0.00020080091223111156 0.0 0.0
0.0 1.6845617304226655e-05 -8.55164996008644e-06 6.889133273404433e-06 1.6625166866819862e-06 1.5675463908672502e-05 0.0 0.0
0.0 9.159772720464821e-07 5.630253742091469e-08 -4.5367008322703315e-08 -1.0935529098212496e-08 -1.5681455054918204e-07 0.0 0.0
0.0 0.0 0.0 0.0 0.0 0.0 0.0 0.0
0.0 0.0 0.0 0.0 0.0 0.0 0.0 0.0
0.0 0.0 0.0 0.0 0.0 0.0 0.0 0.0
0.0 0.0 0.0 0.0 0.0 0.0 0.0 0.0
0.0 2.633745482838499e-07 1.9034837468267232e-08 -1.5232417022672714e-08 -3.80242044559584e-09 3.959451352121644e-08 0.0 0.0
0.0 1.799065474781224e-05 -1.1320407704543888e-05 9.057174860550893e-06 2.263232843993015e-06 -1.531231970105559e-05 0.0 0.0
0.0 0.00040991087964569654 -0.0003145153164916989 0.0002556782595806344 5.883705691106457e-05 -0.00027267785273061716 0.0 0.0
0.0 0.0021373338488062457 -0.0017385791603761883 0.0014771838776887866 0.00026139528268740304 -0.001034839090863095 0.0 0.0
0.0 0.005692601105027527 -0.004911345161073824 0.00440944512509932 0.0005019000359745067 -0.00239508378898484 0.0 0.0
0.0 0.01161974840227806 -0.01003671872205806 0.009374332043075185 0.0006623866789828769 -0.00449319420566854 0.0 0.0
0.0 0.019883280803775733 -0.017083579548062097 0.016310532366194053 0.0007730471818680443 -0.007212460412675862 0.0 0.0
0.0 0.030175474496450028 -0.025883825609949375 0.025013176471625542 0.000870649138323847 -0.010302817348578791 0.0 0.0
0.0 0.04223689633355025 -0.03620414716517877 0.035239874442675206 0.0009642727225035417 -0.013444148741240435 0.0 0.0
0.0 0.05583370693954815 -0.047861788002301314 0.046806090830061056 0.0010556971722402322 -0.0164615624305283 0.0 0.0
0.0 0.07082738443725527 -0.060754824358086816 0.05961035941911111 0.001144464938975682 -0.019384739695927827 0.0 0.0
0.0 0.08719688299098634 -0.07482899131076402 0.07359727416768061 0.0012317171430834062 -0.022225767106497242 0.0 0.0
0.0 0.1047609722172636 -0.08996150720239247 0.08863769866194582 0.001323808540446679 -0.024989482529964913 0.0 0.0
0.0 0.12271594017068381 -0.10561777878330977 0.1041785685241507 0.0014392102591590209 -0.02793220270907828 0.0 0.0
0.0 0.13967091095577222 -0.12018788978811205 0.11859210674575955 0.0015957830423524721 -0.031817455352352364 0.0 0.0
0.0 0.15178169268798966 -0.13042339136207873 0.12864007286827372 0.001783318493804989 -0.03741958880372549 0.0 0.0
0.0 0.1536477774546818 -0.13149765713466738 0.12951894654353197 0.0019787105911353332 -0.04487615931368923 0.0 0.0
0.0 0.13895616847657496 -0.11741489345195225 0.11526020840841991 0.0021546850435321795 -0.0543779597238996 0.0 0.0
0.0 0.13895616847656944 -0.11741489345194162 0.11526020840840909 0.0021546850435325807 0.054377959723950625 0.0 0.0
0.0 0.1536477774546473 -0.13149765713463224 0.12951894654349635 0.001978710591135938 0.04487615931375023 0.0 0.0
0.0 0.15178169268792754 -0.13042339136202227 0.12864007286821616 0.001783318493805983 0.03741958880376641 0.0 0.0
0.0 0.13967091095569711 -0.12018788978804576 0.11859210674569375 0.0015957830423520203 0.03181745535236202 0.0 0.0
0.0 0.12271594017059659 -0.10561777878323374 0.10417856852407537 0.0014392102591583012 0.02793220270907352 0.0 0.0
0.0 0.10476097221717204 -0.08996150720231283 0.08863769866186727 0.0013238085404455356 0.024989482529955517 0.0 0.0
0.0 0.0871968829908909 -0.07482899131068149 0.07359727416759898 0.0012317171430824203 0.02222576710648092 0.0 0.0
0.0 0.07082738443715893 -0.060754824358003556 0.0596103594190283 0.0011444649389752478 0.019384739695910543 0.0 0.0
0.0 0.05583370693945831 -0.047861788002223425 0.04680609082998393 0.0010556971722395188 0.016461562430508704 0.0 0.0
0.0 0.04223689633347246 -0.03620414716511174 0.03523987444260918 0.0009642727225025329 0.013444148741213444 0.0 0.0
0.0 0.030175474496382373 -0.025883825609891147 0.025013176471568165 0.0008706491383229687 0.010302817348554035 0.0 0.0
0.0 0.019883280803720142 -0.017083579548014045 0.016310532366146407 0.000773047181867638 0.007212460412657933 0.0 0.0
0.0 0.011619748402237885 -0.010036718722023354 0.009374332043041157 0.0006623866789821972 0.0044931942056535175 0.0 0.0
0.0 0.005692601105002096 -0.00491134516105208 0.004409445125078652 0.0005019000359734258 0.002395083788974789 0.0 0.0
0.0 0.0021373338487926845 -0.0017385791603655879 0.001477183877679332 0.00026139528268625547 0.0010348390908571797 0.0 0.0
0.0 0.0004099108796415112 -0.0003145153164891681 0.00025567825957851614 5.88370569106518e-05 0.00027267785272856726 0.0 0.0
0.0 1.7990654747455684e-05 -1.132040770486604e-05 9.057174860795031e-06 2.263232844071014e-06 1.531231970144338e-05 0.0 0.0
0.0 2.633745479801639e-07 1.90348374459991e-08 -1.5232417004860948e-08 -3.802420441135515e-09 -3.959451347502403e-08 0.0 0.0
0.0 0.0 0.0 0.0 0.0 0.0 0.0 0.0
0.0 0.0 0.0 0.0 0.0 0.0 0.0 0.0
0.0 0.0 0.0 0.0 0.0 0.0 0.0 0.0
0.0 0.0 0.0 0.0 0.0 0.0 0.0 0.0
0.0 0.0 0.0 0.0 0.0 0.0 0.0 0.0
0.0 2.7554879990837805e-05 -2.0112352791461097e-05 1.6102885361516867e-05 4.009467429944221e-06 -1.9168731211169054e-05 0.0 0.0
0.0 0.0007129141226649796 -0.000570365252470861 0.00046671110946453533 0.00010365414300632542 -0.0003185397452381819 0.0 0.0
0.0 0.00301968105301592 -0.002547547359858326 0.002201155019406504 0.0003463923404518223 -0.0009971565097312324 0.0 0.0
0.0 0.007272026539597013 -0.006411897365858172 0.005845745274035006 0.000566152091823167 -0.0021156443725529237 0.0 0.0
0.0 0.014148988610135131 -0.012347155221981682 0.011646006242777647 0.0007011489792040303 -0.0038099493343821283 0.0 0.0
0.0 0.02354604429068046 -0.020426520709410975 0.01961837511042156 0.0008081455989893993 -0.00603911616937388 0.0 0.0
0.0 0.03526930719379308 -0.030512833373090277 0.029602743765990116 0.000910089607100154 -0.008586880860757163 0.0 0.0
0.0 0.04907578130668713 -0.04238023215494497 0.041369227351747515 0.0010110048031974355 -0.011183153965203852 0.0 0.0
0.0 0.06464667299673804 -0.055832013937462226 0.05472112040730902 0.001110893530153202 -0.01367347687353313 0.0 0.0
0.0 0.08199017037064533 -0.07072576758056473 0.06951581052770699 0.0012099570528577343 -0.016100318029422852 0.0 0.0
0.0 0.1006151658679462 -0.08693014125012492 0.08562126047873164 0.00130888077139329 -0.018486360081669657 0.0 0.0
0.0 0.12051070441226128 -0.10420545623579103 0.10279471399494731 0.0014107422408437273 -0.02061647722841679 0.0 0.0
0.0 0.14098889930457376 -0.12196611770959866 0.12043694185996978 0.0015291758496288187 -0.02226736711207878 0.0 0.0
0.0 0.160276603680322 -0.13868388935766635 0.13699427663460875 0.0016896127230576082 -0.024260991353766203 0.0 0.0
0.0 0.17465263678332588 -0.15099455189678973 0.14908710851880336 0.0019074433779863093 -0.02927565965172219 0.0 0.0
0.0 0.1780593902414977 -0.15335228304067494 0.15122250023909115 0.002129782801583895 -0.04006925117651289 0.0 0.0
0.0 0.16360923142531117 -0.13890607808432973 0.13658327681752588 0.002322801266803811 -0.057971862364982085 0.0 0.0
0.0 0.16360923142530048 -0.13890607808431632 0.13658327681751248 0.0023228012668037533 0.057971862365021554 0.0 0.0
0.0 0.1780593902414565 -0.15335228304063553 0.1512225002390521 0.0021297828015834747 0.04006925117656472 0.0 0.0
0.0 0.1746526367832595 -0.15099455189672972 0.14908710851874443 0.0019074433779851874 0.029275659651759253 0.0 0.0
0.0 0.160276603680236 -0.13868388935759082 0.13699427663453467 0.0016896127230562074 0.024260991353774276 0.0 0.0
0.0 0.14098889930446803 -0.12196611770950691 0.12043694185987858 0.001529175849628337 0.022267367112075238 0.0 0.0
0.0 0.12051070441215354 -0.10420545623569741 0.10279471399485435 0.0014107422408431072 0.020616477228411617 0.0 0.0
0.0 0.10061516586784122 -0.08693014125003379 0.0856212604786416 0.0013088807713921512 0.018486360081658257 0.0 0.0
0.0 0.08199017037053845 -0.07072576758047205 0.0695158105276148 0.001209957052857276 0.016100318029410414 0.0 0.0
0.0 0.06464667299663497 -0.055832013937373186 0.05472112040722024 0.0011108935301529254 0.01367347687351855 0.0 0.0
0.0 0.04907578130659597 -0.042380232154866006 0.04136922735166902 0.0010110048031969638 0.011183153965181401 0.0 0.0
0.0 0.035269307193716314 -0.03051283337302375 0.0296027437659242 0.0009100896070995472 0.008586880860735419 0.0 0.0
0.0 0.02354604429062091 -0.020426520709359023 0.0196183751103704 0.0008081455989886266 0.00603911616935855 0.0 0.0
0.0 0.014148988610094924 -0.012347155221946321 0.011646006242743104 0.0007011489792032176 0.0038099493343710725 0.0 0.0
0.0 0.0072720265395685504 -0.006411897365833155 0.005845745274010822 0.0005661520918223377 0.0021156443725448594 0.0 0.0
0.0 0.0030196810530004475 -0.0025475473598453886 0.0022011550193947564 0.000346392340450632 0.0009971565097260527 0.0 0.0
0.0 0.0007129141226591225 -0.0005703652524666217 0.000466711109460987 0.00010365414300563489 0.0003185397452360882 0.0 0.0
0.0 2.7554879990036468e-05 -2.0112352791505258e-05 1.6102885361531616e-05 4.0094674299736625e-06 1.9168731211154123e-05 0.0 0.0
0.0 0.0 0.0 0.0 0.0 0.0 0.0 0.0
0.0 0.0 0.0 0.0 0.0 0.0 0.0 0.0
0.0 0.0 0.0 0.0 0.0 0.0 0.0 0.0
0.0 0.0 0.0 0.0 0.0 0.0 0.0 0.0
0.0 0.0 0.0 0.0 0.0 0.0 0.0 0.0
0.0 0.0 0.0 0.0 0.0 0.0 0.0 0.0
0.0 6.205528413817943e-05 -4.81687512717235e-05 3.849103718273781e-05 9.677714088985716e-06 -2.8004146231731878e-05 0.0 0.0
0.0 0.0011704841748493777 -0.0009466553299589718 0.0007837067550300104 0.0001629485749289612 -0.0003024827742502604 0.0 0.0
0.0 0.0038724634628561207 -0.0034913234395639882 0.0030653911722331676 0.00042593226733081895 -0.000783586736311211 0.0 0.0
0.0 0.008988870640823411 -0.007968187099865692 0.00735641675744484 0.0006117703424208549 -0.001544504969480375 0.0 0.0
0.0 0.016724899774799296 -0.014678895824695976 0.013947206359612935 0.0007316894650830495 -0.002697589745692259 0.0 0.0
0.0 0.027228469143539637 -0.023756923168794693 0.022920017528470397 0.0008369056403242898 -0.004247260449430016 0.0 0.0
0.0 0.04036467292596121 -0.03510724490618023 0.03416315907510209 0.0009440858310781372 -0.006045580546440282 0.0 0.0
0.0 0.05589106803957254 -0.04851309572206973 0.047460408183614036 0.0010526875384556697 -0.00788137768585622 0.0 0.0
0.0 0.07360105636525638 -0.06375825863126103 0.06259688563184203 0.001161372999418997 -0.009642924893467896 0.0 0.0
0.0 0.09298684130071891 -0.08065817739216033 0.07938717539679936 0.0012710019953610025 -0.0113889382681889 0.0 0.0
0.0 0.1140688977593243 -0.09897408008184144 0.09759117465913346 0.001382905422707934 -0.01308848938203333 0.0 0.0
0.0 0.13636151667684604 -0.11829769514025754 0.11679923690166327 0.0014984582385941818 -0.014477923521035963 0.0 0.0
0.0 0.15892381605903483 -0.13789129064093172 0.13627033674287392 0.0016209538980577632 -0.015083228012076311 0.0 0.0
0.0 0.18017318153250228 -0.1563660144619165 0.15459901419117983 0.0017670002707367884 -0.01500416782384513 0.0 0.0
0.0 0.19699163958490176 -0.17090466046117353 0.1689315106881538 0.0019731497730196596 -0.01751774392581765 0.0 0.0
0.0 0.20326902343455175 -0.17581966083427297 0.17353256967562417 0.0022870911586486548 -0.03085324580596497 0.0 0.0
0.0 0.19021115811597505 -0.1621488735438954 0.15962942775593442 0.002519445787960898 -0.06003040110601783 0.0 0.0
0.0 0.19021115811596198 -0.16214887354388108 0.15962942775592093 0.002519445787960038 0.06003040110604798 0.0 0.0
0.0 0.20326902343450298 -0.1758196608342284 0.17353256967558034 0.0022870911586480125 0.030853245806007294 0.0 0.0
0.0 0.1969916395848208 -0.17090466046110225 0.16893151068808362 0.001973149773018735 0.01751774392584472 0.0 0.0
0.0 0.1801731815323977 -0.15636601446182552 0.15459901419108954 0.0017670002707359928 0.01500416782384821 0.0 0.0
0.0 0.15892381605891964 -0.13789129064083183 0.13627033674277458 0.0016209538980572042 0.015083228012072604 0.0 0.0
0.0 0.13636151667672464 -0.1182976951401522 0.11679923690155822 0.0014984582385939756 0.014477923521034351 0.0 0.0
0.0 0.11406889775920334 -0.09897408008173667 0.0975911746590291 0.0013829054227075164 0.01308848938202772 0.0 0.0
0.0 0.09298684130059841 -0.08065817739205582 0.07938717539669547 0.001271001995360355 0.011388938268181228 0.0 0.0
0.0 0.07360105636514021 -0.06375825863115982 0.06259688563174183 0.0011613729994179684 0.009642924893458433 0.0 0.0
0.0 0.05589106803946999 -0.04851309572198066 0.047460408183526 0.001052687538454646 0.007881377685839972 0.0 0.0
0.0 0.040364672925875845 -0.03510724490610605 0.03416315907502859 0.0009440858310774636 0.006045580546424165 0.0 0.0
0.0 0.027228469143471754 -0.023756923168735004 0.022920017528411416 0.0008369056403235884 0.004247260449420832 0.0 0.0
0.0 0.0167248997747508 -0.014678895824653196 0.013947206359570932 0.0007316894650822532 0.0026975897456845642 0.0 0.0
0.0 0.008988870640791792 -0.007968187099837466 0.0073564167574175065 0.0006117703424199571 0.0015445049694743892 0.0 0.0
0.0 0.0038724634628386177 -0.0034913234395483337 0.003065391172218599 0.0004259322673297353 0.0007835867363076082 0.0 0.0
0.0 0.0011704841748405549 -0.000946655329951988 0.0007837067550240274 0.00016294857492796035 0.0003024827742483891 0.0 0.0
0.0 6.205528413697874e-05 -4.8168751271533086e-05 3.8491037182557293e-05 9.677714088975748e-06 2.800414623157616e-05 0.0 0.0
0.0 0.0 0.0 0.0 0.0 0.0 0.0 0.0
0.0 0.0 0.0 0.0 0.0 0.0 0.0 0.0
0.0 0.0 0.0 0.0 0.0 0.0 0.0 0.0
0.0 0.0 0.0 0.0 0.0 0.0 0.0 0.0
0.0 0.0 0.0 0.0 0.0 0.0 0.0 0.0
0.0 0.0 0.0 0.0 0.0 0.0 0.0 0.0
0.0 0.0001628885891367437 -0.00013792040009857594 0.00010990612674469626 2.8014273353879767e-05 -3.385193480350832e-05 0.0 0.0
0.0 0.0017879185019632933 -0.0014381993968234617 0.0012058104288898345 0.00023238896793362657 -0.0001804778469196166 0.0 0.0
0.0 0.0049911283896332745 -0.004499699044148223 0.004008994985019855 0.0004907040591283686 -0.00036999878420718646 0.0 0.0
0.0 0.010764581734858532 -0.00955721354075648 0.008910676538116486 0.0006465370026399909 -0.000679737795057011 0.0 0.0
0.0 0.01934126165939347 -0.016998709976901744 0.016243108818549762 0.0007556011583519776 -0.0011596085617130113 0.0 0.0
0.0 0.030928164208550084 -0.027037034325073095 0.026176110491475325 0.0008609238335977659 -0.0018455053308749794 0.0 0.0
0.0 0.045486444389934086 -0.03962666467529869 0.038653450367975406 0.0009732143073232923 -0.0026752089032685373 0.0 0.0
0.0 0.06280653283809262 -0.05456488905593801 0.05347520795036835 0.0010896811055696553 -0.0035377943971541346 0.0 0.0
0.0 0.08232088685189173 -0.07160803479426028 0.07040007545325827 0.0012079593410020046 -0.004383053283378928 0.0 0.0
0.0 0.10403847062873739 -0.0904971114377707 0.08916903530263807 0.0013280761351326385 -0.005212037872418377 0.0 0.0
0.0 0.1275668795317097 -0.11089723679535131 0.10944471502358517 0.0014525217717661334 -0.005972331500055297 0.0 0.0
0.0 0.15217270680472045 -0.1322353337298069 0.13065234826532462 0.0015829854644823346 -0.006504413873111861 0.0 0.0
0.0 0.17674313047410017 -0.153529533717839 0.15181151089692058 0.0017180228209183167 -0.006453914976705451 0.0 0.0
0.0 0.1995306226044986 -0.17329323314938572 0.1714384434061429 0.001854789743242807 -0.005406959909470514 0.0 0.0
0.0 0.21802829465820228 -0.18936315317898392 0.18735510073076297 0.002008052448220706 -0.004430037944074193 0.0 0.0
0.0 0.22809417341083324 -0.1978910237054876 0.19563966577965106 0.0022513579258364633 -0.013124894136503525 0.0 0.0
0.0 0.22047599379175187 -0.189052897745228 0.18615676896587063 0.002896128779357272 -0.055389562685081675 0.0 0.0
0.0 0.22047599379172944 -0.18905289774520806 0.18615676896585026 0.002896128779357569 0.05538956268509171 0.0 0.0
0.0 0.22809417341077368 -0.19789102370543588 0.19563966577959907 0.0022513579258365444 0.013124894136524502 0.0 0.0
0.0 0.2180282946581124 -0.18936315317890545 0.18735510073068581 0.002008052448219559 0.0044300379440876825 0.0 0.0
0.0 0.1995306226043836 -0.1732932331492858 0.17143844340604397 0.0018547897432418725 0.005406959909469218 0.0 0.0
0.0 0.17674313047397183 -0.15352953371772773 0.15181151089680983 0.0017180228209177474 0.00645391497670199 0.0 0.0
0.0 0.15217270680458447 -0.13223533372968885 0.13065234826520727 0.0015829854644814718 0.006504413873112927 0.0 0.0
0.0 0.1275668795315738 -0.11089723679523361 0.10944471502346784 0.0014525217717657147 0.005972331500051982 0.0 0.0
0.0 0.10403847062860941 -0.09049711143765941 0.08916903530252807 0.0013280761351312992 0.0052120378724148965 0.0 0.0
0.0 0.08232088685176162 -0.07160803479414769 0.07040007545314594 0.001207959341001703 0.004383053283375596 0.0 0.0
0.0 0.06280653283797624 -0.05456488905583714 0.0534752079502677 0.0010896811055694285 0.0035377943971458357 0.0 0.0
0.0 0.045486444389839516 -0.03962666467521667 0.03865345036789408 0.0009732143073226013 0.0026752089032606 0.0 0.0
0.0 0.030928164208475866 -0.027037034325008195 0.0261761104914109 0.0008609238335972858 0.0018455053308709063 0.0 0.0
0.0 0.019341261659338922 -0.01699870997685357 0.016243108818502064 0.0007556011583515 0.0011596085617093007 0.0 0.0
0.0 0.01076458173482325 -0.009557213540725099 0.008910676538085712 0.000646537002639387 0.0006797377950547958 0.0 0.0
0.0 0.004991128389612097 -0.004499699044128955 0.004008994985001499 0.0004907040591274554 0.00036999878420564483 0.0 0.0
0.0 0.001787918501954665 -0.0014381993968167557 0.00120581042888385 0.0002323889679329065 0.00018047784691869423 0.0 0.0
0.0 0.00016288858913510477 -0.000137920400097759 0.00010990612674403779 2.8014273353721128e-05 3.3851934803353864e-05 0.0 0.0
0.0 0.0 0.0 0.0 0.0 0.0 0.0 0.0
0.0 0.0 0.0 0.0 0.0 0.0 0.0 0.0
0.0 0.0 0.0 0.0 0.0 0.0 0.0 0.0