# vtk DataFile Version 3.0
Some data
ASCII
DATASET UNSTRUCTURED_GRID
POINTS 861 float
0.0 0.0 0.0
0.4 0.0 0.0
0.8 0.0 0.0
1.2000000000000002 0.0 0.0
1.6 0.0 0.0
2.0 0.0 0.0
2.4000000000000004 0.0 0.0
2.8000000000000003 0.0 0.0
3.2 0.0 0.0
3.6 0.0 0.0
4.0 0.0 0.0
4.4 0.0 0.0
4.800000000000001 0.0 0.0
5.2 0.0 0.0
5.6000000000000005 0.0 0.0
6.0 0.0 0.0
6.4 0.0 0.0
6.800000000000001 0.0 0.0
7.2 0.0 0.0
7.6000000000000005 0.0 0.0
8.0 0.0 0.0
8.4 0.0 0.0
8.8 0.0 0.0
9.200000000000001 0.0 0.0
9.600000000000001 0.0 0.0
10.0 0.0 0.0
10.4 0.0 0.0
10.8 0.0 0.0
11.200000000000001 0.0 0.0
11.600000000000001 0.0 0.0
12.0 0.0 0.0
12.4 0.0 0.0
12.8 0.0 0.0
13.200000000000001 0.0 0.0
13.600000000000001 0.0 0.0
14.0 0.0 0.0
14.4 0.0 0.0
14.8 0.0 0.0
15.200000000000001 0.0 0.0
15.600000000000001 0.0 0.0
16.0 0.0 0.0
0.0 0.1 0.0
0.4 0.1 0.0
0.8 0.1 0.0
1.2000000000000002 0.1 0.0
1.6 0.1 0.0
2.0 0.1 0.0
2.4000000000000004 0.1 0.0
2.8000000000000003 0.1 0.0
3.2 0.1 0.0
3.6 0.1 0.0
4.0 0.1 0.0
4.4 0.1 0.0
4.800000000000001 0.1 0.0
5.2 0.1 0.0
5.6000000000000005 0.1 0.0
6.0 0.1 0.0
6.4 0.1 0.0
6.800000000000001 0.1 0.0
7.2 0.1 0.0
7.6000000000000005 0.1 0.0
8.0 0.1 0.0
8.4 0.1 0.0
8.8 0.1 0.0
9.200000000000001 0.1 0.0
9.600000000000001 0.1 0.0
10.0 0.1 0.0
10.4 0.1 0.0
10.8 0.1 0.0
11.200000000000001 0.1 0.0
11.600000000000001 0.1 0.0
12.0 0.1 0.0
12.4 0.1 0.0
12.8 0.1 0.0
13.200000000000001 0.1 0.0
13.600000000000001 0.1 0.0
14.0 0.1 0.0
14.4 0.1 0.0
14.8 0.1 0.0
15.200000000000001 0.1 0.0
15.600000000000001 0.1 0.0
16.0 0.1 0.0
0.0 0.2 0.0
0.4 0.2 0.0
0.8 0.2 0.0
1.2000000000000002 0.2 0.0
1.6 0.2 0.0
2.0 0.2 0.0
2.4000000000000004 0.2 0.0
2.8000000000000003 0.2 0.0
3.2 0.2 0.0
3.6 0.2 0.0
4.0 0.2 0.0
4.4 0.2 0.0
4.800000000000001 0.2 0.0
5.2 0.2 0.0
5.6000000000000005 0.2 0.0
6.0 0.2 0.0
6.4 0.2 0.0
6.800000000000001 0.2 0.0
7.2 0.2 0.0
7.6000000000000005 0.2 0.0
8.0 0.2 0.0
8.4 0.2 0.0
8.8 0.2 0.0
9.200000000000001 0.2 0.0
9.600000000000001 0.2 0.0
10.0 0.2 0.0
10.4 0.2 0.0
10.8 0.2 0.0
11.200000000000001 0.2 0.0
11.600000000000001 0.2 0.0
12.0 0.2 0.0
12.4 0.2 0.0
12.8 0.2 0.0
13.200000000000001 0.2 0.0
13.600000000000001 0.2 0.0
14.0 0.2 0.0
14.4 0.2 0.0
14.8 0.2 0.0
15.200000000000001 0.2 0.0
15.600000000000001 0.2 0.0
16.0 0.2 0.0
0.0 0.30000000000000004 0.0
0.4 0.30000000000000004 0.0
0.8 0.30000000000000004 0.0
1.2000000000000002 0.30000000000000004 0.0
1.6 0.30000000000000004 0.0
2.0 0.30000000000000004 0.0
2.4000000000000004 0.30000000000000004 0.0
2.8000000000000003 0.30000000000000004 0.0
3.2 0.30000000000000004 0.0
3.6 0.30000000000000004 0.0
4.0 0.30000000000000004 0.0
4.4 0.30000000000000004 0.0
4.800000000000001 0.30000000000000004 0.0
5.2 0.30000000000000004 0.0
5.6000000000000005 0.30000000000000004 0.0
6.0 0.30000000000000004 0.0
6.4 0.30000000000000004 0.0
6.800000000000001 0.30000000000000004 0.0
7.2 0.30000000000000004 0.0
7.6000000000000005 0.30000000000000004 0.0
8.0 0.30000000000000004 0.0
8.4 0.30000000000000004 0.0
8.8 0.30000000000000004 0.0
9.200000000000001 0.30000000000000004 0.0
9.600000000000001 0.30000000000000004 0.0
10.0 0.30000000000000004 0.0
10.4 0.30000000000000004 0.0
10.8 0.30000000000000004 0.0
11.200000000000001 0.30000000000000004 0.0
11.600000000000001 0.30000000000000004 0.0
12.0 0.30000000000000004 0.0
12.4 0.30000000000000004 0.0
12.8 0.30000000000000004 0.0
13.200000000000001 0.30000000000000004 0.0
13.600000000000001 0.30000000000000004 0.0
14.0 0.30000000000000004 0.0
14.4 0.30000000000000004 0.0
14.8 0.30000000000000004 0.0
15.200000000000001 0.30000000000000004 0.0
15.600000000000001 0.30000000000000004 0.0
16.0 0.30000000000000004 0.0
0.0 0.4 0.0
0.4 0.4 0.0
0.8 0.4 0.0
1.2000000000000002 0.4 0.0
1.6 0.4 0.0
2.0 0.4 0.0
2.4000000000000004 0.4 0.0
2.8000000000000003 0.4 0.0
3.2 0.4 0.0
3.6 0.4 0.0
4.0 0.4 0.0
4.4 0.4 0.0
4.800000000000001 0.4 0.0
5.2 0.4 0.0
5.6000000000000005 0.4 0.0
6.0 0.4 0.0
6.4 0.4 0.0
6.800000000000001 0.4 0.0
7.2 0.4 0.0
7.6000000000000005 0.4 0.0
8.0 0.4 0.0
8.4 0.4 0.0
8.8 0.4 0.0
9.200000000000001 0.4 0.0
9.600000000000001 0.4 0.0
10.0 0.4 0.0
10.4 0.4 0.0
10.8 0.4 0.0
11.200000000000001 0.4 0.0
11.600000000000001 0.4 0.0
12.0 0.4 0.0
12.4 0.4 0.0
12.8 0.4 0.0
13.200000000000001 0.4 0.0
13.600000000000001 0.4 0.0
14.0 0.4 0.0
14.4 0.4 0.0
14.8 0.4 0.0
15.200000000000001 0.4 0.0
15.600000000000001 0.4 0.0
16.0 0.4 0.0
0.0 0.5 0.0
0.4 0.5 0.0
0.8 0.5 0.0
1.2000000000000002 0.5 0.0
1.6 0.5 0.0
2.0 0.5 0.0
2.4000000000000004 0.5 0.0
2.8000000000000003 0.5 0.0
3.2 0.5 0.0
3.6 0.5 0.0
4.0 0.5 0.0
4.4 0.5 0.0
4.800000000000001 0.5 0.0
5.2 0.5 0.0
5.6000000000000005 0.5 0.0
6.0 0.5 0.0
6.4 0.5 0.0
6.800000000000001 0.5 0.0
7.2 0.5 0.0
7.6000000000000005 0.5 0.0
8.0 0.5 0.0
8.4 0.5 0.0
8.8 0.5 0.0
9.200000000000001 0.5 0.0
9.600000000000001 0.5 0.0
10.0 0.5 0.0
10.4 0.5 0.0
10.8 0.5 0.0
11.200000000000001 0.5 0.0
11.600000000000001 0.5 0.0
12.0 0.5 0.0
12.4 0.5 0.0
12.8 0.5 0.0
13.200000000000001 0.5 0.0
13.600000000000001 0.5 0.0
14.0 0.5 0.0
14.4 0.5 0.0
14.8 0.5 0.0
15.200000000000001 0.5 0.0
15.600000000000001 0.5 0.0
16.0 0.5 0.0
0.0 0.6000000000000001 0.0
0.4 0.6000000000000001 0.0
0.8 0.6000000000000001 0.0
1.2000000000000002 0.6000000000000001 0.0
1.6 0.6000000000000001 0.0
2.0 0.6000000000000001 0.0
2.4000000000000004 0.6000000000000001 0.0
2.8000000000000003 0.6000000000000001 0.0
3.2 0.6000000000000001 0.0
3.6 0.6000000000000001 0.0
4.0 0.6000000000000001 0.0
4.4 0.6000000000000001 0.0
4.800000000000001 0.6000000000000001 0.0
5.2 0.6000000000000001 0.0
5.6000000000000005 0.6000000000000001 0.0
6.0 0.6000000000000001 0.0
6.4 0.6000000000000001 0.0
6.800000000000001 0.6000000000000001 0.0
7.2 0.6000000000000001 0.0
7.6000000000000005 0.6000000000000001 0.0
8.0 0.6000000000000001 0.0
8.4 0.6000000000000001 0.0
8.8 0.6000000000000001 0.0
9.200000000000001 0.6000000000000001 0.0
9.600000000000001 0.6000000000000001 0.0
10.0 0.6000000000000001 0.0
10.4 0.6000000000000001 0.0
10.8 0.6000000000000001 0.0
11.200000000000001 0.6000000000000001 0.0
11.600000000000001 0.6000000000000001 0.0
12.0 0.6000000000000001 0.0
12.4 0.6000000000000001 0.0
12.8 0.6000000000000001 0.0
13.200000000000001 0.6000000000000001 0.0
13.600000000000001 0.6000000000000001 0.0
14.0 0.6000000000000001 0.0
14.4 0.6000000000000001 0.0
14.8 0.6000000000000001 0.0
15.200000000000001 0.6000000000000001 0.0
15.600000000000001 0.6000000000000001 0.0
16.0 0.6000000000000001 0.0
0.0 0.7000000000000001 0.0
0.4 0.7000000000000001 0.0
0.8 0.7000000000000001 0.0
1.2000000000000002 0.7000000000000001 0.0
1.6 0.7000000000000001 0.0
2.0 0.7000000000000001 0.0
2.4000000000000004 0.7000000000000001 0.0
2.8000000000000003 0.7000000000000001 0.0
3.2 0.7000000000000001 0.0
3.6 0.7000000000000001 0.0
4.0 0.7000000000000001 0.0
4.4 0.7000000000000001 0.0
4.800000000000001 0.7000000000000001 0.0
5.2 0.7000000000000001 0.0
5.6000000000000005 0.7000000000000001 0.0
6.0 0.7000000000000001 0.0
6.4 0.7000000000000001 0.0
6.800000000000001 0.7000000000000001 0.0
7.2 0.7000000000000001 0.0
7.6000000000000005 0.7000000000000001 0.0
8.0 0.7000000000000001 0.0
8.4 0.7000000000000001 0.0
8.8 0.7000000000000001 0.0
9.200000000000001 0.7000000000000001 0.0
9.600000000000001 0.7000000000000001 0.0
10.0 0.7000000000000001 0.0
10.4 0.7000000000000001 0.0
10.8 0.7000000000000001 0.0
11.200000000000001 0.7000000000000001 0.0
11.600000000000001 0.7000000000000001 0.0
12.0 0.7000000000000001 0.0
12.4 0.7000000000000001 0.0
12.8 0.7000000000000001 0.0
13.200000000000001 0.7000000000000001 0.0
13.600000000000001 0.7000000000000001 0.0
14.0 0.7000000000000001 0.0
14.4 0.7000000000000001 0.0
14.8 0.7000000000000001 0.0
15.200000000000001 0.7000000000000001 0.0
15.600000000000001 0.7000000000000001 0.0
16.0 0.7000000000000001 0.0
0.0 0.8 0.0
0.4 0.8 0.0
0.8 0.8 0.0
1.2000000000000002 0.8 0.0
1.6 0.8 0.0
2.0 0.8 0.0
2.4000000000000004 0.8 0.0
2.8000000000000003 0.8 0.0
3.2 0.8 0.0
3.6 0.8 0.0
4.0 0.8 0.0
4.4 0.8 0.0
4.800000000000001 0.8 0.0
5.2 0.8 0.0
5.6000000000000005 0.8 0.0
6.0 0.8 0.0
6.4 0.8 0.0
6.800000000000001 0.8 0.0
7.2 0.8 0.0
7.6000000000000005 0.8 0.0
8.0 0.8 0.0
8.4 0.8 0.0
8.8 0.8 0.0
9.200000000000001 0.8 0.0
9.600000000000001 0.8 0.0
10.0 0.8 0.0
10.4 0.8 0.0
10.8 0.8 0.0
11.200000000000001 0.8 0.0
11.600000000000001 0.8 0.0
12.0 0.8 0.0
12.4 0.8 0.0
12.8 0.8 0.0
13.200000000000001 0.8 0.0
13.600000000000001 0.8 0.0
14.0 0.8 0.0
14.4 0.8 0.0
14.8 0.8 0.0
15.200000000000001 0.8 0.0
15.600000000000001 0.8 0.0
16.0 0.8 0.0
0.0 0.9 0.0
0.4 0.9 0.0
0.8 0.9 0.0
1.2000000000000002 0.9 0.0
1.6 0.9 0.0
2.0 0.9 0.0
2.4000000000000004 0.9 0.0
2.8000000000000003 0.9 0.0
3.2 0.9 0.0
3.6 0.9 0.0
4.0 0.9 0.0
4.4 0.9 0.0
4.800000000000001 0.9 0.0
5.2 0.9 0.0
5.6000000000000005 0.9 0.0
6.0 0.9 0.0
6.4 0.9 0.0
6.800000000000001 0.9 0.0
7.2 0.9 0.0
7.6000000000000005 0.9 0.0
8.0 0.9 0.0
8.4 0.9 0.0
8.8 0.9 0.0
9.200000000000001 0.9 0.0
9.600000000000001 0.9 0.0
10.0 0.9 0.0
10.4 0.9 0.0
10.8 0.9 0.0
11.200000000000001 0.9 0.0
11.600000000000001 0.9 0.0
12.0 0.9 0.0
12.4 0.9 0.0
12.8 0.9 0.0
13.200000000000001 0.9 0.0
13.600000000000001 0.9 0.0
14.0 0.9 0.0
14.4 0.9 0.0
14.8 0.9 0.0
15.200000000000001 0.9 0.0
15.600000000000001 0.9 0.0
16.0 0.9 0.0
0.0 1.0 0.0
0.4 1.0 0.0
0.8 1.0 0.0
1.2000000000000002 1.0 0.0
1.6 1.0 0.0
2.0 1.0 0.0
2.4000000000000004 1.0 0.0
2.8000000000000003 1.0 0.0
3.2 1.0 0.0
3.6 1.0 0.0
4.0 1.0 0.0
4.4 1.0 0.0
4.800000000000001 1.0 0.0
5.2 1.0 0.0
5.6000000000000005 1.0 0.0
6.0 1.0 0.0
6.4 1.0 0.0
6.800000000000001 1.0 0.0
7.2 1.0 0.0
7.6000000000000005 1.0 0.0
8.0 1.0 0.0
8.4 1.0 0.0
8.8 1.0 0.0
9.200000000000001 1.0 0.0
9.600000000000001 1.0 0.0
10.0 1.0 0.0
10.4 1.0 0.0
10.8 1.0 0.0
11.200000000000001 1.0 0.0
11.600000000000001 1.0 0.0
12.0 1.0 0.0
12.4 1.0 0.0
12.8 1.0 0.0
13.200000000000001 1.0 0.0
13.600000000000001 1.0 0.0
14.0 1.0 0.0
14.4 1.0 0.0
14.8 1.0 0.0
15.200000000000001 1.0 0.0
15.600000000000001 1.0 0.0
16.0 1.0 0.0
0.0 1.1 0.0
0.4 1.1 0.0
0.8 1.1 0.0
1.2000000000000002 1.1 0.0
1.6 1.1 0.0
2.0 1.1 0.0
2.4000000000000004 1.1 0.0
2.8000000000000003 1.1 0.0
3.2 1.1 0.0
3.6 1.1 0.0
4.0 1.1 0.0
4.4 1.1 0.0
4.800000000000001 1.1 0.0
5.2 1.1 0.0
5.6000000000000005 1.1 0.0
6.0 1.1 0.0
6.4 1.1 0.0
6.800000000000001 1.1 0.0
7.2 1.1 0.0
7.6000000000000005 1.1 0.0
8.0 1.1 0.0
8.4 1.1 0.0
8.8 1.1 0.0
9.200000000000001 1.1 0.0
9.600000000000001 1.1 0.0
10.0 1.1 0.0
10.4 1.1 0.0
10.8 1.1 0.0
11.200000000000001 1.1 0.0
11.600000000000001 1.1 0.0
12.0 1.1 0.0
12.4 1.1 0.0
12.8 1.1 0.0
13.200000000000001 1.1 0.0
13.600000000000001 1.1 0.0
14.0 1.1 0.0
14.4 1.1 0.0
14.8 1.1 0.0
15.200000000000001 1.1 0.0
15.600000000000001 1.1 0.0
16.0 1.1 0.0
0.0 1.2000000000000002 0.0
0.4 1.2000000000000002 0.0
0.8 1.2000000000000002 0.0
1.2000000000000002 1.2000000000000002 0.0
1.6 1.2000000000000002 0.0
2.0 1.2000000000000002 0.0
2.4000000000000004 1.2000000000000002 0.0
2.8000000000000003 1.2000000000000002 0.0
3.2 1.2000000000000002 0.0
3.6 1.2000000000000002 0.0
4.0 1.2000000000000002 0.0
4.4 1.2000000000000002 0.0
4.800000000000001 1.2000000000000002 0.0
5.2 1.2000000000000002 0.0
5.6000000000000005 1.2000000000000002 0.0
6.0 1.2000000000000002 0.0
6.4 1.2000000000000002 0.0
6.800000000000001 1.2000000000000002 0.0
7.2 1.2000000000000002 0.0
7.6000000000000005 1.2000000000000002 0.0
8.0 1.2000000000000002 0.0
8.4 1.2000000000000002 0.0
8.8 1.2000000000000002 0.0
9.200000000000001 1.2000000000000002 0.0
9.600000000000001 1.2000000000000002 0.0
10.0 1.2000000000000002 0.0
10.4 1.2000000000000002 0.0
10.8 1.2000000000000002 0.0
11.200000000000001 1.2000000000000002 0.0
11.600000000000001 1.2000000000000002 0.0
12.0 1.2000000000000002 0.0
12.4 1.2000000000000002 0.0
12.8 1.2000000000000002 0.0
13.200000000000001 1.2000000000000002 0.0
13.600000000000001 1.2000000000000002 0.0
14.0 1.2000000000000002 0.0
14.4 1.2000000000000002 0.0
14.8 1.2000000000000002 0.0
15.200000000000001 1.2000000000000002 0.0
15.600000000000001 1.2000000000000002 0.0
16.0 1.2000000000000002 0.0
0.0 1.3 0.0
0.4 1.3 0.0
0.8 1.3 0.0
1.2000000000000002 1.3 0.0
1.6 1.3 0.0
2.0 1.3 0.0
2.4000000000000004 1.3 0.0
2.8000000000000003 1.3 0.0
3.2 1.3 0.0
3.6 1.3 0.0
4.0 1.3 0.0
4.4 1.3 0.0
4.800000000000001 1.3 0.0
5.2 1.3 0.0
5.6000000000000005 1.3 0.0
6.0 1.3 0.0
6.4 1.3 0.0
6.800000000000001 1.3 0.0
7.2 1.3 0.0
7.6000000000000005 1.3 0.0
8.0 1.3 0.0
8.4 1.3 0.0
8.8 1.3 0.0
9.200000000000001 1.3 0.0
9.600000000000001 1.3 0.0
10.0 1.3 0.0
10.4 1.3 0.0
10.8 1.3 0.0
11.200000000000001 1.3 0.0
11.600000000000001 1.3 0.0
12.0 1.3 0.0
12.4 1.3 0.0
12.8 1.3 0.0
13.200000000000001 1.3 0.0
13.600000000000001 1.3 0.0
14.0 1.3 0.0
14.4 1.3 0.0
14.8 1.3 0.0
15.200000000000001 1.3 0.0
15.600000000000001 1.3 0.0
16.0 1.3 0.0
0.0 1.4000000000000001 0.0
0.4 1.4000000000000001 0.0
0.8 1.4000000000000001 0.0
1.2000000000000002 1.4000000000000001 0.0
1.6 1.4000000000000001 0.0
2.0 1.4000000000000001 0.0
2.4000000000000004 1.4000000000000001 0.0
2.8000000000000003 1.4000000000000001 0.0
3.2 1.4000000000000001 0.0
3.6 1.4000000000000001 0.0
4.0 1.4000000000000001 0.0
4.4 1.4000000000000001 0.0
4.800000000000001 1.4000000000000001 0.0
5.2 1.4000000000000001 0.0
5.6000000000000005 1.4000000000000001 0.0
6.0 1.4000000000000001 0.0
6.4 1.4000000000000001 0.0
6.800000000000001 1.4000000000000001 0.0
7.2 1.4000000000000001 0.0
7.6000000000000005 1.4000000000000001 0.0
8.0 1.4000000000000001 0.0
8.4 1.4000000000000001 0.0
8.8 1.4000000000000001 0.0
9.200000000000001 1.4000000000000001 0.0
9.600000000000001 1.4000000000000001 0.0
10.0 1.4000000000000001 0.0
10.4 1.4000000000000001 0.0
10.8 1.4000000000000001 0.0
11.200000000000001 1.4000000000000001 0.0
11.600000000000001 1.4000000000000001 0.0
12.0 1.4000000000000001 0.0
12.4 1.4000000000000001 0.0
12.8 1.4000000000000001 0.0
13.200000000000001 1.4000000000000001 0.0
13.600000000000001 1.4000000000000001 0.0
14.0 1.4000000000000001 0.0
14.4 1.4000000000000001 0.0
14.8 1.4000000000000001 0.0
15.200000000000001 1.4000000000000001 0.0
15.600000000000001 1.4000000000000001 0.0
16.0 1.4000000000000001 0.0
0.0 1.5 0.0
0.4 1.5 0.0
0.8 1.5 0.0
1.2000000000000002 1.5 0.0
1.6 1.5 0.0
2.0 1.5 0.0
2.4000000000000004 1.5 0.0
2.8000000000000003 1.5 0.0
3.2 1.5 0.0
3.6 1.5 0.0
4.0 1.5 0.0
4.4 1.5 0.0
4.800000000000001 1.5 0.0
5.2 1.5 0.0
5.6000000000000005 1.5 0.0
6.0 1.5 0.0
6.4 1.5 0.0
6.800000000000001 1.5 0.0
7.2 1.5 0.0
7.6000000000000005 1.5 0.0
8.0 1.5 0.0
8.4 1.5 0.0
8.8 1.5 0.0
9.200000000000001 1.5 0.0
9.600000000000001 1.5 0.0
10.0 1.5 0.0
10.4 1.5 0.0
10.8 1.5 0.0
11.200000000000001 1.5 0.0
11.600000000000001 1.5 0.0
12.0 1.5 0.0
12.4 1.5 0.0
12.8 1.5 0.0
13.200000000000001 1.5 0.0
13.600000000000001 1.5 0.0
14.0 1.5 0.0
14.4 1.5 0.0
14.8 1.5 0.0
15.200000000000001 1.5 0.0
15.600000000000001 1.5 0.0
16.0 1.5 0.0
0.0 1.6 0.0
0.4 1.6 0.0
0.8 1.6 0.0
1.2000000000000002 1.6 0.0
1.6 1.6 0.0
2.0 1.6 0.0
2.4000000000000004 1.6 0.0
2.8000000000000003 1.6 0.0
3.2 1.6 0.0
3.6 1.6 0.0
4.0 1.6 0.0
4.4 1.6 0.0
4.800000000000001 1.6 0.0
5.2 1.6 0.0
5.6000000000000005 1.6 0.0
6.0 1.6 0.0
6.4 1.6 0.0
6.800000000000001 1.6 0.0
7.2 1.6 0.0
7.6000000000000005 1.6 0.0
8.0 1.6 0.0
8.4 1.6 0.0
8.8 1.6 0.0
9.200000000000001 1.6 0.0
9.600000000000001 1.6 0.0
10.0 1.6 0.0
10.4 1.6 0.0
10.8 1.6 0.0
11.200000000000001 1.6 0.0
11.600000000000001 1.6 0.0
12.0 1.6 0.0
12.4 1.6 0.0
12.8 1.6 0.0
13.200000000000001 1.6 0.0
13.600000000000001 1.6 0.0
14.0 1.6 0.0
14.4 1.6 0.0
14.8 1.6 0.0
15.200000000000001 1.6 0.0
15.600000000000001 1.6 0.0
16.0 1.6 0.0
0.0 1.7000000000000002 0.0
0.4 1.7000000000000002 0.0
0.8 1.7000000000000002 0.0
1.2000000000000002 1.7000000000000002 0.0
1.6 1.7000000000000002 0.0
2.0 1.7000000000000002 0.0
2.4000000000000004 1.7000000000000002 0.0
2.8000000000000003 1.7000000000000002 0.0
3.2 1.7000000000000002 0.0
3.6 1.7000000000000002 0.0
4.0 1.7000000000000002 0.0
4.4 1.7000000000000002 0.0
4.800000000000001 1.7000000000000002 0.0
5.2 1.7000000000000002 0.0
5.6000000000000005 1.7000000000000002 0.0
6.0 1.7000000000000002 0.0
6.4 1.7000000000000002 0.0
6.800000000000001 1.7000000000000002 0.0
7.2 1.7000000000000002 0.0
7.6000000000000005 1.7000000000000002 0.0
8.0 1.7000000000000002 0.0
8.4 1.7000000000000002 0.0
8.8 1.7000000000000002 0.0
9.200000000000001 1.7000000000000002 0.0
9.600000000000001 1.7000000000000002 0.0
10.0 1.7000000000000002 0.0
10.4 1.7000000000000002 0.0
10.8 1.7000000000000002 0.0
11.200000000000001 1.7000000000000002 0.0
11.600000000000001 1.7000000000000002 0.0
12.0 1.7000000000000002 0.0
12.4 1.7000000000000002 0.0
12.8 1.7000000000000002 0.0
13.200000000000001 1.7000000000000002 0.0
13.600000000000001 1.7000000000000002 0.0
14.0 1.7000000000000002 0.0
14.4 1.7000000000000002 0.0
14.8 1.7000000000000002 0.0
15.200000000000001 1.7000000000000002 0.0
15.600000000000001 1.7000000000000002 0.0
16.0 1.7000000000000002 0.0
0.0 1.8 0.0
0.4 1.8 0.0
0.8 1.8 0.0
1.2000000000000002 1.8 0.0
1.6 1.8 0.0
2.0 1.8 0.0
2.4000000000000004 1.8 0.0
2.8000000000000003 1.8 0.0
3.2 1.8 0.0
3.6 1.8 0.0
4.0 1.8 0.0
4.4 1.8 0.0
4.800000000000001 1.8 0.0
5.2 1.8 0.0
5.6000000000000005 1.8 0.0
6.0 1.8 0.0
6.4 1.8 0.0
6.800000000000001 1.8 0.0
7.2 1.8 0.0
7.6000000000000005 1.8 0.0
8.0 1.8 0.0
8.4 1.8 0.0
8.8 1.8 0.0
9.200000000000001 1.8 0.0
9.600000000000001 1.8 0.0
10.0 1.8 0.0
10.4 1.8 0.0
10.8 1.8 0.0
11.200000000000001 1.8 0.0
11.600000000000001 1.8 0.0
12.0 1.8 0.0
12.4 1.8 0.0
12.8 1.8 0.0
13.200000000000001 1.8 0.0
13.600000000000001 1.8 0.0
14.0 1.8 0.0
14.4 1.8 0.0
14.8 1.8 0.0
15.200000000000001 1.8 0.0
15.600000000000001 1.8 0.0
16.0 1.8 0.0
0.0 1.9000000000000001 0.0
0.4 1.9000000000000001 0.0
0.8 1.9000000000000001 0.0
1.2000000000000002 1.9000000000000001 0.0
1.6 1.9000000000000001 0.0
2.0 1.9000000000000001 0.0
2.4000000000000004 1.9000000000000001 0.0
2.8000000000000003 1.9000000000000001 0.0
3.2 1.9000000000000001 0.0
3.6 1.9000000000000001 0.0
4.0 1.9000000000000001 0.0
4.4 1.9000000000000001 0.0
4.800000000000001 1.9000000000000001 0.0
5.2 1.9000000000000001 0.0
5.6000000000000005 1.9000000000000001 0.0
6.0 1.9000000000000001 0.0
6.4 1.9000000000000001 0.0
6.800000000000001 1.9000000000000001 0.0
7.2 1.9000000000000001 0.0
7.6000000000000005 1.9000000000000001 0.0
8.0 1.9000000000000001 0.0
8.4 1.9000000000000001 0.0
8.8 1.9000000000000001 0.0
9.200000000000001 1.9000000000000001 0.0
9.600000000000001 1.9000000000000001 0.0
10.0 1.9000000000000001 0.0
10.4 1.9000000000000001 0.0
10.8 1.9000000000000001 0.0
11.200000000000001 1.9000000000000001 0.0
11.600000000000001 1.9000000000000001 0.0
12.0 1.9000000000000001 0.0
12.4 1.9000000000000001 0.0
12.8 1.9000000000000001 0.0
13.200000000000001 1.9000000000000001 0.0
13.600000000000001 1.9000000000000001 0.0
14.0 1.9000000000000001 0.0
14.4 1.9000000000000001 0.0
14.8 1.9000000000000001 0.0
15.200000000000001 1.9000000000000001 0.0
15.600000000000001 1.9000000000000001 0.0
16.0 1.9000000000000001 0.0
0.0 2.0 0.0
0.4 2.0 0.0
0.8 2.0 0.0
1.2000000000000002 2.0 0.0
1.6 2.0 0.0
2.0 2.0 0.0
2.4000000000000004 2.0 0.0
2.8000000000000003 2.0 0.0
3.2 2.0 0.0
3.6 2.0 0.0
4.0 2.0 0.0
4.4 2.0 0.0
4.800000000000001 2.0 0.0
5.2 2.0 0.0
5.6000000000000005 2.0 0.0
6.0 2.0 0.0
6.4 2.0 0.0
6.800000000000001 2.0 0.0
7.2 2.0 0.0
7.6000000000000005 2.0 0.0
8.0 2.0 0.0
8.4 2.0 0.0
8.8 2.0 0.0
9.200000000000001 2.0 0.0
9.600000000000001 2.0 0.0
10.0 2.0 0.0
10.4 2.0 0.0
10.8 2.0 0.0
11.200000000000001 2.0 0.0
11.600000000000001 2.0 0.0
12.0 2.0 0.0
12.4 2.0 0.0
12.8 2.0 0.0
13.200000000000001 2.0 0.0
13.600000000000001 2.0 0.0
14.0 2.0 0.0
14.4 2.0 0.0
14.8 2.0 0.0
15.200000000000001 2.0 0.0
15.600000000000001 2.0 0.0
16.0 2.0 0.0
CELLS 800 4000
4 0 1 42 41
4 1 2 43 42
4 2 3 44 43
4 3 4 45 44
4 4 5 46 45
4 5 6 47 46
4 6 7 48 47
4 7 8 49 48
4 8 9 50 49
4 9 10 51 50
4 10 11 52 51
4 11 12 53 52
4 12 13 54 53
4 13 14 55 54
4 14 15 56 55
4 15 16 57 56
4 16 17 58 57
4 17 18 59 58
4 18 19 60 59
4 19 20 61 60
4 20 21 62 61
4 21 22 63 62
4 22 23 64 63
4 23 24 65 64
4 24 25 66 65
4 25 26 67 66
4 26 27 68 67
4 27 28 69 68
4 28 29 70 69
4 29 30 71 70
4 30 31 72 71
4 31 32 73 72
4 32 33 74 73
4 33 34 75 74
4 34 35 76 75
4 35 36 77 76
4 36 37 78 77
4 37 38 79 78
4 38 39 80 79
4 39 40 81 80
4 41 42 83 82
4 42 43 84 83
4 43 44 85 84
4 44 45 86 85
4 45 46 87 86
4 46 47 88 87
4 47 48 89 88
4 48 49 90 89
4 49 50 91 90
4 50 51 92 91
4 51 52 93 92
4 52 53 94 93
4 53 54 95 94
4 54 55 96 95
4 55 56 97 96
4 56 57 98 97
4 57 58 99 98
4 58 59 100 99
4 59 60 101 100
4 60 61 102 101
4 61 62 103 102
4 62 63 104 103
4 63 64 105 104
4 64 65 106 105
4 65 66 107 106
4 66 67 108 107
4 67 68 109 108
4 68 69 110 109
4 69 70 111 110
4 70 71 112 111
4 71 72 113 112
4 72 73 114 113
4 73 74 115 114
4 74 75 116 115
4 75 76 117 116
4 76 77 118 117
4 77 78 119 118
4 78 79 120 119
4 79 80 121 120
4 80 81 122 121
4 82 83 124 123
4 83 84 125 124
4 84 85 126 125
4 85 86 127 126
4 86 87 128 127
4 87 88 129 128
4 88 89 130 129
4 89 90 131 130
4 90 91 132 131
4 91 92 133 132
4 92 93 134 133
4 93 94 135 134
4 94 95 136 135
4 95 96 137 136
4 96 97 138 137
4 97 98 139 138
4 98 99 140 139
4 99 100 141 140
4 100 101 142 141
4 101 102 143 142
4 102 103 144 143
4 103 104 145 144
4 104 105 146 145
4 105 106 147 146
4 106 107 148 147
4 107 108 149 148
4 108 109 150 149
4 109 110 151 150
4 110 111 152 151
4 111 112 153 152
4 112 113 154 153
4 113 114 155 154
4 114 115 156 155
4 115 116 157 156
4 116 117 158 157
4 117 118 159 158
4 118 119 160 159
4 119 120 161 160
4 120 121 162 161
4 121 122 163 162
4 123 124 165 164
4 124 125 166 165
4 125 126 167 166
4 126 127 168 167
4 127 128 169 168
4 128 129 170 169
4 129 130 171 170
4 130 131 172 171
4 131 132 173 172
4 132 133 174 173
4 133 134 175 174
4 134 135 176 175
4 135 136 177 176
4 136 137 178 177
4 137 138 179 178
4 138 139 180 179
4 139 140 181 180
4 140 141 182 181
4 141 142 183 182
4 142 143 184 183
4 143 144 185 184
4 144 145 186 185
4 145 146 187 186
4 146 147 188 187
4 147 148 189 188
4 148 149 190 189
4 149 150 191 190
4 150 151 192 191
4 151 152 193 192
4 152 153 194 193
4 153 154 195 194
4 154 155 196 195
4 155 156 197 196
4 156 157 198 197
4 157 158 199 198
4 158 159 200 199
4 159 160 201 200
4 160 161 202 201
4 161 162 203 202
4 162 163 204 203
4 164 165 206 205
4 165 166 207 206
4 166 167 208 207
4 167 168 209 208
4 168 169 210 209
4 169 170 211 210
4 170 171 212 211
4 171 172 213 212
4 172 173 214 213
4 173 174 215 214
4 174 175 216 215
4 175 176 217 216
4 176 177 218 217
4 177 178 219 218
4 178 179 220 219
4 179 180 221 220
4 180 181 222 221
4 181 182 223 222
4 182 183 224 223
4 183 184 225 224
4 184 185 226 225
4 185 186 227 226
4 186 187 228 227
4 187 188 229 228
4 188 189 230 229
4 189 190 231 230
4 190 191 232 231
4 191 192 233 232
4 192 193 234 233
4 193 194 235 234
4 194 195 236 235
4 195 196 237 236
4 196 197 238 237
4 197 198 239 238
4 198 199 240 239
4 199 200 241 240
4 200 201 242 241
4 201 202 243 242
4 202 203 244 243
4 203 204 245 244
4 205 206 247 246
4 206 207 248 247
4 207 208 249 248
4 208 209 250 249
4 209 210 251 250
4 210 211 252 251
4 211 212 253 252
4 212 213 254 253
4 213 214 255 254
4 214 215 256 255
4 215 216 257 256
4 216 217 258 257
4 217 218 259 258
4 218 219 260 259
4 219 220 261 260
4 220 221 262 261
4 221 222 263 262
4 222 223 264 263
4 223 224 265 264
4 224 225 266 265
4 225 226 267 266
4 226 227 268 267
4 227 228 269 268
4 228 229 270 269
4 229 230 271 270
4 230 231 272 271
4 231 232 273 272
4 232 233 274 273
4 233 234 275 274
4 234 235 276 275
4 235 236 277 276
4 236 237 278 277
4 237 238 279 278
4 238 239 280 279
4 239 240 281 280
4 240 241 282 281
4 241 242 283 282
4 242 243 284 283
4 243 244 285 284
4 244 245 286 285
4 246 247 288 287
4 247 248 289 288
4 248 249 290 289
4 249 250 291 290
4 250 251 292 291
4 251 252 293 292
4 252 253 294 293
4 253 254 295 294
4 254 255 296 295
4 255 256 297 296
4 256 257 298 297
4 257 258 299 298
4 258 259 300 299
4 259 260 301 300
4 260 261 302 301
4 261 262 303 302
4 262 263 304 303
4 263 264 305 304
4 264 265 306 305
4 265 266 307 306
4 266 267 308 307
4 267 268 309 308
4 268 269 310 309
4 269 270 311 310
4 270 271 312 311
4 271 272 313 312
4 272 273 314 313
4 273 274 315 314
4 274 275 316 315
4 275 276 317 316
4 276 277 318 317
4 277 278 319 318
4 278 279 320 319
4 279 280 321 320
4 280 281 322 321
4 281 282 323 322
4 282 283 324 323
4 283 284 325 324
4 284 285 326 325
4 285 286 327 326
4 287 288 329 328
4 288 289 330 329
4 289 290 331 330
4 290 291 332 331
4 291 292 333 332
4 292 293 334 333
4 293 294 335 334
4 294 295 336 335
4 295 296 337 336
4 296 297 338 337
4 297 298 339 338
4 298 299 340 339
4 299 300 341 340
4 300 301 342 341
4 301 302 343 342
4 302 303 344 343
4 303 304 345 344
4 304 305 346 345
4 305 306 347 346
4 306 307 348 347
4 307 308 349 348
4 308 309 350 349
4 309 310 351 350
4 310 311 352 351
4 311 312 353 352
4 312 313 354 353
4 313 314 355 354
4 314 315 356 355
4 315 316 357 356
4 316 317 358 357
4 317 318 359 358
4 318 319 360 359
4 319 320 361 360
4 320 321 362 361
4 321 322 363 362
4 322 323 364 363
4 323 324 365 364
4 324 325 366 365
4 325 326 367 366
4 326 327 368 367
4 328 329 370 369
4 329 330 371 370
4 330 331 372 371
4 331 332 373 372
4 332 333 374 373
4 333 334 375 374
4 334 335 376 375
4 335 336 377 376
4 336 337 378 377
4 337 338 379 378
4 338 339 380 379
4 339 340 381 380
4 340 341 382 381
4 341 342 383 382
4 342 343 384 383
4 343 344 385 384
4 344 345 386 385
4 345 346 387 386
4 346 347 388 387
4 347 348 389 388
4 348 349 390 389
4 349 350 391 390
4 350 351 392 391
4 351 352 393 392
4 352 353 394 393
4 353 354 395 394
4 354 355 396 395
4 355 356 397 396
4 356 357 398 397
4 357 358 399 398
4 358 359 400 399
4 359 360 401 400
4 360 361 402 401
4 361 362 403 402
4 362 363 404 403
4 363 364 405 404
4 364 365 406 405
4 365 366 407 406
4 366 367 408 407
4 367 368 409 408
4 369 370 411 410
4 370 371 412 411
4 371 372 413 412
4 372 373 414 413
4 373 374 415 414
4 374 375 416 415
4 375 376 417 416
4 376 377 418 417
4 377 378 419 418
4 378 379 420 419
4 379 380 421 420
4 380 381 422 421
4 381 382 423 422
4 382 383 424 423
4 383 384 425 424
4 384 385 426 425
4 385 386 427 426
4 386 387 428 427
4 387 388 429 428
4 388 389 430 429
4 389 390 431 430
4 390 391 432 431
4 391 392 433 432
4 392 393 434 433
4 393 394 435 434
4 394 395 436 435
4 395 396 437 436
4 396 397 438 437
4 397 398 439 438
4 398 399 440 439
4 399 400 441 440
4 400 401 442 441
4 401 402 443 442
4 402 403 444 443
4 403 404 445 444
4 404 405 446 445
4 405 406 447 446
4 406 407 448 447
4 407 408 449 448
4 408 409 450 449
4 410 411 452 451
4 411 412 453 452
4 412 413 454 453
4 413 414 455 454
4 414 415 456 455
4 415 416 457 456
4 416 417 458 457
4 417 418 459 458
4 418 419 460 459
4 419 420 461 460
4 420 421 462 461
4 421 422 463 462
4 422 423 464 463
4 423 424 465 464
4 424 425 466 465
4 425 426 467 466
4 426 427 468 467
4 427 428 469 468
4 428 429 470 469
4 429 430 471 470
4 430 431 472 471
4 431 432 473 472
4 432 433 474 473
4 433 434 475 474
4 434 435 476 475
4 435 436 477 476
4 436 437 478 477
4 437 438 479 478
4 438 439 480 479
4 439 440 481 480
4 440 441 482 481
4 441 442 483 482
4 442 443 484 483
4 443 444 485 484
4 444 445 486 485
4 445 446 487 486
4 446 447 488 487
4 447 448 489 488
4 448 449 490 489
4 449 450 491 490
4 451 452 493 492
4 452 453 494 493
4 453 454 495 494
4 454 455 496 495
4 455 456 497 496
4 456 457 498 497
4 457 458 499 498
4 458 459 500 499
4 459 460 501 500
4 460 461 502 501
4 461 462 503 502
4 462 463 504 503
4 463 464 505 504
4 464 465 506 505
4 465 466 507 506
4 466 467 508 507
4 467 468 509 508
4 468 469 510 509
4 469 470 511 510
4 470 471 512 511
4 471 472 513 512
4 472 473 514 513
4 473 474 515 514
4 474 475 516 515
4 475 476 517 516
4 476 477 518 517
4 477 478 519 518
4 478 479 520 519
4 479 480 521 520
4 480 481 522 521
4 481 482 523 522
4 482 483 524 523
4 483 484 525 524
4 484 485 526 525
4 485 486 527 526
4 486 487 528 527
4 487 488 529 528
4 488 489 530 529
4 489 490 531 530
4 490 491 532 531
4 492 493 534 533
4 493 494 535 534
4 494 495 536 535
4 495 496 537 536
4 496 497 538 537
4 497 498 539 538
4 498 499 540 539
4 499 500 541 540
4 500 501 542 541
4 501 502 543 542
4 502 503 544 543
4 503 504 545 544
4 504 505 546 545
4 505 506 547 546
4 506 507 548 547
4 507 508 549 548
4 508 509 550 549
4 509 510 551 550
4 510 511 552 551
4 511 512 553 552
4 512 513 554 553
4 513 514 555 554
4 514 515 556 555
4 515 516 557 556
4 516 517 558 557
4 517 518 559 558
4 518 519 560 559
4 519 520 561 560
4 520 521 562 561
4 521 522 563 562
4 522 523 564 563
4 523 524 565 564
4 524 525 566 565
4 525 526 567 566
4 526 527 568 567
4 527 528 569 568
4 528 529 570 569
4 529 530 571 570
4 530 531 572 571
4 531 532 573 572
4 533 534 575 574
4 534 535 576 575
4 535 536 577 576
4 536 537 578 577
4 537 538 579 578
4 538 539 580 579
4 539 540 581 580
4 540 541 582 581
4 541 542 583 582
4 542 543 584 583
4 543 544 585 584
4 544 545 586 585
4 545 546 587 586
4 546 547 588 587
4 547 548 589 588
4 548 549 590 589
4 549 550 591 590
4 550 551 592 591
4 551 552 593 592
4 552 553 594 593
4 553 554 595 594
4 554 555 596 595
4 555 556 597 596
4 556 557 598 597
4 557 558 599 598
4 558 559 600 599
4 559 560 601 600
4 560 561 602 601
4 561 562 603 602
4 562 563 604 603
4 563 564 605 604
4 564 565 606 605
4 565 566 607 606
4 566 567 608 607
4 567 568 609 608
4 568 569 610 609
4 569 570 611 610
4 570 571 612 611
4 571 572 613 612
4 572 573 614 613
4 574 575 616 615
4 575 576 617 616
4 576 577 618 617
4 577 578 619 618
4 578 579 620 619
4 579 580 621 620
4 580 581 622 621
4 581 582 623 622
4 582 583 624 623
4 583 584 625 624
4 584 585 626 625
4 585 586 627 626
4 586 587 628 627
4 587 588 629 628
4 588 589 630 629
4 589 590 631 630
4 590 591 632 631
4 591 592 633 632
4 592 593 634 633
4 593 594 635 634
4 594 595 636 635
4 595 596 637 636
4 596 597 638 637
4 597 598 639 638
4 598 599 640 639
4 599 600 641 640
4 600 601 642 641
4 601 602 643 642
4 602 603 644 643
4 603 604 645 644
4 604 605 646 645
4 605 606 647 646
4 606 607 648 647
4 607 608 649 648
4 608 609 650 649
4 609 610 651 650
4 610 611 652 651
4 611 612 653 652
4 612 613 654 653
4 613 614 655 654
4 615 616 657 656
4 616 617 658 657
4 617 618 659 658
4 618 619 660 659
4 619 620 661 660
4 620 621 662 661
4 621 622 663 662
4 622 623 664 663
4 623 624 665 664
4 624 625 666 665
4 625 626 667 666
4 626 627 668 667
4 627 628 669 668
4 628 629 670 669
4 629 630 671 670
4 630 631 672 671
4 631 632 673 672
4 632 633 674 673
4 633 634 675 674
4 634 635 676 675
4 635 636 677 676
4 636 637 678 677
4 637 638 679 678
4 638 639 680 679
4 639 640 681 680
4 640 641 682 681
4 641 642 683 682
4 642 643 684 683
4 643 644 685 684
4 644 645 686 685
4 645 646 687 686
4 646 647 688 687
4 647 648 689 688
4 648 649 690 689
4 649 650 691 690
4 650 651 692 691
4 651 652 693 692
4 652 653 694 693
4 653 654 695 694
4 654 655 696 695
4 656 657 698 697
4 657 658 699 698
4 658 659 700 699
4 659 660 701 700
4 660 661 702 701
4 661 662 703 702
4 662 663 704 703
4 663 664 705 704
4 664 665 706 705
4 665 666 707 706
4 666 667 708 707
4 667 668 709 708
4 668 669 710 709
4 669 670 711 710
4 670 671 712 711
4 671 672 713 712
4 672 673 714 713
4 673 674 715 714
4 674 675 716 715
4 675 676 717 716
4 676 677 718 717
4 677 678 719 718
4 678 679 720 719
4 679 680 721 720
4 680 681 722 721
4 681 682 723 722
4 682 683 724 723
4 683 684 725 724
4 684 685 726 725
4 685 686 727 726
4 686 687 728 727
4 687 688 729 728
4 688 689 730 729
4 689 690 731 730
4 690 691 732 731
4 691 692 733 732
4 692 693 734 733
4 693 694 735 734
4 694 695 736 735
4 695 696 737 736
4 697 698 739 738
4 698 699 740 739
4 699 700 741 740
4 700 701 742 741
4 701 702 743 742
4 702 703 744 743
4 703 704 745 744
4 704 705 746 745
4 705 706 747 746
4 706 707 748 747
4 707 708 749 748
4 708 709 750 749
4 709 710 751 750
4 710 711 752 751
4 711 712 753 752
4 712 713 754 753
4 713 714 755 754
4 714 715 756 755
4 715 716 757 756
4 716 717 758 757
4 717 718 759 758
4 718 719 760 759
4 719 720 761 760
4 720 721 762 761
4 721 722 763 762
4 722 723 764 763
4 723 724 765 764
4 724 725 766 765
4 725 726 767 766
4 726 727 768 767
4 727 728 769 768
4 728 729 770 769
4 729 730 771 770
4 730 731 772 771
4 731 732 773 772
4 732 733 774 773
4 733 734 775 774
4 734 735 776 775
4 735 736 777 776
4 736 737 778 777
4 738 739 780 779
4 739 740 781 780
4 740 741 782 781
4 741 742 783 782
4 742 743 784 783
4 743 744 785 784
4 744 745 786 785
4 745 746 787 786
4 746 747 788 787
4 747 748 789 788
4 748 749 790 789
4 749 750 791 790
4 750 751 792 791
4 751 752 793 792
4 752 753 794 793
4 753 754 795 794
4 754 755 796 795
4 755 756 797 796
4 756 757 798 797
4 757 758 799 798
4 758 759 800 799
4 759 760 801 800
4 760 761 802 801
4 761 762 803 802
4 762 763 804 803
4 763 764 805 804
4 764 765 806 805
4 765 766 807 806
4 766 767 808 807
4 767 768 809 808
4 768 769 810 809
4 769 770 811 810
4 770 771 812 811
4 771 772 813 812
4 772 773 814 813
4 773 774 815 814
4 774 775 816 815
4 775 776 817 816
4 776 777 818 817
4 777 778 819 818
4 779 780 821 820
4 780 781 822 821
4 781 782 823 822
4 782 783 824 823
4 783 784 825 824
4 784 785 826 825
4 785 786 827 826
4 786 787 828 827
4 787 788 829 828
4 788 789 830 829
4 789 790 831 830
4 790 791 832 831
4 791 792 833 832
4 792 793 834 833
4 793 794 835 834
4 794 795 836 835
4 795 796 837 836
4 796 797 838 837
4 797 798 839 838
4 798 799 840 839
4 799 800 841 840
4 800 801 842 841
4 801 802 843 842
4 802 803 844 843
4 803 804 845 844
4 804 805 846 845
4 805 806 847 846
4 806 807 848 847
4 807 808 849 848
4 808 809 850 849
4 809 810 851 850
4 810 811 852 851
4 811 812 853 852
4 812 813 854 853
4 813 814 855 854
4 814 815 856 855
4 815 816 857 856
4 816 817 858 857
4 817 818 859 858
4 818 819 860 859
CELL_TYPES 800
9
9
9
9
9
9
9
9
9
9
9
9
9
9
9
9
9
9
9
9
9
9
9
9
9
9
9
9
9
9
9
9
9
9
9
9
9
9
9
9
9
9
9
9
9
9
9
9
9
9
9
9
9
9
9
9
9
9
9
9
9
9
9
9
9
9
9
9
9
9
9
9
9
9
9
9
9
9
9
9
9
9
9
9
9
9
9
9
9
9
9
9
9
9
9
9
9
9
9
9
9
9
9
9
9
9
9
9
9
9
9
9
9
9
9
9
9
9
9
9
9
9
9
9
9
9
9
9
9
9
9
9
9
9
9
9
9
9
9
9
9
9
9
9
9
9
9
9
9
9
9
9
9
9
9
9
9
9
9
9
9
9
9
9
9
9
9
9
9
9
9
9
9
9
9
9
9
9
9
9
9
9
9
9
9
9
9
9
9
9
9
9
9
9
9
9
9
9
9
9
9
9
9
9
9
9
9
9
9
9
9
9
9
9
9
9
9
9
9
9
9
9
9
9
9
9
9
9
9
9
9
9
9
9
9
9
9
9
9
9
9
9
9
9
9
9
9
9
9
9
9
9
9
9
9
9
9
9
9
9
9
9
9
9
9
9
9
9
9
9
9
9
9
9
9
9
9
9
9
9
9
9
9
9
9
9
9
9
9
9
9
9
9
9
9
9
9
9
9
9
9
9
9
9
9
9
9
9
9
9
9
9
9
9
9
9
9
9
9
9
9
9
9
9
9
9
9
9
9
9
9
9
9
9
9
9
9
9
9
9
9
9
9
9
9
9
9
9
9
9
9
9
9
9
9
9
9
9
9
9
9
9
9
9
9
9
9
9
9
9
9
9
9
9
9
9
9
9
9
9
9
9
9
9
9
9
9
9
9
9
9
9
9
9
9
9
9
9
9
9
9
9
9
9
9
9
9
9
9
9
9
9
9
9
9
9
9
9
9
9
9
9
9
9
9
9
9
9
9
9
9
9
9
9
9
9
9
9
9
9
9
9
9
9
9
9
9
9
9
9
9
9
9
9
9
9
9
9
9
9
9
9
9
9
9
9
9
9
9
9
9
9
9
9
9
9
9
9
9
9
9
9
9
9
9
9
9
9
9
9
9
9
9
9
9
9
9
9
9
9
9
9
9
9
9
9
9
9
9
9
9
9
9
9
9
9
9
9
9
9
9
9
9
9
9
9
9
9
9
9
9
9
9
9
9
9
9
9
9
9
9
9
9
9
9
9
9
9
9
9
9
9
9
9
9
9
9
9
9
9
9
9
9
9
9
9
9
9
9
9
9
9
9
9
9
9
9
9
9
9
9
9
9
9
9
9
9
9
9
9
9
9
9
9
9
9
9
9
9
9
9
9
9
9
9
9
9
9
9
9
9
9
9
9
9
9
9
9
9
9
9
9
9
9
9
9
9
9
9
9
9
9
9
9
9
9
9
9
9
9
9
9
9
9
9
9
9
9
9
9
9
9
9
9
9
9
9
9
9
9
9
9
9
9
9
9
9
9
9
9
9
9
9
9
9
9
9
9
9
9
9
9
9
9
9
9
9
9
9
9
9
9
9
9
9
9
9
9
9
9
9
9
9
9
9
9
9
9
9
9
9
9
9
9
9
9
9
9
9
9
9
9
9
9
9
9
9
9
9
9
9
9
9
9
9
9
9
9
9
9
9
9
9
9
9
9
9
9
9
9
9
9
9
9
9
9
9
9
9
9
9
9
9
9
9
9
9
9
9
9
9
9
9
9
9
9
9
9
9
9
9
9
9
9
9
9
9
9
9
9
9
9
9
9
9
9
9
9
9
9
POINT_DATA 861
SCALARS Disp float 2
LOOKUP_TABLE default
0.0 0.0
0.010576251654897817 -0.1932889096974758
0.018838028807462024 -0.35661102794048444
0.025465089265941553 -0.5171297108161326
0.033036243213842235 -0.6745611124087743
0.04214189728263836 -0.8288352279983252
0.05307239545716416 -0.9792148404488863
0.06594426388469787 -1.1249034425024584
0.08079564751595693 -1.2650779590257344
0.09763538724236398 -1.398925434470473
0.1164621609611368 -1.525642327505964
0.1372729207188965 -1.644432465452357
0.16006579074011607 -1.754504571827824
0.18484284744586305 -1.8550711635009816
0.21161608922550135 -1.9453459357036478
0.24041837292991555 -2.024532949166581
0.2713144199946951 -2.091795772029835
0.304389933985489 -2.14619534511575
0.339671534241622 -2.18660973627516
0.3769296350120006 -2.2117239440217347
0.41542770241416466 -2.2202852930995802
0.453925769816329 -2.211723944021735
0.49118387058670765 -2.1866097362751606
0.5264654708428408 -2.1461953451157507
0.5595409848336347 -2.0917957720298355
0.5904370318984142 -2.024532949166581
0.6192393156028283 -1.9453459357036473
0.6460125573824667 -1.8550711635009804
0.6707896140882137 -1.7545045718278232
0.6935824841094331 -1.644432465452356
0.7143932438671926 -1.5256423275059632
0.7332200175859654 -1.3989254344704727
0.7500597573123726 -1.265077959025734
0.7649111409436318 -1.124903442502458
0.7777830093711655 -0.9792148404488851
0.7887135075456911 -0.8288352279983254
0.7978191616144873 -0.6745611124087741
0.805390315562388 -0.517129710816133
0.8120173760208675 -0.35661102794048405
0.8202791531734319 -0.19328890969747528
0.8308554048283298 0.0
0.047880273634733725 -0.006568057032181832
0.05446612883385095 -0.19277690693012045
0.05902452008487436 -0.35753845813445695
0.06516512065832689 -0.5177763134648995
0.07189864967987895 -0.6754130268282579
0.08011976006274332 -0.8298499739811418
0.08997079854187207 -0.980426094290658
0.10156464394479918 -1.1263142234732324
0.11493503829067074 -1.2666909548942684
0.13009235425721724 -1.4007407072747924
0.1470369608025587 -1.5276596748423892
0.16576709707437837 -1.646651629477299
0.18628180254961627 -1.7569255261882128
0.20858354066813106 -1.8576944750933686
0.2326830006412994 -1.9481735629526078
0.25860689812310866 -2.0275694088939638
0.2864036581365986 -2.095048554729247
0.31612803261197964 -2.14967123083683
0.3477678183544784 -2.190301561675902
0.38108362774766136 -2.2155860993776497
0.4154277024141647 -2.2242149914252596
0.4497717770806683 -2.21558609937765
0.48308758647385136 -2.190301561675902
0.5147273722163501 -2.14967123083683
0.5444517466917309 -2.0950485547292472
0.572248506705221 -2.0275694088939633
0.5981724041870303 -1.9481735629526074
0.6222718641601986 -1.8576944750933677
0.6445736022787135 -1.7569255261882122
0.6650883077539512 -1.646651629477298
0.6838184440257707 -1.5276596748423885
0.7007630505711123 -1.400740707274792
0.7159203665376589 -1.2666909548942682
0.7292907608835304 -1.1263142234732317
0.7408846062864576 -0.9804260942906567
0.7507356447655862 -0.829849973981142
0.7589567551484506 -0.6754130268282577
0.7656902841700027 -0.5177763134648998
0.7718308847434553 -0.35753845813445656
0.7763892759944787 -0.1927769069301199
0.782975131193596 -0.0065680570321818765
0.09250038764676974 -0.012209838736973962
0.0972241363470259 -0.19240140538020784
0.09967743765643272 -0.35804945909305286
0.10459400684814628 -0.5184058001391729
0.11056484576095806 -0.6761505723008764
0.1178403000098553 -0.830761323318137
0.12660442798732852 -0.9815090936789135
0.13691450966065924 -1.127577139356028
0.14880302125024622 -1.2681343903770603
0.16227798443746988 -1.4023650653629676
0.1773407658164434 -1.529464762260642
0.19399048249712217 -1.648637291519739
0.21222677054925437 -1.7590917476942638
0.23205178535545304 -1.8600416574834864
0.2534736217726076 -1.95070308341115
0.27651151911072935 -2.030284494017448
0.3011988818147292 -2.097954695127773
0.32756947546517745 -2.1527735672784023
0.35559784174219566 -2.1935945854629657
0.38506947008926956 -2.219032560522267
0.4154277024141648 -2.2277246032299534
0.44578593473906014 -2.2190325605222676
0.47525756308613404 -2.1935945854629657
0.5032859293631523 -2.1527735672784023
0.5296565230136003 -2.097954695127773
0.5543438857176002 -2.030284494017448
0.5773817830557221 -1.9507030834111496
0.5988036194728766 -1.8600416574834855
0.6186286342790753 -1.7590917476942631
0.6368649223312075 -1.6486372915197378
0.6535146390118861 -1.5294647622606417
0.6685774203908598 -1.4023650653629671
0.6820523835780834 -1.26813439037706
0.6939408951676703 -1.1275771393560274
0.7042509768410011 -0.9815090936789124
0.7130151048184742 -0.8307613233181373
0.7202905590673716 -0.6761505723008762
0.7262613979801833 -0.5184058001391731
0.7311779671718969 -0.3580494590930526
0.7336312684813038 -0.1924014053802073
0.7383550171815598 -0.012209838736974024
0.13519419287786844 -0.017031829304478493
0.13894643837719886 -0.1922909968443362
0.14024729840269268 -0.3582757479360503
0.14390670809390693 -0.5189259049230316
0.1490122449268856 -0.6767923815893805
0.1553416223264132 -0.8315585752852208
0.16300129521180234 -0.9824643383987066
0.17202500527452283 -1.1286912994594618
0.182430010538502 -1.2694083118374961
0.19422258824158692 -1.4037985241251265
0.20740369193370012 -1.5310576426864193
0.22197307555836107 -1.6503894515839015
0.23793064193566768 -1.7610031148157506
0.25527771203332267 -1.8621123040431653
0.27401893590615745 -1.9529335687052867
0.2941654726291865 -2.0326766754194314
0.31573756966507965 -2.100512879938133
0.33875702232996163 -2.155504252046911
0.363205705867539 -2.1964996601888145
0.38891864504470963 -2.2220877499018306
0.4154277024141649 -2.230846192398597
0.44193675978362007 -2.222087749901831
0.4676496989607907 -2.1964996601888145
0.49209838249836796 -2.1555042520469105
0.5151178351632498 -2.100512879938133
0.5366899321991432 -2.0326766754194314
0.5568364689221723 -1.9529335687052864
0.5755776927950071 -1.8621123040431644
0.5929247628926619 -1.7610031148157501
0.6088823292699685 -1.6503894515839002
0.6234517128946295 -1.531057642686419
0.6366328165867426 -1.4037985241251263
0.6484253942898276 -1.269408311837496
0.6588303995538067 -1.1286912994594613
0.6678541096165272 -0.9824643383987055
0.6755137825019164 -0.831558575285221
0.681843159901444 -0.6767923815893803
0.6869486967344226 -0.5189259049230319
0.690608106425637 -0.35827574793604994
0.6919089664511308 -0.19229099684433568
0.6956612119504612 -0.017031829304478538
0.1766571405210301 -0.02113884491597239
0.17982411774135937 -0.1924321089605743
0.1805112872220896 -0.35833921110859257
0.1830902634787805 -0.5193102608444993
0.1872721851321222 -0.6773328178896949
0.1926446927378172 -0.8322411996701531
0.199192891447965 -0.9832898467746513
0.2069260309314566 -1.1296565995800172
0.21584655722963297 -1.2705125432571602
0.2259564082809538 -1.4050411152944464
0.23725587497920564 -1.5324383318497923
0.24974490540683383 -1.651908098613359
0.2634234464678498 -1.7626595200248298
0.2782916256743971 -1.863906106615086
0.2943502049298483 -1.9548643759338296
0.3116022017317887 -2.0347450010334107
0.33005666646190757 -2.102722592295818
0.3497307918920684 -2.1578656239374716
0.37062959273253937 -2.1990264132945847
0.3926558873252927 -2.224772038516669
0.4154277024141649 -2.233606481927868
0.4381995175030371 -2.224772038516669
0.4602258120957903 -2.1990264132945843
0.48112461293626124 -2.157865623937471
0.5007987383664221 -2.1027225922958186
0.519253203096541 -2.0347450010334107
0.5365051998984812 -1.9548643759338291
0.5525637791539326 -1.863906106615085
0.5674319583604798 -1.7626595200248292
0.5811104994214957 -1.651908098613358
0.593599529849124 -1.5324383318497923
0.6048989965473758 -1.405041115294446
0.6150088475986966 -1.27051254325716
0.623929373896873 -1.1296565995800165
0.6316625133803646 -0.98328984677465
0.6382107120905124 -0.8322411996701534
0.6435832196962074 -0.6773328178896948
0.6477651413495491 -0.5193102608444996
0.6503441176062401 -0.3583392111085922
0.6510312870869702 -0.1924321089605738
0.6541982643072994 -0.021138844915972437
0.21728873558654227 -0.024627266968709604
0.22004082462081118 -0.1927668432922956
0.22040383060939747 -0.35832412191028973
0.22210917640864739 -0.519565488793768
0.2253698261070847 -0.677765369728834
0.22977447962048403 -0.8328089386353429
0.2352082376159175 -0.9839847025871632
0.2416479350558414 -1.1304727030533945
0.24908293438646548 -1.2714470102595643
0.25750971552268104 -1.4060928135138817
0.26692744268794816 -1.5336068340507802
0.2773360322032632 -1.6531932113094963
0.2887352770688354 -1.7640608834207419
0.3011239474794075 -1.8654228728794178
0.3144988367392824 -1.9564951539126108
0.328855156239791 -2.0364890310467296
0.34419246023116773 -2.1045838544710556
0.3605285938451292 -2.1598599162847707
0.3779031000132785 -2.2011827159864183
0.396301279576141 -2.2271023000422785
0.4154277024141649 -2.236028453318236
0.43455412525218884 -2.227102300042278
0.4529523048150512 -2.201182715986418
0.4703268109832005 -2.1598599162847707
0.48666294459716186 -2.1045838544710556
0.5020002485885386 -2.0364890310467296
0.5163565680890472 -1.9564951539126103
0.5297314573489221 -1.865422872879417
0.5421201277594941 -1.7640608834207412
0.5535193726250665 -1.6531932113094956
0.5639279621403814 -1.5336068340507802
0.5733456893056486 -1.4060928135138813
0.5817724704418641 -1.271447010259564
0.5892074697724882 -1.1304727030533936
0.5956471672124122 -0.9839847025871621
0.6010809252078455 -0.8328089386353432
0.6054855787212449 -0.6777653697288336
0.6087462284196822 -0.5195654887937684
0.610451574218932 -0.35832412191028934
0.6108145802075184 -0.1927668432922951
0.6135666692417873 -0.024627266968709656
0.2573381048280619 -0.027580900831109714
0.2597502531195675 -0.1932309314650332
0.2599338173043792 -0.358280675641917
0.2609429188205194 -0.5197104600847499
0.26332264627062485 -0.678088469158628
0.26675762381217133 -0.8332613279962789
0.2710758617667738 -0.9845486964156355
0.27622082653114277 -1.131139347521382
0.28216939632990456 -1.2722116390789708
0.2889127316593347 -1.40695358507234
0.29644853159555856 -1.534563133694112
0.3047765352105002 -1.6542447668744715
0.3138962708768202 -1.7652071586882057
0.3238051559325578 -1.8666625325424266
0.3344962622455888 -1.9578258342241934
0.3459576311918418 -2.037908774565598
0.3581805535999987 -2.106097027846158
0.3711863840278423 -2.1614888586954577
0.38505647076886645 -2.2029743376902107
0.39987161335731475 -2.2290923059196506
0.4154277024141648 -2.2381325472412614
0.430983791471015 -2.22909230591965
0.44579893405946336 -2.2029743376902107
0.4596690208004873 -2.1614888586954573
0.47267485122833097 -2.1060970278461575
0.48489777363648784 -2.0379087745655986
0.4963591425827408 -1.9578258342241928
0.5070502488957718 -1.866662532542426
0.5169591339515094 -1.7652071586882048
0.5260788696178295 -1.654244766874471
0.534406873232771 -1.534563133694112
0.5419426731689949 -1.4069535850723394
0.548686008498425 -1.2722116390789702
0.5546345782971869 -1.1311393475213813
0.5597795430615558 -0.9845486964156346
0.5640977810161582 -0.8332613279962792
0.5675327585577047 -0.6780884691586276
0.5699124860078102 -0.5197104600847502
0.5709215875239505 -0.3582806756419166
0.5711051517087621 -0.1932309314650327
0.5735173000002677 -0.027580900831109766
0.29697181142365847 -0.030070204120469523
0.29907654292743957 -0.19376742414464815
0.2991436244079779 -0.3582345193788201
0.29959101037170904 -0.5197657130456886
0.3011464021873825 -0.6783051532447079
0.30362060829081083 -0.8335985151316584
0.3068244893712368 -0.9849819647406053
0.3106745979226366 -1.1316564464711767
0.31513615968049735 -1.2728063594616768
0.320195649469278 -1.4076233900881105
0.32584927478250136 -1.5353072024533367
0.33209650874382635 -1.655062743154586
0.33893658800883114 -1.7660983355787336
0.34636573222547257 -1.867625132376601
0.3543738234099344 -1.9588566102986031
0.3629426318212402 -2.0390046353032187
0.3720558942252093 -2.1072626810663793
0.3817387921981346 -2.16275341810747
0.39211769643338745 -2.204404682587902
0.4033813452426974 -2.2307529496246414
0.41542770241416477 -2.239937669153089
0.4274740595856324 -2.2307529496246414
0.4387377083949422 -2.2044046825879016
0.44911661263019503 -2.1627534181074695
0.45879951060312046 -2.107262681066379
0.46791277300708933 -2.039004635303219
0.4764815814183952 -1.9588566102986027
0.4844896726028569 -1.8676251323766009
0.49191881681949834 -1.7660983355787325
0.49875889608450324 -1.6550627431545855
0.5050061300458282 -1.5353072024533367
0.5106597553590517 -1.40762339008811
0.5157192451478323 -1.272806359461676
0.5201808069056931 -1.131656446471176
0.5240309154570927 -0.9849819647406042
0.5272347965375187 -0.8335985151316585
0.529709002640947 -0.6783051532447076
0.5312643944566205 -0.5197657130456891
0.5317117804203517 -0.3582345193788197
0.5317788619008901 -0.19376742414464765
0.5338835934046712 -0.030070204120469575
0.3363082412783502 -0.03215354737410928
0.33811996237676184 -0.194330468987893
0.33808892707634064 -0.3581953892609049
0.33806936410141447 -0.5197489163961385
0.33885916839709973 -0.6784212448637358
0.34038971065675694 -0.8338216575093403
0.34248306097447584 -0.9852849056395616
0.3450390838043861 -1.1320240647799862
0.3480133851886964 -1.2732311258582116
0.35138864062904807 -1.4081021819652433
0.3551597981744591 -1.535839004008322
0.35932605495011494 -1.6556471204833996
0.36388639331327904 -1.766734437475512
0.36883611265235317 -1.868310821987913
0.3741626742585036 -1.959587905689177
0.3798427515567008 -2.0397773691407526
0.38585282682710415 -2.108081533663086
0.392219678872105 -2.163653669471213
0.3991135465787552 -2.205474551983165
0.4068433321249848 -2.2320922856770613
0.4154277024141648 -2.2414621340545757
0.4240120727033448 -2.232092285677061
0.43174185824957456 -2.205474551983164
0.4386357259562246 -2.1636536694712136
0.4450025780012255 -2.1080815336630856
0.45101265327162876 -2.0397773691407526
0.456692730569826 -1.9595879056891767
0.4620192921759764 -1.8683108219879123
0.46696901151505044 -1.7667344374755114
0.4715293498782147 -1.6556471204833993
0.4756956066538705 -1.535839004008322
0.47946676419928147 -1.4081021819652428
0.4828420196396332 -1.2732311258582107
0.4858163210239435 -1.1320240647799855
0.48837234385385364 -0.9852849056395604
0.49046569417157254 -0.8338216575093406
0.4919962364312298 -0.6784212448637355
0.4927860407269151 -0.5197489163961388
0.49276647775198895 -0.35819538926090444
0.4927354424515677 -0.19433046898789244
0.49454716354997935 -0.03215354737410935
0.3754362732029791 -0.03387934222806008
0.3769627215816422 -0.19488519167601243
0.37682894191460975 -0.3581634981109616
0.3764053288642432 -0.519673484103676
0.3764829893331747 -0.6784436650467173
0.37709160555929533 -0.8339328519399958
0.37808070249618014 -0.9854581815012216
0.3793441513101533 -1.1322423768955427
0.38083119213955824 -1.2734859231391862
0.38252185391722676 -1.408389910551207
0.38441021955685445 -1.5361584964289121
0.3864952772034547 -1.6559978825317854
0.3887758411454868 -1.767115515429272
0.3912466516213167 -1.8687198316914369
0.3938936976310126 -1.9600203313501738
0.39669005039518096 -2.0402280511165243
0.3996051236655138 -2.1085544776591036
0.4026626884175004 -2.1641887980707457
0.40607060109005233 -2.2061819072015276
0.4102694719506931 -2.23311534971316
0.41542770241416477 -2.242724659267553
0.42058593287763646 -2.23311534971316
0.42478480373827743 -2.206181907201527
0.42819271641082923 -2.1641887980707457
0.4312502811628157 -2.1085544776591036
0.43416535443314863 -2.0402280511165243
0.4369617071973169 -1.9600203313501734
0.4396087532070128 -1.868719831691436
0.4420795636828427 -1.7671155154292715
0.4443601276248748 -1.655997882531785
0.44644518527147503 -1.536158496428912
0.4483335509111027 -1.4083899105512065
0.4500242126887713 -1.2734859231391855
0.4515112535181763 -1.1322423768955419
0.45277470233214934 -0.9854581815012202
0.45376379926903426 -0.8339328519399959
0.4543724154951548 -0.6784436650467169
0.4544500759640863 -0.5196734841036762
0.45402646291371984 -0.35816349811096115
0.4538926832466874 -0.19488519167601187
0.4554191316253504 -0.033879342228060126
0.4144259251391866 -0.03528835341442092
0.4156736493552628 -0.19540623267132087
0.41542191374066706 -0.3581338666976331
0.41463352499793227 -0.5195486698179752
0.41404407403118126 -0.6783792714113864
0.41375394233015994 -0.8339348264975242
0.4136467809970009 -0.9855026952452844
0.4136197358190315 -1.132311633449605
0.41361967853363224 -1.2735707602463882
0.4136254142887903 -1.4084865251590817
0.41363064713515774 -1.5362656340509604
0.4136342752906133 -1.6561150158238152
0.41363506384092374 -1.7672416398771447
0.41362759761112927 -1.868852444666984
0.41359744318803016 -1.9601546306795075
0.4135159248236028 -2.040358042971245
0.41334594413137 -2.1086826741593665
0.41310176171847307 -2.1643572523094927
0.4130163725405183 -2.206521634576031
0.41367136428577195 -2.233823695491939
0.41542770241416477 -2.2437455116479335
0.41718404054255753 -2.2338236954919384
0.4178390322878114 -2.2065216345760303
0.4177536431098565 -2.1643572523094923
0.41750946069695954 -2.108682674159366
0.4173394800047268 -2.040358042971245
0.4172579616402993 -1.960154630679507
0.4172278072172003 -1.8688524446669832
0.41722034098740574 -1.7672416398771442
0.4172211295377162 -1.6561150158238145
0.41722475769317174 -1.5362656340509602
0.41722999053953924 -1.4084865251590812
0.4172357262946973 -1.2735707602463877
0.4172356690092981 -1.132311633449604
0.41720862383132856 -0.9855026952452832
0.4171014624981696 -0.8339348264975242
0.41681133079714827 -0.6783792714113862
0.4162218798303972 -0.5195486698179755
0.4154334910876624 -0.35813386669763264
0.41518175547306674 -0.19540623267132026
0.4164294796891429 -0.035288353414421
0.45333459890362954 -0.03641586650814627
0.4543116238744871 -0.19587600296543395
0.45392321745224623 -0.35809911608928535
0.45279284166667344 -0.5193802596435375
0.4515723205587619 -0.6782341957742404
0.45040568675993975 -0.8338305760564182
0.44921100193399505 -0.9854195153931011
0.44789585582618807 -1.1322321309910406
0.4464089335503552 -1.2734856593505908
0.44472942386891817 -1.4083919757884467
0.4428511781852684 -1.5361603692833474
0.4407731425163294 -1.6559985082458746
0.4384941641889986 -1.767112891024801
0.4360090826881114 -1.8687089664868481
0.433304095352135 -1.9599916115439642
0.4303509704434875 -2.04016894486323
0.4271076668492183 -2.108467712638329
0.42357154650899326 -2.1641570854514045
0.41998061984533386 -2.2064853479081963
0.4170611313363509 -2.2342145406994005
0.41542770241416477 -2.244547927440171
0.4137942734919785 -2.2342145406994005
0.41087478498299573 -2.206485347908196
0.4072838583193362 -2.1641570854514036
0.4037477379791113 -2.1084677126383284
0.400504434384842 -2.040168944863229
0.3975513094761945 -1.9599916115439635
0.39484632214021814 -1.8687089664868473
0.39236124063933087 -1.7671128910248006
0.3900822623120001 -1.655998508245874
0.38800422664306106 -1.5361603692833472
0.3861259809594113 -1.408391975788446
0.3844464712779743 -1.2734856593505903
0.38295954900214146 -1.13223213099104
0.38164440289433443 -0.9854195153931001
0.38044971806838973 -0.8338305760564183
0.37928308426956764 -0.6782341957742402
0.37806256316165604 -0.5193802596435378
0.3769321873760833 -0.3580991160892849
0.3765437809538424 -0.19587600296543337
0.3775208059246999 -0.036415866508146336
0.4922107482080223 -0.037293587708718594
0.49292794253244865 -0.19628307167792491
0.49238474142486016 -0.35805120931007456
0.49092446193299605 -0.5191714307650616
0.4891006388924602 -0.6780135439306614
0.48707722842484164 -0.8336230336230972
0.4848034885251025 -0.9852097645183518
0.48220261999320907 -1.1320041780796843
0.4792290411447925 -1.2732306443930805
0.4758639629930756 -1.4081062130316921
0.47210189842474626 -1.5358426543590726
0.4679419651018037 -1.65564834701154
0.46338321202275157 -1.7667293485081494
0.4584211232031949 -1.8682896958945239
0.45304348143563133 -1.9595320676327632
0.44722485822827 -2.039662507374633
0.4409215333711767 -2.107911802219915
0.43410758584183573 -2.163586545443547
0.42699696773151036 -2.2060613187457085
0.42045261757081887 -2.2342793500957856
0.41542770241416477 -2.245159942893673
0.4104027872575105 -2.234279350095785
0.4038584370968192 -2.206061318745708
0.39674781898649375 -2.163586545443546
0.3899338714571528 -2.107911802219915
0.38363054660005963 -2.039662507374632
0.3778119233926981 -1.9595320676327623
0.3724342816251347 -1.868289695894523
0.3674721928055779 -1.7667293485081488
0.3629134397265257 -1.6556483470115393
0.3587535064035833 -1.5358426543590726
0.35499144183525383 -1.4081062130316917
0.35162636368353706 -1.2732306443930799
0.3486527848351204 -1.1320041780796835
0.34605191630322696 -0.9852097645183507
0.34377817640348785 -0.8336230336230973
0.3417547659358694 -0.6780135439306612
0.33993094289533343 -0.5191714307650618
0.3384706634034693 -0.3580512093100741
0.33792746229588083 -0.19628307167792433
0.3386446566203071 -0.037293587708718656
0.5310959288588594 -0.03795125271629952
0.5315678472744666 -0.19662081924551783
0.5308548871443791 -0.3579825248333861
0.5290706903871049 -0.5189235813772697
0.5266643074439534 -0.6777213182178983
0.5238003166978642 -0.8333148074545345
0.5204548094685172 -0.9848744936837813
0.5165702251555192 -1.1316280567273407
0.5121100770025103 -1.272805730380501
0.5070590901846079 -1.407629187682056
0.5014128820703008 -1.535312443156189
0.4951708241499407 -1.6550645167151663
0.48833224608340664 -1.7660910803200793
0.4808936255522592 -1.8675949003672978
0.47284512511111093 -1.9587766986457107
0.4641662784728932 -2.038840476159466
0.4548170560024092 -2.1070179285894803
0.4447460536125541 -2.1626449873887674
0.43410494488334256 -2.205234724097306
0.42386335644370493 -2.234001594374925
0.41542770241416477 -2.2456167907062743
0.40699204838462444 -2.2340015943749245
0.39675045994498703 -2.2052347240973056
0.3861093512157755 -2.162644987388766
0.3760383488259203 -2.10701792858948
0.3666891263554364 -2.0388404761594656
0.35801027971721855 -1.9587766986457098
0.34996177927607036 -1.8675949003672967
0.3425231587449229 -1.7660910803200787
0.33568458067838874 -1.6550645167151654
0.3294425227580287 -1.5353124431561889
0.32379631464372144 -1.4076291876820555
0.31874532782581916 -1.2728057303805005
0.31428517967281033 -1.1316280567273398
0.3104005953598123 -0.9848744936837801
0.30705508813046534 -0.8333148074545348
0.30419109738437616 -0.677721318217898
0.3017847144412247 -0.5189235813772699
0.3000005176839504 -0.35798252483338566
0.2992875575538629 -0.1966208192455172
0.2997594759694701 -0.037951252716299594
0.5700257319662748 -0.03841796075648411
0.5702713795804216 -0.1968863813508392
0.5693788782128968 -0.3578865452840789
0.5672743937285684 -0.5186370546727891
0.5643004579122973 -0.6773604492619898
0.5606078863293561 -0.8329079810103165
0.556195945152339 -0.984414561589739
0.5510289405603446 -1.1311039826446199
0.5450821005714934 -1.2722109141971847
0.538344841082601 -1.406960850902254
0.5308141924404864 -1.5345696931994268
0.5224897993297737 -1.6542469984968304
0.5133712844563904 -1.765198130792353
0.5034563903692724 -1.866624796495743
0.49273832944931617 -1.9577260498887425
0.4812030498899317 -2.0377043515507856
0.4688212129717254 -2.1057898462669526
0.45552260522136506 -2.1613341737309586
0.4413524840302981 -2.2039885877355685
0.42731805605427764 -2.233353300318583
0.4154277024141647 -2.245964001454539
0.40353734877405173 -2.233353300318582
0.38950292079803145 -2.203988587735568
0.37533279960696453 -2.1613341737309573
0.362034191856604 -2.105789846266952
0.3496523549383979 -2.0377043515507847
0.3381170753790134 -1.9577260498887419
0.3273990144590572 -1.8666247964957423
0.3174841203719391 -1.7651981307923525
0.3083656054985557 -1.6542469984968295
0.30004121238784304 -1.5345696931994266
0.2925105637457283 -1.4069608509022533
0.28577330425683606 -1.272210914197184
0.279826464267985 -1.1311039826446192
0.2746594596759904 -0.9844145615897378
0.27024751849897344 -0.8329079810103168
0.26655494691603215 -0.6773604492619896
0.2635810110997613 -0.5186370546727895
0.2614765266154327 -0.35788654528407843
0.2605840252479078 -0.19688638135083855
0.26082967286205466 -0.038417960756484196
0.609029825728798 -0.03872325202902971
0.6090736856736072 -0.1970798842108815
0.6079992829297 -0.3577583715576628
0.6055789279897448 -0.5183117279616197
0.602047701428553 -0.6769328492774215
0.5975338117915959 -0.8324039603232096
0.5920581968263018 -0.9838305312179089
0.585609075482043 -1.13043206952949
0.5781751430718974 -1.271446167921178
0.569751226723213 -1.4061011556608871
0.5603358837198267 -1.5336143676970535
0.5499289716383525 -1.6531957713255208
0.5385303466252156 -1.764050509598933
0.526139121303542 -1.8653795267224238
0.512752228759087 -1.956380500001795
0.4983625123991599 -2.0362550916836226
0.48295767476396356 -2.1042316755263695
0.4664695835203245 -2.15965993519205
0.44879862183440944 -2.202306148163871
0.4308551554349545 -2.2322898619747935
0.4154277024141647 -2.2462612162238083
0.4000002493933749 -2.232289861974793
0.38205678299391993 -2.2023061481638706
0.364385821308005 -2.159659935192049
0.347897730064366 -2.1042316755263686
0.33249289242916963 -2.0362550916836217
0.3181031760692425 -1.9563805000017944
0.3047162835247875 -1.865379526722423
0.29232505820311394 -1.7640505095989325
0.28092643318997695 -1.6531957713255199
0.2705195211085028 -1.533614367697053
0.26110417810511644 -1.4061011556608864
0.25268026175643205 -1.271446167921177
0.24524632934628648 -1.1304320695294894
0.23879720800202772 -0.9838305312179076
0.23332159303673353 -0.83240396032321
0.22880770339977646 -0.6769328492774213
0.22527647683858482 -0.51831172796162
0.22285612189862963 -0.3577583715576623
0.22178171915472233 -0.19707988421088088
0.2218255790995315 -0.03872325202902977
0.6481311258523305 -0.03889792346216555
0.6480048485961887 -0.19720399869656782
0.6467568104062907 -0.3575952240342972
0.6440284803415031 -0.5179474428272145
0.639945854639417 -0.6764394186774019
0.6346126087089519 -0.831803354107588
0.628073050348239 -0.9831225920802769
0.620340930215346 -1.1296123024803806
0.611419192528157 -1.2705114359245568
0.6013082312805994 -1.405050060003204
0.5900080051220244 -1.5324464376962863
0.5775184241315516 -1.6519108141871295
0.5638394774159678 -1.7626481902546625
0.548971481872997 -1.8638591152831612
0.5329157033049072 -1.9547403048682312
0.5156721966453356 -2.034492909677302
0.49724685928399975 -2.1023467614144673
0.47761042207009324 -2.157633829755371
0.45651505482175697 -2.2001760765013163
0.43453986888130175 -2.2307424880517606
0.41542770241416477 -2.246586226138173
0.3963155359470277 -2.230742488051761
0.3743403500065722 -2.200176076501316
0.35324498275823624 -2.1576338297553708
0.33360854554432984 -2.1023467614144664
0.3151832081829938 -2.0344929096773017
0.29793970152342236 -1.9547403048682306
0.28188392295533243 -1.8638591152831603
0.26701592741236163 -1.7626481902546616
0.2533369806967777 -1.6519108141871286
0.24084739970630503 -1.5324464376962859
0.22954717354773008 -1.4050500600032036
0.2194362123001724 -1.2705114359245562
0.21051447461298345 -1.1296123024803801
0.2027823544800904 -0.9831225920802755
0.19624279611937767 -0.8318033541075883
0.19090955018891254 -0.6764394186774016
0.1868269244868265 -0.5179474428272147
0.18409859442203885 -0.3575952240342967
0.18285055623214092 -0.19720399869656724
0.18272427897599905 -0.03889792346216559
0.6873438986603826 -0.03897452930695969
0.6870893032856991 -0.19726391799429166
0.6856916082269674 -0.3573970581798515
0.6826687725415703 -0.51754422152752
0.6780356767240199 -0.675879954414139
0.6718790920561001 -0.8311058814511187
0.6642720081486514 -0.9822905124833685
0.6552547325445898 -1.1286445246680048
0.6448441776186493 -1.269406637361717
0.633045810206778 -1.4038075317791219
0.6198606045126686 -1.5310658865730606
0.6052882530252742 -1.6503921030353046
0.5893287328381854 -1.7609911301876582
0.5719832691795803 -1.862063407752381
0.5532571678595367 -1.9528055949887977
0.5331601642391115 -2.0324175385291277
0.5117086923958096 -2.1001355144325404
0.48895028861862677 -2.1552734116429706
0.4645815376685913 -2.1976032994037853
0.4384918283445575 -2.228607937943172
0.41542770241416477 -2.247037194407953
0.3923635764837719 -2.228607937943172
0.3662738671597379 -2.197603299403785
0.3419051162097027 -2.1552734116429706
0.31914671243251974 -2.10013551443254
0.29769524058921787 -2.0324175385291268
0.2775982369687928 -1.952805594988797
0.2588721356487492 -1.86206340775238
0.24152667199014397 -1.7609911301876575
0.22556715180305514 -1.6503921030353035
0.21099480031566104 -1.5310658865730604
0.19780959462155145 -1.4038075317791212
0.18601122720968016 -1.2694066373617163
0.17560067228373985 -1.1286445246680041
0.16658339667967803 -0.9822905124833671
0.15897631277222946 -0.8311058814511191
0.15281972810430972 -0.6758799544141386
0.14818663228675918 -0.5175442215275202
0.14516379660136217 -0.357397058179851
0.14376610154263048 -0.19726391799429108
0.143511506167947 -0.038974529306959736
0.7266702752572037 -0.038987430768461506
0.7263449195775865 -0.19726802099250326
0.724845550548421 -0.35716737864836845
0.7215480000555606 -0.5171021433399615
0.7163584882315992 -0.6752529374002455
0.7093680132284022 -0.8303103151179292
0.7006863967116654 -0.9813336218446161
0.6903805654863483 -1.1275284409823194
0.6784799511092089 -1.268131675877293
0.6649938940420588 -1.4023735531231978
0.6499237204677103 -1.5294727191622821
0.633268606443111 -1.648639604404418
0.6150281286795773 -1.759079282811364
0.5952045379941397 -1.8599921260749064
0.5738049882611569 -1.9505759795752438
0.5508529748863337 -2.0300294313969283
0.5263706524964191 -2.0975930118990758
0.5004665827134692 -2.1525967811046836
0.4730574213640352 -2.194630651808537
0.4429483438536524 -2.225737099571986
0.41542770241416477 -2.2477261522738723
0.3879070609746769 -2.2257370995719854
0.35779798346429403 -2.194630651808537
0.3303888221148601 -2.152596781104684
0.30448475233191014 -2.097593011899075
0.28000242994199576 -2.030029431396928
0.2570504165671724 -1.9505759795752433
0.23565086683418968 -1.8599921260749057
0.2158272761487521 -1.7590792828113635
0.19758679838521834 -1.6486396044044165
0.1809316843606193 -1.5294727191622817
0.1658615107862707 -1.4023735531231971
0.15237545371912073 -1.2681316758772925
0.14047483934198124 -1.1275284409823187
0.13016900811666401 -0.9813336218446149
0.1214873915999275 -0.8303103151179294
0.11449691659673038 -0.6752529374002452
0.10930740477276887 -0.5171021433399616
0.10600985427990851 -0.35716737864836795
0.10451048525074308 -0.19726802099250268
0.10418512957112587 -0.038987430768461555
0.7660940389544583 -0.03897211844293471
0.7657819719962603 -0.19722980467127837
0.7642665217051933 -0.3569142266247249
0.7607175323262769 -0.5166206268781103
0.75495559452876 -0.6745552557833988
0.747113713094162 -0.8294144670364275
0.7373471409305653 -0.9802508203479201
0.7257482993975982 -1.1262636447155008
0.7123562772948194 -1.2666864533540025
0.697182385110901 -1.4007481329657654
0.6802274097339626 -1.5276669507509413
0.6614896033909115 -1.6466533321667796
0.640967963303437 -1.7569124462666734
0.6186646735493166 -1.8576453095183223
0.5945903472068809 -1.9480496325401377
0.5687699595232903 -2.0273305906135426
0.5412746168539752 -2.094712386165109
0.5121304589924853 -2.1495989165796137
0.48186558895718967 -2.19138042984419
0.44842355168664516 -2.2219323959262796
0.41542770241416477 -2.2487411352454463
0.38243185314168415 -2.22193239592628
0.34898981587113964 -2.19138042984419
0.3187249458358438 -2.149598916579614
0.28958078797435394 -2.0947123861651087
0.262085445305039 -2.027330590613542
0.2362650576214485 -1.9480496325401373
0.21219073127901283 -1.8576453095183219
0.18988744152489254 -1.7569124462666728
0.16936580143741795 -1.6466533321667782
0.15062799509436717 -1.5276669507509408
0.13367301971742857 -1.400748132965765
0.11849912753351016 -1.266686453354002
0.10510710543073128 -1.1262636447155001
0.09350826389776411 -0.980250820347919
0.0837416917341677 -0.8294144670364277
0.0758998102995695 -0.6745552557833986
0.07013787250205268 -0.5166206268781104
0.0665888831231363 -0.3569142266247244
0.06507343283206922 -0.19722980467127776
0.06476136587387135 -0.038972118442934765
0.8055693206690394 -0.03896325712619417
0.8054025025676511 -0.19717236781093286
0.8040169682473014 -0.3566509767438709
0.8002306064384511 -0.5160966678921073
0.7938680573211803 -0.6737821481520222
0.7851496068583248 -0.8284151297219674
0.774284566239551 -0.9790406512506767
0.7613875253054004 -1.1248496582750078
0.7465028241107716 -1.2650708943090725
0.729641168227311 -1.3989313099549456
0.7108017276329787 -1.5256486349466292
0.6899814435158325 -1.6444332624802074
0.6671783888468454 -1.7544906208445838
0.642394243521658 -1.8550220809842497
0.6156404191849458 -1.9452276123075047
0.5869484934195166 -2.024311088730916
0.5563965639778071 -2.091521099374749
0.5241305129284253 -2.1461754766725267
0.4903473574208283 -2.1881262760649816
0.45615609613562846 -2.216999012873109
0.4154277024141649 -2.25
0.37469930869270074 -2.21699901287311
0.34050804740750096 -2.1881262760649816
0.3067248918999038 -2.146175476672527
0.27445884085052175 -2.091521099374749
0.2439069114088127 -2.024311088730915
0.2152149856433836 -1.9452276123075047
0.18846116130667145 -1.8550220809842493
0.16367701598148382 -1.7544906208445834
0.1408739613124969 -1.644433262480206
0.12005367719535114 -1.5256486349466287
0.10121423660101869 -1.3989313099549452
0.08435258071755798 -1.265070894309072
0.06946787952292906 -1.124849658275007
0.05657083858877837 -0.9790406512506757
0.04570579797000483 -0.8284151297219673
0.03698734750714922 -0.673782148152022
0.03062479838987859 -0.5160966678921072
0.02683843658102812 -0.35665097674387036
0.025452902260678503 -0.19717236781093225
0.02528608415929016 -0.03896325712619422
SCALARS Stress float 6
LOOKUP_TABLE default
-459.8964232593489 -14632.388647730562 -4527.685521296974 -339.96445356555535 0.0 0.0
6930.493657152077 4095.4923747253356 3307.795809563223 -528.0779335441714 0.0 0.0
3940.554741440711 -349.4989437176623 1077.316739316915 -225.85297109212283 0.0 0.0
4032.1652535698695 306.9661003936537 1301.7394061890566 -33.63782011607722 0.0 0.0
4629.40913698421 111.69310379852708 1422.3306722348213 -77.52552441336454 0.0 0.0
5572.075101714114 157.82123520349126 1718.9689010752816 -79.8870960838706 0.0 0.0
6612.811250572178 171.9656089892402 2035.433057868427 -84.71056023748267 0.0 0.0
7702.116399662132 200.2895102419107 2370.7217729712133 -86.5459707728551 0.0 0.0
8804.13282013695 228.15391514897811 2709.6860205857797 -87.19863175998049 0.0 0.0
9908.608019836227 256.9357352717792 3049.6631265324013 -87.36849628880123 0.0 0.0
11011.846070265814 285.6321918173209 3389.2434786249387 -87.36848562586908 0.0 0.0
12113.724608376884 314.31268943115595 3728.411189342412 -87.387834423564 0.0 0.0
13215.701078819213 343.0930768816297 4067.6382467102544 -87.55803582912739 0.0 0.0
14321.760152904473 372.37722511983725 4408.241213407295 -88.05943246922197 0.0 0.0
15440.655019871248 402.85819761457475 4753.053965245747 -89.0859941553256 0.0 0.0
16587.177015729438 435.25228721883883 5106.728790884482 -90.54180583099898 0.0 0.0
17775.67993284296 469.17557690703717 5473.4566529250005 -91.20103980190783 0.0 0.0
18994.160693391917 501.04530578183244 5848.561799752126 -87.42069551930393 0.0 0.0
20152.60084460475 522.9269537498033 6202.658339506367 -72.91596183978018 0.0 0.0
21038.531185857744 528.2598358842449 6470.037306522594 -42.65528260896494 0.0 0.0
21377.893452595876 525.2547199490491 6570.944451763475 5.630340638163034e-11 0.0 0.0
21038.531185857668 528.2598358839663 6470.037306522492 42.65528260906865 0.0 0.0
20152.600844605375 522.9269537511187 6202.658339506948 72.91596183979559 0.0 0.0
18994.160693393038 501.0453057844343 5848.561799753241 87.42069551923402 0.0 0.0
17775.679932842755 469.1755769065553 5473.456652924795 91.20103980182748 0.0 0.0
16587.177015729936 435.2522872200809 5106.728790885004 90.54180583093995 0.0 0.0
15440.655019871114 402.8581976144088 4753.053965245657 89.08599415550347 0.0 0.0
14321.760152904137 372.3772251189502 4408.241213406927 88.05943246918238 0.0 0.0
13215.70107881909 343.09307688139427 4067.6382467101457 87.55803582923039 0.0 0.0
12113.724608377288 314.3126894322421 3728.411189342857 87.38783442347659 0.0 0.0
11011.8460702655 285.6321918166586 3389.2434786246477 87.36848562594443 0.0 0.0
9908.608019836665 256.935735272747 3049.6631265328238 87.36849628877829 0.0 0.0
8804.132820136563 228.15391514791833 2709.6860205853445 87.19863175998849 0.0 0.0
7702.116399662353 200.28951024239097 2370.721772971423 86.54597077277396 0.0 0.0
6612.811250572041 171.96560898900967 2035.4330578683155 84.71056023754525 0.0 0.0
5572.075101714172 157.82123520366883 1718.9689010753534 79.88709608381888 0.0 0.0
4629.409136984343 111.69310379875495 1422.3306722349296 77.5255244134053 0.0 0.0
4032.165253570076 306.96610039409296 1301.739406189251 33.637820116036686 0.0 0.0
3940.554741440719 -349.49894371774076 1077.3167393168937 225.85297109211706 0.0 0.0
6930.493657152201 4095.4923747254657 3307.7958095632994 528.0779335442402 0.0 0.0
-459.8964232593603 -14632.388647730666 -4527.685521297007 339.9644535654563 0.0 0.0
-2611.350579617626 -14536.55545387346 -5144.371810047325 -232.32203930752436 0.0 0.0
4262.48927683656 2802.0605881695183 2119.3649595018233 -421.04445516950034 0.0 0.0
2770.7581221399464 -393.22580761957016 713.2596943561131 -157.86260950925947 0.0 0.0
3596.4343888723906 139.03306441725888 1120.640235986895 -130.66330432520198 0.0 0.0
4115.815246427474 17.26159780742551 1239.9230532704698 -188.38945459414674 0.0 0.0
4970.764336356152 13.739309194419764 1495.3510936651717 -213.40928399347695 0.0 0.0
5893.420596830136 4.594288721690432 1769.4044656655476 -224.6268626377839 0.0 0.0
6858.9094230170385 1.4041993482939423 2058.0940867096 -229.21899036201432 0.0 0.0
7837.345960144965 0.14678366000372756 2351.24782314149 -230.47969850026658 0.0 0.0
8819.129176600038 -0.1873776050277849 2645.6825396985023 -230.60876612470426 0.0 0.0
9800.672243461193 -0.18964805279800778 2940.144778622519 -230.43295973847955 0.0 0.0
10781.537472154769 -0.029069496276981077 3234.4525207975475 -230.3465608577786 0.0 0.0
11762.932440336272 0.4041596611156901 3529.0009799992163 -230.66599803040805 0.0 0.0
12748.195137102182 1.4309021594731401 3824.887811778496 -231.9504928879835 0.0 0.0
13744.12161994293 3.36233436834903 4124.245186293384 -235.07727040098797 0.0 0.0
14760.868473879402 5.707531808875995 4429.972801706483 -240.61606282539677 0.0 0.0
15804.849242636745 5.459457901844258 4743.092610161579 -246.53602526243404 0.0 0.0
16856.27190256358 -4.699033684783338 5055.471860663641 -243.73471422130933 0.0 0.0
17830.335370005367 -34.08614670648305 5338.874766989663 -212.46524408891344 0.0 0.0
18553.64376977949 -79.88508826220021 5542.127604455186 -130.2009077193194 0.0 0.0
18824.29441185438 -107.51132939558745 5615.034924737637 4.546052423393121e-11 0.0 0.0
18553.643769779574 -79.885088262141 5542.127604455229 130.20090771938203 0.0 0.0
17830.335370005683 -34.08614670588621 5338.874766989941 212.4652440889628 0.0 0.0
16856.27190256412 -4.699033683561808 5055.471860664168 243.73471422131513 0.0 0.0
15804.849242636903 5.459457902053352 4743.092610161687 246.5360252624715 0.0 0.0
14760.868473879598 5.707531809077096 4429.9728017066045 240.61606282532586 0.0 0.0
13744.12161994289 3.3623343682305844 4124.245186293337 235.07727040102748 0.0 0.0
12748.195137102115 1.4309021592071147 3824.887811778397 231.95049288798373 0.0 0.0
11762.932440336275 0.4041596611332423 3529.000979999224 230.66599803045858 0.0 0.0
10781.537472154887 -0.02906949581851137 3234.4525207977204 230.34656085775174 0.0 0.0
9800.672243460893 -0.18964805354106318 2940.1447786222056 230.4329597385524 0.0 0.0
8819.12917660038 -0.1873776043358859 2645.6825396988124 230.60876612470275 0.0 0.0
7837.345960144745 0.14678365952318728 2351.24782314128 230.4796985002692 0.0 0.0
6858.909423017022 1.4041993482540818 2058.094086709583 229.21899036203007 0.0 0.0
5893.420596830046 4.59428872148429 1769.4044656654594 224.62686263779995 0.0 0.0
4970.764336356182 13.739309194506395 1495.3510936652067 213.40928399345364 0.0 0.0
4115.815246427518 17.261597807466963 1239.9230532704962 188.3894545942082 0.0 0.0
3596.4343888725703 139.03306441765244 1120.6402359870667 130.66330432516753 0.0 0.0
2770.758122139862 -393.2258076197101 713.2596943560458 157.86260950917273 0.0 0.0
4262.489276836524 2802.060588169486 2119.364959501803 421.04445516954775 0.0 0.0
-2611.350579617661 -14536.555453873525 -5144.371810047356 232.32203930742276 0.0 0.0
-2857.3454549987364 -12723.227472248542 -4674.171878174183 -1069.9477224931666 0.0 0.0
2695.6861104351956 1689.2611745648248 1315.4841855000059 -761.3829021814756 0.0 0.0
2054.8853792654763 70.45658936279145 637.6025905884803 -107.04629689345231 0.0 0.0
3000.805732408219 22.772282974726544 907.0734046148834 -301.4195639907001 0.0 0.0
3662.1055287737677 53.699335274024314 1114.7414592143373 -375.1098260516887 0.0 0.0
4412.204804598291 13.361065620085995 1327.6697610655133 -429.91080032284844 0.0 0.0
5243.295108607789 7.2977849541148565 1575.1778680685711 -451.3297459778668 0.0 0.0
6099.290432965111 1.8102006892797065 1830.330190096318 -459.9857095435002 0.0 0.0
6968.078851872166 0.21297692568119042 2090.487548639354 -462.31125150140656 0.0 0.0
7839.9235461235885 -0.27106301748590944 2351.895744931832 -462.44576404836465 0.0 0.0
8712.109244673282 -0.2694929753444937 2613.5519255093814 -462.0482338659296 0.0 0.0
9584.046531271668 -0.048307039799306395 2875.1994672695614 -461.8337978548994 0.0 0.0
10456.637330666545 0.549375189317864 3137.1560117567574 -462.4046557251986 0.0 0.0
11332.40438297651 1.9876478725559057 3400.3176092547196 -464.870216934636 0.0 0.0
12216.253233403228 4.761547635475715 3666.3044343116117 -471.06687255093846 0.0 0.0
13114.8856725595 8.284491022419349 3936.951049074575 -482.43400887619276 0.0 0.0
14030.470768005016 8.305923775831689 4211.633007534256 -495.52184106060326 0.0 0.0
14942.137739004322 -6.140100955530254 4480.799291414638 -492.6857176215453 0.0 0.0
15775.133664120283 -50.32569659891028 4717.442390256413 -433.40799919444487 0.0 0.0
16384.097039116055 -122.91503178644365 4878.354602198882 -268.264286422546 0.0 0.0
16607.732734061334 -169.43429346624708 4931.489532178526 3.609557097661309e-12 0.0 0.0
16384.097039116055 -122.91503178634038 4878.354602198916 268.26428642252586 0.0 0.0
15775.133664120105 -50.32569659932385 4717.442390256234 433.40799919443555 0.0 0.0
14942.13773900463 -6.140100954755205 4480.799291414962 492.6857176215324 0.0 0.0
14030.470768005163 8.305923776225889 4211.633007534416 495.5218410605961 0.0 0.0
13114.885672559298 8.284491021834235 3936.951049074338 482.43400887613166 0.0 0.0
12216.253233403153 4.761547635276685 3666.304434311529 471.0668725509862 0.0 0.0
11332.404382976683 1.9876478729640397 3400.317609254894 464.8702169346947 0.0 0.0
10456.637330666552 0.5493751893435572 3137.1560117567687 462.40465572511795 0.0 0.0
9584.046531271577 -0.04830703994126395 2875.199467269491 461.8337978548889 0.0 0.0
8712.109244673053 -0.26949297596023314 2613.551925509128 462.0482338659686 0.0 0.0
7839.923546123485 -0.2710630177809392 2351.8957449317118 462.4457640483348 0.0 0.0
6968.078851872139 0.21297692569257265 2090.48754863935 462.3112515014018 0.0 0.0
6099.290432964807 1.8102006886476438 1830.330190096037 459.9857095435264 0.0 0.0
5243.295108607795 7.297784954228501 1575.1778680686068 451.32974597781117 0.0 0.0
4412.204804598334 13.361065620142348 1327.669761065543 429.91080032286936 0.0 0.0
3662.105528773747 53.69933527396172 1114.7414592143127 375.10982605176713 0.0 0.0
3000.805732408181 22.77228297478107 907.0734046148885 301.41956399065515 0.0 0.0
2054.8853792654613 70.45658936282052 637.6025905884845 107.04629689334439 0.0 0.0
2695.6861104351383 1689.2611745647612 1315.4841854999697 761.3829021815341 0.0 0.0
-2857.345454998802 -12723.22747224857 -4674.171878174212 1069.9477224931666 0.0 0.0
-2625.7998633343705 -10937.437500767928 -4068.971209230691 -1335.7041906417448 0.0 0.0
1682.850755258269 687.4815540486267 711.0996927920687 -1042.69163983058 0.0 0.0
1502.1569149268928 325.3727266832215 548.2588924830343 -317.26055923730223 0.0 0.0
2427.93736564591 46.63172228089462 742.3707263780414 -435.73145488397824 0.0 0.0
3166.223680852041 57.78202935589354 967.2017130623805 -558.0108536089128 0.0 0.0
3854.078642799311 25.510240303050193 1163.8766649307086 -620.6140286037011 0.0 0.0
4587.242475380383 9.089527099327935 1378.8996007439139 -651.8144549706708 0.0 0.0
5338.821374953289 2.945178288671177 1602.5299659725877 -663.2584957307813 0.0 0.0
6098.3291446274725 0.21482011533582757 1829.5631894228422 -666.6423796267012 0.0 0.0
6860.729355222986 -0.4016296067055265 2058.0983176848845 -666.888026441116 0.0 0.0
7623.5853917123395 -0.4080070135944194 2286.953215409624 -666.3933468967233 0.0 0.0
8386.488696650655 -0.08406805073873436 2515.921388579974 -666.1327394696458 0.0 0.0
9149.960930670097 0.782892742019639 2745.223147023635 -666.9373831617316 0.0 0.0
9915.609048761047 2.8993378208124767 2975.552515974558 -670.2973667077016 0.0 0.0
10686.481437446742 7.071690027093005 3208.065938242151 -678.6575718561032 0.0 0.0
11466.555390427955 12.581962971485389 3443.7412060198326 -693.9019950586224 0.0 0.0
12256.06162927321 13.15040370473988 3680.7636098933845 -711.1959652660012 0.0 0.0
13037.128534056787 -8.325858008055995 3908.640802814619 -705.9148599151579 0.0 0.0
13747.568510759751 -77.22649716823582 4101.102604077456 -620.8167205331669 0.0 0.0
14263.473071805698 -194.20164439308138 4220.781428223787 -384.6983909317575 0.0 0.0
14449.243211413088 -271.0701598505112 4253.451915468773 1.3386625141720288e-11 0.0 0.0
14263.47307180586 -194.20164439260947 4220.781428223975 384.69839093180826 0.0 0.0
13747.568510760166 -77.22649716728743 4101.102604077862 620.816720533171 0.0 0.0
13037.128534057032 -8.325858007391652 3908.6408028148917 705.9148599150533 0.0 0.0
12256.06162927312 13.150403704386385 3680.763609893251 711.195965265919 0.0 0.0
11466.555390427857 12.58196297107839 3443.7412060196802 693.9019950585896 0.0 0.0
10686.481437446884 7.071690027418477 3208.065938242291 678.6575718561625 0.0 0.0
9915.609048761218 2.8993378212867427 2975.5525159747526 670.2973667077184 0.0 0.0
9149.960930669957 0.7828927418504392 2745.2231470235433 666.9373831617407 0.0 0.0
8386.488696650476 -0.08406805116518257 2515.921388579794 666.132739469661 0.0 0.0
7623.585391712035 -0.4080070143251078 2286.953215409313 666.3933468966909 0.0 0.0
6860.729355222927 -0.40162960678360804 2058.098317684843 666.8880264410909 0.0 0.0
6098.329144627457 0.2148201153420679 1829.5631894228395 666.642379626703 0.0 0.0
5338.821374953342 2.945178288804822 1602.529965972644 663.25849573081 0.0 0.0
4587.242475380659 9.08952709991047 1378.8996007441715 651.814454970619 0.0 0.0
3854.078642799293 25.510240302977643 1163.876664930681 620.6140286036914 0.0 0.0
3166.2236808519588 57.78202935569851 967.2017130622971 558.0108536088992 0.0 0.0
2427.9373656459366 46.63172228082424 742.3707263780284 435.7314548839139 0.0 0.0
1502.1569149269576 325.3727266832959 548.2588924830761 317.26055923734515 0.0 0.0
1682.8507552582503 687.4815540486293 711.0996927920642 1042.6916398305461 0.0 0.0
-2625.799863334386 -10937.437500767945 -4068.9712092307 1335.7041906417544 0.0 0.0
-2250.3639849117253 -9311.076503677668 -3468.432146576818 -1366.1881975489007 0.0 0.0
1022.5418044184426 -84.67598267713606 281.3597465223919 -1232.9635786702713 0.0 0.0
1071.27559957089 405.95990065186606 443.1706500668269 -601.1560631832447 0.0 0.0
1906.3114866053666 114.15121872494711 606.1388115990941 -594.5897617442672 0.0 0.0
2654.093612491075 68.25095540436565 816.703370368632 -721.2128946978228 0.0 0.0
3290.412692761351 36.1512088516204 997.9691704838915 -790.9230489108423 0.0 0.0
3929.086398749864 13.164293468020249 1182.6752076653654 -825.7336820580283 0.0 0.0
4576.866218484559 3.9277266768138013 1374.2381835484118 -839.517053580252 0.0 0.0
5228.2817491184505 0.36424185510265517 1568.5937972920663 -843.5404156322171 0.0 0.0
5881.430364516551 -0.5841171361669915 1764.2538742141157 -843.9691796399378 0.0 0.0
6535.0568994629075 -0.570520407091939 1960.3459137167442 -843.4596444153883 0.0 0.0
7188.8405631429505 -0.12297359218498016 2156.61527686523 -843.2078457142992 0.0 0.0
7842.972048704189 1.0884549487020507 2353.2181510958667 -844.1795643323401 0.0 0.0
8498.10015379613 4.0551909098373535 2550.6466034117893 -848.0686658327247 0.0 0.0
9155.529322781389 9.968383033741345 2749.6493117445393 -857.6241428677765 0.0 0.0
9817.161692155627 17.95322268412353 2950.5344744519243 -874.9501845740768 0.0 0.0
10483.097919561578 19.157863413122094 3150.6767348924095 -894.332753818067 0.0 0.0
11141.466973082224 -11.5298003926206 3338.9811518068814 -886.301436355438 0.0 0.0
11744.182618332301 -112.99404006070912 3489.3565734814774 -780.4651919461227 0.0 0.0
12183.27721567306 -289.09013883051443 3568.2561230527654 -485.5317795729228 0.0 0.0
12337.417317718624 -407.32765464656524 3579.026898921619 -4.217781679471955e-11 0.0 0.0
12183.277215673594 -289.0901388291177 3568.2561230533443 485.5317795728893 0.0 0.0
11744.182618332792 -112.99404005947262 3489.356573481996 780.4651919461669 0.0 0.0
11141.466973081731 -11.529800393791255 3338.9811518063825 886.3014363553757 0.0 0.0
10483.097919561802 19.157863413579733 3150.6767348926155 894.3327538181778 0.0 0.0
9817.161692155461 17.953222683781803 2950.5344744517733 874.9501845742063 0.0 0.0
9155.529322781593 9.968383034260086 2749.6493117447553 857.6241428678228 0.0 0.0
8498.100153795966 4.055190909504084 2550.6466034116406 848.0686658326996 0.0 0.0
7842.972048704032 1.088454948464701 2353.218151095749 844.1795643322799 0.0 0.0
7188.840563142596 -0.12297359305065925 2156.615276864864 843.2078457143031 0.0 0.0
6535.056899462755 -0.5705204074523422 1960.345913716591 843.4596444154587 0.0 0.0
5881.4303645167565 -0.5841171355834156 1764.253874214352 843.9691796399371 0.0 0.0
5228.281749118423 0.36424185509437024 1568.5937972920558 843.5404156321853 0.0 0.0
4576.866218484993 3.9277266777851345 1374.238183548833 839.517053580347 0.0 0.0
3929.086398749897 13.164293468044189 1182.6752076653825 825.7336820579852 0.0 0.0
3290.4126927612574 36.15120885140251 997.9691704837983 790.923048910808 0.0 0.0
2654.0936124912373 68.25095540473318 816.7033703687911 721.2128946978225 0.0 0.0
1906.31148660532 114.15121872481221 606.1388115990397 594.5897617442511 0.0 0.0
1071.2755995708733 405.9599006518411 443.1706500668143 601.1560631832282 0.0 0.0
1022.5418044184432 -84.67598267713194 281.3597465223935 1232.9635786702115 0.0 0.0
-2250.3639849117094 -9311.076503677676 -3468.4321465768153 1366.1881975489473 0.0 0.0
-1864.203101052086 -7878.126510491911 -2922.698883463199 -1303.3937902927723 0.0 0.0
587.4901493499955 -626.0454353982171 -11.566585814466528 -1345.414752764177 0.0 0.0
729.8503901423029 377.1177130011211 332.0904309430273 -875.819728107129 0.0 0.0
1440.3643077308986 177.5196041366858 485.36517356027537 -772.1756203450616 0.0 0.0
2143.7166949836515 88.34971660501775 669.6199234766007 -869.3851238042698 0.0 0.0
2722.468300399991 45.751990143048445 830.4660871629119 -939.1931308569823 0.0 0.0
3269.6150171005825 17.91232492867863 986.2582026087788 -974.2195329631509 0.0 0.0
3813.937600839361 5.151343914930229 1145.7266834262878 -988.762045543906 0.0 0.0
4357.851606064969 0.5124225877129032 1307.5092085958051 -993.149428788548 0.0 0.0
4902.015421906551 -0.7513882967198686 1470.3792100829494 -993.7048343935189 0.0 0.0
5446.470895780776 -0.7452691924141064 1633.7176879765084 -993.2472432887531 0.0 0.0
5991.097189079715 -0.1542388699281858 1797.282885062936 -993.0317457015624 0.0 0.0
6535.756873677928 1.4357333611228498 1961.1577821117148 -994.0734551961438 0.0 0.0
7080.183007934895 5.324665664108242 2125.6523020797003 -998.0912941563414 0.0 0.0
7624.084703765395 13.1151034118658 2291.1599421531782 -1007.8777792644737 0.0 0.0
8167.792406583913 23.808248769292383 2457.4801966059613 -1025.6714152146897 0.0 0.0
8712.540222754304 25.774875312512883 2621.494529420045 -1045.705450545872 0.0 0.0
9254.599104756942 -15.31989794581306 2771.7837620433397 -1036.2012473334396 0.0 0.0
9761.235931228874 -154.99162906327655 2881.87329064968 -916.8145780961111 0.0 0.0
10136.00999857815 -403.5423115781889 2919.740306099988 -575.2724234355487 0.0 0.0
10262.362306327756 -575.5428724453801 2906.0458301647136 9.57811607804615e-12 0.0 0.0
10136.009998578505 -403.5423115772632 2919.740306100373 575.2724234355791 0.0 0.0
9761.235931228743 -154.99162906348096 2881.8732906495784 916.8145780961429 0.0 0.0
9254.599104756575 -15.319897946596697 2771.783762042994 1036.2012473333282 0.0 0.0
8712.540222754917 25.77487531389515 2621.494529420643 1045.7054505458077 0.0 0.0
8167.792406583668 23.808248768764994 2457.48019660573 1025.6714152146426 0.0 0.0
7624.084703765376 13.115103411911747 2291.1599421531864 1007.8777792645387 0.0 0.0
7080.183007934632 5.324665663475727 2125.6523020794316 998.0912941563496 0.0 0.0
6535.756873677952 1.4357333610853331 1961.157782111711 994.0734551961573 0.0 0.0
5991.097189079572 -0.15423887042392437 1797.282885062745 993.031745701582 0.0 0.0
5446.4708957808225 -0.7452691923245567 1633.7176879765495 993.2472432887341 0.0 0.0
4902.015421906801 -0.7513882960657696 1470.3792100832209 993.7048343934855 0.0 0.0
4357.851606065189 0.5124225882308231 1307.5092085960257 993.1494287885645 0.0 0.0
3813.937600839406 5.151343914988701 1145.726683426319 988.7620455439699 0.0 0.0
3269.6150171003305 17.912324928130456 986.2582026085383 974.2195329630206 0.0 0.0
2722.468300399993 45.75199014311902 830.4660871629335 939.1931308569392 0.0 0.0
2143.7166949838474 88.34971660548808 669.6199234768007 869.3851238042481 0.0 0.0
1440.3643077308202 177.5196041365685 485.36517356021653 772.1756203450822 0.0 0.0
729.8503901423259 377.11771300118886 332.09043094305434 875.8197281070934 0.0 0.0
587.4901493499982 -626.0454353982407 -11.566585814472901 1345.4147527642278 0.0 0.0
-1864.2031010520975 -7878.126510491909 -2922.6988834632016 1303.393790292775 0.0 0.0
-1516.5946990404175 -6631.218774050176 -2444.344041927178 -1208.4382614790593 0.0 0.0
296.29889932643084 -972.554155621184 -202.87657688842594 -1399.7020754128496 0.0 0.0
453.0716482835684 292.63788384637877 223.7128596389842 -1107.7262909033545 0.0 0.0
1024.9572952245626 219.24076177681397 373.259417100413 -950.044006198492 0.0 0.0
1645.4583053401911 112.02771781179547 527.2458069455959 -1004.2849606094176 0.0 0.0
2153.7303133296914 55.3607976738422 662.7273333010601 -1064.9723630480744 0.0 0.0
2609.388134206391 22.416724064032994 789.541457481127 -1097.4050484447996 0.0 0.0
3050.4721600255366 6.528268821898983 917.100128654231 -1111.1818457841377 0.0 0.0
3487.074301538291 0.6700829534693575 1046.3233153475283 -1115.5131129644697 0.0 0.0
3922.453267732361 -0.9008789155135624 1176.4657166450547 -1116.1306566109115 0.0 0.0
4357.798270552089 -0.9088758691330128 1307.0668184048873 -1115.7551369152645 0.0 0.0
4793.259270564949 -0.1766259007612554 1437.924793399256 -1115.5883492155099 0.0 0.0
5228.409574927999 1.78854530786041 1569.0594360707576 -1116.5886449973368 0.0 0.0
5662.155077653036 6.5725089028025785 1700.6182759667513 -1120.3400530507834 0.0 0.0
6092.781258801937 16.184950483975072 1832.6898627857736 -1129.4514750542237 0.0 0.0
6519.364827067039 29.613215457806035 1964.6934127574536 -1146.278009246861 0.0 0.0
6944.968784044695 32.649703796331025 2093.2855463523083 -1165.9950147781763 0.0 0.0
7375.451841811616 -18.764400431674154 2207.0062324139826 -1157.357349233736 0.0 0.0
7794.856061947201 -199.97004101574663 2278.4658062794356 -1033.1789945919882 0.0 0.0
8114.9435831122355 -533.869873570434 2274.322112862541 -657.4948927715518 0.0 0.0
8215.127729695534 -775.0725497490715 2232.016553983939 2.5636381906224415e-11 0.0 0.0
8114.943583111926 -533.8698735711757 2274.3221128622254 657.4948927715959 0.0 0.0
7794.856061947427 -199.97004101519167 2278.4658062796702 1033.1789945919877 0.0 0.0
7375.451841811753 -18.764400431326727 2207.0062324141286 1157.357349233807 0.0 0.0
6944.9687840448805 32.6497037967074 2093.285546352476 1165.995014778136 0.0 0.0
6519.364827066934 29.613215457564845 1964.6934127573495 1146.2780092468597 0.0 0.0
6092.781258801755 16.184950483617534 1832.689862785612 1129.4514750543312 0.0 0.0
5662.15507765278 6.57250890222867 1700.6182759665023 1120.3400530507452 0.0 0.0
5228.409574928184 1.7885453083009324 1569.0594360709458 1116.5886449973457 0.0 0.0
4793.259270564889 -0.1766259008555302 1437.9247933992103 1115.5883492154178 0.0 0.0
4357.79827055202 -0.9088758692914389 1307.0668184048182 1115.7551369152684 0.0 0.0
3922.4532677323396 -0.9008789155431103 1176.465716645039 1116.1306566109786 0.0 0.0
3487.074301538533 0.6700829540547524 1046.3233153477763 1115.5131129644687 0.0 0.0
3050.4721600253356 6.528268821474441 917.1001286540429 1111.181845784149 0.0 0.0
2609.3881342064087 22.41672406414952 789.5414574811676 1097.405048444674 0.0 0.0
2153.730313329782 55.36079767408106 662.7273333011591 1064.9723630481012 0.0 0.0
1645.458305340137 112.02771781162035 527.2458069455273 1004.2849606094021 0.0 0.0
1024.9572952245696 219.2407617766899 373.25941710037785 950.0440061985353 0.0 0.0
453.0716482836003 292.63788384641356 223.71285963900417 1107.7262909033607 0.0 0.0
296.29889932644727 -972.5541556211817 -202.8765768884204 1399.7020754129346 0.0 0.0
-1516.594699040355 -6631.2187740501595 -2444.344041927154 1208.4382614790359 0.0 0.0
-1221.4191088008854 -5548.351643331757 -2030.9312256397927 -1107.1052160773213 0.0 0.0
96.55002961148665 -1166.9044080344252 -321.10631352688154 -1412.0652143820382 0.0 0.0
222.34176355922204 189.0106250551794 123.40571658432043 -1286.3317128071583 0.0 0.0
651.8254191907542 237.09406823705828 266.6758462283438 -1112.0050713757337 0.0 0.0
1164.128700596992 133.22471222519138 389.2060238466551 -1123.7224596221074 0.0 0.0
1587.6276985694055 64.66515316559396 495.6878555204999 -1168.1215497648718 0.0 0.0
1949.202727676193 26.351472381812464 592.6662600174017 -1195.1090873759624 0.0 0.0
2286.7829356524826 7.833061868256406 688.3847992562216 -1206.862079624809 0.0 0.0
2616.0345901731184 0.8425394799379156 785.0631388959167 -1210.6719405544543 0.0 0.0
2942.7232211149876 -1.027293041998039 882.508778421897 -1211.2699146929474 0.0 0.0
3269.0178438133835 -1.0476429921094912 980.3910602463822 -1210.989110660895 0.0 0.0
3595.334099863969 -0.19045052880175817 1078.5430948005503 -1210.870592974773 0.0 0.0
3921.020140569426 2.108865401614093 1176.938701791312 -1211.721103478806 0.0 0.0
4244.287233744477 7.673160081216835 1275.588118147708 -1214.8507539122852 0.0 0.0
4562.18459570063 18.879700373493094 1374.3192888222366 -1222.4860456690847 0.0 0.0
4872.66157716696 34.882901033840575 1472.26334346024 -1237.0758950327102 0.0 0.0
5180.72369399647 39.534531572222235 1566.0774676706071 -1255.739413060533 0.0 0.0
5502.638757124207 -20.63918733723856 1644.5998709360904 -1250.8482831223175 0.0 0.0
5841.120182523506 -244.15101293411044 1679.090750876819 -1131.8488728477473 0.0 0.0
6113.955998870593 -676.4141954412429 1631.2625410288053 -735.2030283179514 0.0 0.0
6187.20955003713 -1007.2253723075562 1553.9952533188716 -1.1510792319313623e-11 0.0 0.0
6113.955998870604 -676.4141954412612 1631.2625410288028 735.2030283179058 0.0 0.0
5841.120182524074 -244.1510129327164 1679.0907508774073 1131.8488728477762 0.0 0.0
5502.638757123809 -20.639187338218683 1644.599870935677 1250.8482831222727 0.0 0.0
5180.723693996412 39.534531572220246 1566.0774676705892 1255.7394130603616 0.0 0.0
4872.661577167157 34.882901034481534 1472.2633434604918 1237.0758950326638 0.0 0.0
4562.18459570028 18.87970037275003 1374.3192888219091 1222.4860456691522 0.0 0.0
4244.2872337445715 7.673160081428847 1275.5881181478 1214.8507539123573 0.0 0.0
3921.0201405694675 2.1088654015728814 1176.9387017913125 1211.7211034788238 0.0 0.0
3595.334099863817 -0.1904505292556209 1078.5430948003682 1210.870592974752 0.0 0.0
3269.0178438134494 -1.047642992073797 980.3910602464128 1210.9891106609257 0.0 0.0
2942.7232211147348 -1.0272930426508822 882.5087784216252 1211.269914692943 0.0 0.0
2616.03459017329 0.8425394804229391 785.063138896114 1210.6719405544643 0.0 0.0
2286.782935652433 7.833061868267766 688.3847992562102 1206.8620796247733 0.0 0.0
1949.202727676435 26.351472382383317 592.6662600176455 1195.1090873758951 0.0 0.0
1587.6276985694813 64.66515316572152 495.68785552056096 1168.1215497649066 0.0 0.0
1164.1287005970003 133.22471222515946 389.2060238466479 1123.7224596221033 0.0 0.0
651.8254191907896 237.0940682370778 266.67584622836023 1112.00507137567 0.0 0.0
222.34176355922668 189.0106250552638 123.40571658434715 1286.3317128071094 0.0 0.0
96.55002961146914 -1166.9044080343583 -321.10631352686676 1412.0652143820082 0.0 0.0
-1221.4191088009657 -5548.351643331833 -2030.9312256398398 1107.1052160773452 0.0 0.0
-978.1520150636559 -4605.074058753171 -1674.9678221450486 -1009.2303952196896 0.0 0.0
-45.59662454029181 -1247.857379049414 -388.03620107691194 -1393.9545451909062 0.0 0.0
23.94554263800248 88.30772471133108 33.675980204800084 -1411.2670559344247 0.0 0.0
312.4248341089594 235.24684320348953 164.30150319373467 -1246.979003143702 0.0 0.0
700.9752049656678 148.20717354648417 254.75471355364562 -1223.691589426238 0.0 0.0
1026.6926125760276 72.60803359016889 329.79019384985895 -1248.0453559507637 0.0 0.0
1289.9524474043321 29.521641617062457 395.8422267064184 -1267.0725741223791 0.0 0.0
1523.130019574392 8.890421173213008 459.60613222428157 -1275.769871979137 0.0 0.0
1744.8141174287505 1.0042069094608532 523.7454973014637 -1278.6526297128808 0.0 0.0
1962.8194876530456 -1.121827375367232 588.5092980833036 -1279.1404190687822 0.0 0.0
2180.1140644501606 -1.1532861976448139 653.6882334757549 -1278.9576366100289 0.0 0.0
2397.3314156418232 -0.19793966905818294 719.1400427918295 -1278.8807335265888 0.0 0.0
2613.665659096391 2.3623697901482608 784.8084086659619 -1279.4893228741132 0.0 0.0
2826.806482622206 8.522212512995496 850.5986085405605 -1281.7106375277526 0.0 0.0
3032.7797938261556 20.948426397159373 916.1184660669946 -1287.2163719737757 0.0 0.0
3228.3691452181542 39.173794867667695 980.2628820257463 -1298.457084437098 0.0 0.0
3420.0448122660214 46.1767956693606 1039.8664823806146 -1315.3252470424952 0.0 0.0
3634.6383991466582 -19.638447921257573 1084.4999853676202 -1317.0609079438007 0.0 0.0
3896.09987531972 -283.2369914846549 1083.8588651505195 -1214.134382614253 0.0 0.0
4127.4177781559765 -827.1507198217595 990.0801175002651 -811.0649268680321 0.0 0.0
4170.062628603453 -1275.4568014381157 868.3817481496011 4.007461029686965e-11 0.0 0.0
4127.417778156036 -827.1507198216188 990.0801175003247 811.0649268680678 0.0 0.0
3896.099875319769 -283.2369914844782 1083.858865150587 1214.134382614242 0.0 0.0
3634.63839914637 -19.63844792189183 1084.4999853673437 1317.0609079438402 0.0 0.0
3420.044812265877 46.176795669001535 1039.866482380464 1315.32524704256 0.0 0.0
3228.3691452183857 39.173794868197774 980.262882025975 1298.457084437143 0.0 0.0
3032.7797938262174 20.94842639725365 916.1184660670415 1287.21637197376 0.0 0.0
2826.8064826225236 8.522212513840522 850.5986085409093 1281.7106375277547 0.0 0.0
2613.6656590962143 2.362369789732753 784.8084086657842 1279.4893228741096 0.0 0.0
2397.3314156416127 -0.1979396695793696 719.14004279161 1278.8807335265283 0.0 0.0
2180.114064450289 -1.1532861972629824 653.6882334759079 1278.9576366099939 0.0 0.0
1962.8194876530058 -1.1218273754890618 588.5092980832551 1279.140419068787 0.0 0.0
1744.8141174288266 1.0042069095664594 523.7454973015181 1278.6526297128191 0.0 0.0
1523.1300195745796 8.890421173739844 459.6061322244958 1275.7698719790626 0.0 0.0
1289.9524474044401 29.521641617358036 395.8422267065395 1267.072574122335 0.0 0.0
1026.6926125761663 72.60803359040251 329.79019384997076 1248.0453559508169 0.0 0.0
700.9752049656719 148.20717354643577 254.75471355363234 1223.6915894262645 0.0 0.0
312.4248341091078 235.24684320383014 164.30150319388142 1246.9790031436014 0.0 0.0
23.9455426380081 88.30772471141994 33.675980204828406 1411.2670559344076 0.0 0.0
-45.59662454029718 -1247.8573790493938 -388.0362010769074 1393.9545451908668 0.0 0.0
-978.1520150636115 -4605.07405875312 -1674.967822145019 1009.2303952196951 0.0 0.0
-781.1247683873761 -3779.609560420572 -1368.2202986423845 -917.4003319768133 0.0 0.0
-151.94630864039863 -1247.2777404369551 -419.76721472320617 -1352.8276893171042 0.0 0.0
-152.0903010831998 2.425654779538819 -44.89939389109831 -1486.1870933036332 0.0 0.0
-0.8994775041180887 219.66569443593923 65.62986507954635 -1348.4157067004655 0.0 0.0
255.17395642100732 155.4849399489533 123.19766891098818 -1299.9755096148065 0.0 0.0
472.4021289823603 78.09652980149576 165.14959763515685 -1303.6144000857719 0.0 0.0
632.420432083351 31.70809097785355 199.23855691836133 -1312.9466216775315 0.0 0.0
759.7405513564416 9.593566384220559 230.80023532219872 -1317.8013057098974 0.0 0.0
873.4762303555627 1.1223534748732007 262.37957514913074 -1319.4577188385717 0.0 0.0
982.7439228372756 -1.1791911336647019 294.4694195110832 -1319.7575625727682 0.0 0.0
1091.0770428815151 -1.2197757302700403 326.95718014537357 -1319.6707824792488 0.0 0.0
1199.2599536271243 -0.2021521984625565 359.71734042859856 -1319.6286190737198 0.0 0.0
1306.403466607816 2.5219234554257532 392.6776170189726 -1319.9295239493063 0.0 0.0
1409.8809254724688 9.04492512433161 425.6777551790402 -1321.0457774805534 0.0 0.0
1504.9563237058017 22.206566939010433 458.14886719344366 -1323.956125671305 0.0 0.0
1587.1103978651618 42.08706008205222 488.7592373841642 -1330.9089655117 0.0 0.0
1663.2105865803317 52.21058514931494 514.6263515188939 -1345.026705495936 0.0 0.0
1769.9686496353086 -14.609961452594284 526.6076064548142 -1355.6825150915038 0.0 0.0
1955.8891162479526 -312.4020192629255 493.0461290955083 -1280.3122880155388 0.0 0.0
2150.134206262569 -981.1620598184217 350.6916439332442 -887.559944507383 0.0 0.0
2154.5526619378934 -1585.8264342881068 170.61786829493582 5.7980287238024175e-12 0.0 0.0
2150.13420626261 -981.1620598184169 350.69164393325804 887.5599445073772 0.0 0.0
1955.8891162477128 -312.402019263531 493.0461290952545 1280.3122880155254 0.0 0.0
1769.968649635649 -14.609961451595005 526.6076064552162 1355.6825150915213 0.0 0.0
1663.2105865802846 52.21058514926748 514.6263515188656 1345.0267054959218 0.0 0.0
1587.11039786511 42.087060081922964 488.7592373841099 1330.9089655117807 0.0 0.0
1504.9563237059217 22.206566939328617 458.1488671935752 1323.9561256713034 0.0 0.0
1409.8809254725827 9.044925124609435 425.6777551791576 1321.0457774805618 0.0 0.0
1306.4034666077616 2.521923455264158 392.6776170189077 1319.9295239492849 0.0 0.0
1199.2599536272717 -0.2021521981888661 359.7173404287249 1319.6286190736366 0.0 0.0
1091.0770428816188 -1.2197757300459138 326.95718014547185 1319.6707824791822 0.0 0.0
982.7439228372999 -1.1791911336494145 294.46941951109517 1319.7575625728387 0.0 0.0
873.4762303552078 1.1223534739763927 262.37957514875524 1319.457718838552 0.0 0.0
759.7405513568299 9.593566385167353 230.8002353225992 1317.8013057099372 0.0 0.0
632.4204320833319 31.708090977830402 199.23855691834862 1312.9466216775625 0.0 0.0
472.4021289824273 78.09652980166217 165.14959763522677 1303.6144000858226 0.0 0.0
255.17395642090526 155.4849399486994 123.19766891088143 1299.975509614775 0.0 0.0
-0.8994775040653167 219.66569443594307 65.62986507956333 1348.4157067003475 0.0 0.0
-152.09030108321514 2.425654779471138 -44.8993938911232 1486.1870933035711 0.0 0.0
-151.9463086403932 -1247.277740436925 -419.7672147231953 1352.8276893171176 0.0 0.0
-781.1247683873796 -3779.609560420565 -1368.220298642383 917.4003319767679 0.0 0.0
-623.56501615223 -3054.6314685555467 -1103.4589454123334 -831.0053568459729 0.0 0.0
-236.4334260910955 -1190.1322259308474 -427.96969560658295 -1293.260010753142 0.0 0.0
-312.89837698071824 -63.34983005081848 -112.87446210946098 -1515.8975957796865 0.0 0.0
-294.528098304776 195.99835362590775 -29.55892340366048 -1413.0147600031662 0.0 0.0
-175.16574060983962 155.11498202081026 -6.015227576708803 -1348.9261324231047 0.0 0.0
-74.69906905429603 80.37719411708566 1.7034375188368784 -1333.3749068577026 0.0 0.0
-22.858282714052223 32.69382182643392 2.9506617337145116 -1332.2701154635486 0.0 0.0
-3.209922574818364 9.88355461299336 2.002089611452501 -1332.8122054774185 0.0 0.0
2.063209204714724 1.174110093812704 0.9711957895582515 -1333.069814066229 0.0 0.0
2.4998732598740787 -1.1981172176234942 0.39052681267521194 -1333.134038250641 0.0 0.0
1.9015749776079218 -1.2431210926058434 0.19753616550062958 -1333.1400145267362 0.0 0.0
1.1254024661039352 -0.20528255730523526 0.276035972639626 -1333.1292860275003 0.0 0.0
-0.733216477909906 2.56972532335978 0.5509526536349441 -1333.0900643386565 0.0 0.0
-6.392409384248936 9.200181240340054 0.8423315568273608 -1333.0063976138626 0.0 0.0
-21.013069142790556 22.554625542777046 0.46246691999596834 -1333.0776365165102 0.0 0.0
-50.53934409073955 43.29220780118618 -2.1741408868659846 -1335.0349314069772 0.0 0.0
-89.3250714718516 57.06400318728831 -9.678320485368971 -1345.0996734066568 0.0 0.0
-92.61777422442216 -4.844299567402338 -29.238622137547367 -1365.723851028177 0.0 0.0
16.631225532090156 -326.3236579243455 -92.90772971767659 -1329.4584770500371 0.0 0.0
177.35660003069742 -1131.8922112401794 -286.3606833628446 -967.0422624299582 0.0 0.0
130.26517913849074 -1947.7634645650337 -545.2494856279629 7.284484127012547e-11 0.0 0.0
177.35660003092153 -1131.8922112397584 -286.3606833626511 967.0422624299407 0.0 0.0
16.63122553203712 -326.3236579246137 -92.90772971777292 1329.4584770499696 0.0 0.0
-92.61777422398711 -4.844299566336218 -29.238622137096954 1365.7238510281577 0.0 0.0
-89.32507147176935 57.064003187468614 -9.6783204852902 1345.0996734067394 0.0 0.0
-50.53934409014457 43.29220780259577 -2.1741408862646097 1335.0349314070147 0.0 0.0
-21.013069142806273 22.55462554277375 0.46246691999021294 1333.077636516528 0.0 0.0
-6.3924093841409615 9.200181240635107 0.8423315569482668 1333.00639761389 0.0 0.0
-0.7332164778802053 2.569725323558753 0.5509526537035541 1333.090064338569 0.0 0.0
1.1254024661025 -0.20528255722854638 0.2760359726621502 1333.1292860274655 0.0 0.0
1.9015749776108777 -1.2431210926248326 0.197536165495805 1333.1400145266894 0.0 0.0
2.4998732600736133 -1.1981172172063914 0.3905268128601733 1333.13403825067 0.0 0.0
2.063209204463604 1.1741100932051154 0.9711957893006122 1333.0698140662673 0.0 0.0
-3.209922574967834 9.883554612738877 2.0020896113313107 1332.812205477376 0.0 0.0
-22.85828271433634 32.69382182587172 2.950661733460617 1332.2701154635547 0.0 0.0
-74.69906905436292 80.3771941169353 1.703437518771743 1333.3749068576533 0.0 0.0
-175.1657406099353 155.11498202066838 -6.015227576780081 1348.9261324230995 0.0 0.0
-294.52809830490725 195.998353625661 -29.55892340377385 1413.0147600030866 0.0 0.0
-312.8983769807137 -63.34983005084532 -112.8744621094677 1515.8975957796126 0.0 0.0
-236.43342609109865 -1190.1322259308072 -427.9696956065718 1293.2600107530852 0.0 0.0
-623.5650161523481 -3054.6314685556413 -1103.458945412397 831.0053568459099 0.0 0.0
-499.25297786378025 -2417.5197314994916 -875.031812808982 -748.1712153108109 0.0 0.0
-307.77587687171894 -1095.463295147276 -420.9717516056984 -1217.8920069611568 0.0 0.0
-463.4416732689271 -107.78556595210628 -171.36817176631007 -1505.090955897247 0.0 0.0
-573.52930862629 168.75013466963318 -121.43375218699705 -1439.5511485288705 0.0 0.0
-592.3728162709995 148.02426635079567 -133.30456497606116 -1367.697785362015 0.0 0.0
-614.7940327040905 79.14637546409142 -160.69429717199975 -1335.786080782118 0.0 0.0
-675.6561448590527 32.33497850302939 -192.996349906807 -1324.4927713668649 0.0 0.0
-765.6256849245356 9.737750329821464 -226.76638037841428 -1320.6353135365177 0.0 0.0
-869.4054548652018 1.151347154244597 -260.47623231328714 -1319.4609954582065 0.0 0.0
-977.9106743717606 -1.1791600169365424 -293.7269503166092 -1319.2802995784432 0.0 0.0
-1087.4140944938717 -1.2217636980034285 -326.59075745756246 -1319.3776249109515 0.0 0.0
-1197.0707801241651 -0.2074637064912359 -359.1834731491969 -1319.4002400665468 0.0 0.0
-1307.7366523839307 2.4989830387496603 -391.5713008035542 -1319.0255301598595 0.0 0.0
-1421.9950282944114 8.978803764068736 -423.9048673591026 -1317.7517452789357 0.0 0.0
-1545.0014015115125 21.991758411517473 -456.9028929299983 -1314.983210190152 0.0 0.0
-1684.065978897541 42.58226905746376 -492.44511295202324 -1311.5737957400465 0.0 0.0
-1836.8030898096504 59.910697171218374 -533.0677177915294 -1315.940733552722 0.0 0.0
-1953.8868574922042 9.550540136422121 -583.3008952067347 -1345.6094977323746 0.0 0.0
-1925.4382809916292 -319.3462629276901 -673.435363175796 -1359.1417773103717 0.0 0.0
-1795.1094838627628 -1270.051980827819 -919.5484394071747 -1051.689076133436 0.0 0.0
-1915.4413393981574 -2375.2234814338876 -1287.1994462496139 -3.586819730116986e-11 0.0 0.0
-1795.109483862533 -1270.0519808272627 -919.5484394069387 1051.6890761334012 0.0 0.0
-1925.438280991887 -319.3462629282455 -673.4353631760396 1359.141777310353 0.0 0.0
-1953.8868574919647 9.550540137001146 -583.3008952064891 1345.6094977323341 0.0 0.0
-1836.8030898099978 59.910697170375585 -533.0677177918867 1315.940733552635 0.0 0.0
-1684.0659788970104 42.5822690587661 -492.44511295147356 1311.5737957399451 0.0 0.0
-1545.001401511237 21.991758412159097 -456.9028929297234 1314.9832101900338 0.0 0.0
-1421.995028294465 8.978803763957853 -423.90486735915215 1317.7517452789493 0.0 0.0
-1307.7366523834626 2.498983039863308 -391.57130080307974 1319.0255301598445 0.0 0.0
-1197.0707801243366 -0.20746370693209926 -359.18347314938063 1319.4002400665345 0.0 0.0
-1087.4140944939086 -1.2217636981234143 -326.5907574576094 1319.3776249110244 0.0 0.0
-977.9106743716649 -1.179160016768746 -293.72695031653006 1319.280299578384 0.0 0.0
-869.4054548650859 1.1513471544495921 -260.47623231319074 1319.4609954581983 0.0 0.0
-765.6256849246188 9.737750329630497 -226.7663803784965 1320.635313536398 0.0 0.0
-675.6561448592762 32.33497850251512 -192.99634990702836 1324.492771366942 0.0 0.0
-614.7940327041132 79.14637546397756 -160.69429717204068 1335.7860807820782 0.0 0.0
-592.3728162709392 148.0242663509194 -133.30456497600593 1367.6977853620358 0.0 0.0
-573.5293086262499 168.75013466972473 -121.43375218695752 1439.5511485288525 0.0 0.0
-463.44167326895916 -107.78556595212189 -171.3681717663244 1505.0909558972517 0.0 0.0
-307.7758768717897 -1095.4632951473218 -420.97175160573346 1217.8920069611029 0.0 0.0
-499.25297786381407 -2417.5197314995044 -875.0318128089957 748.1712153108025 0.0 0.0
-403.07278633994935 -1859.9830712371731 -678.9167572731368 -666.6969343743411 0.0 0.0
-371.1462905356707 -977.5421246074582 -404.6065245429386 -1128.1469232151858 0.0 0.0
-606.9840925662425 -132.01378044132997 -221.69936190227173 -1457.8538767889258 0.0 0.0
-841.7585832493938 141.09057011040215 -210.20040394169746 -1427.9749748905103 0.0 0.0
-998.8511481237938 135.52264678449188 -258.9985504017907 -1354.1976266605016 0.0 0.0
-1148.5975648509598 74.52258416674994 -322.2224942052629 -1309.394311153138 0.0 0.0
-1326.057620653334 30.61454644513942 -388.63292226245835 -1289.0302229324946 0.0 0.0
-1527.5115623929896 9.17005974335415 -455.50245079489054 -1281.0963997503993 0.0 0.0
-1740.9351615315072 1.0596231787591641 -521.9626615058244 -1278.6020330179606 0.0 0.0
-1958.48758479016 -1.1231337115016657 -587.8832155504983 -1278.2062214647722 0.0 0.0
-2176.868832355942 -1.1568323742187197 -653.4076994190484 -1278.396003819109 0.0 0.0
-2395.3320406470675 -0.2065551030005821 -718.6615787250204 -1278.4584244837465 0.0 0.0
-2614.623309307713 2.3160594414808386 -783.6921749598698 -1277.7905101299978 0.0 0.0
-2836.98657092485 8.397095483198633 -848.5768426324956 -1275.437275771466 0.0 0.0
-3067.0625021843207 20.613760880738795 -913.9346223910745 -1270.0665811735971 0.0 0.0
-3313.077500289134 39.96536115524336 -981.9336417401669 -1261.3944682239437 0.0 0.0
-3578.0527941756886 59.718086945337674 -1055.5004121691059 -1258.3155246298354 0.0 0.0
-3813.787631058467 27.165809367596022 -1135.9865465072612 -1293.412318418282 0.0 0.0
-3873.9082772324655 -285.9345244290559 -1247.9528404984567 -1364.9523557888365 0.0 0.0
-3770.6491022939745 -1381.9855224387445 -1545.7903874198157 -1143.2426652450401 0.0 0.0
-3998.8063166534703 -2888.3491534039817 -2066.1466410172357 5.113065526529681e-11 0.0 0.0
-3770.6491022935224 -1381.9855224377154 -1545.790387419372 1143.242665245087 0.0 0.0
-3873.9082772328593 -285.93452443007476 -1247.9528404988805 1364.9523557888892 0.0 0.0
-3813.787631058229 27.165809368223027 -1135.9865465070018 1293.412318418336 0.0 0.0
-3578.052794175607 59.71808694549355 -1055.5004121690338 1258.315524629819 0.0 0.0
-3313.0775002895743 39.96536115425816 -981.9336417405946 1261.3944682240874 0.0 0.0
-3067.062502183916 20.613760881685902 -913.9346223906689 1270.0665811735767 0.0 0.0
-2836.9865709248406 8.397095483210578 -848.5768426324893 1275.4372757714304 0.0 0.0
-2614.6233093076503 2.3160594418183535 -783.6921749597495 1277.7905101299762 0.0 0.0
-2395.332040647173 -0.2065551032529065 -718.6615787251277 1278.4584244837022 0.0 0.0
-2176.8688323558863 -1.1568323740989452 -653.4076994189958 1278.3960038191042 0.0 0.0
-1958.4875847902483 -1.1231337117013673 -587.8832155505847 1278.2062214647162 0.0 0.0
-1740.9351615315038 1.0596231786822923 -521.9626615058465 1278.6020330180006 0.0 0.0
-1527.511562392689 9.17005974403826 -455.5024507945953 1281.0963997503602 0.0 0.0
-1326.0576206533224 30.614546445181887 -388.6329222624421 1289.0302229325182 0.0 0.0
-1148.597564851053 74.5225841664643 -322.22249420537685 1309.394311153139 0.0 0.0
-998.8511481237485 135.52264678459696 -258.9985504017455 1354.1976266605575 0.0 0.0
-841.7585832493085 141.09057011061634 -210.2004039416077 1427.9749748904894 0.0 0.0
-606.9840925661966 -132.01378044131351 -221.69936190225303 1457.8538767889586 0.0 0.0
-371.14629053560316 -977.5421246073507 -404.60652454288623 1128.146923215171 0.0 0.0
-403.07278633993985 -1859.983071237195 -678.9167572731407 666.6969343743614 0.0 0.0
-331.03936320592993 -1377.4487905668482 -512.5464461318335 -584.538271675641 0.0 0.0
-429.1830805928663 -846.9132685115333 -382.82890473132 -1024.7619158840514 0.0 0.0
-745.3908605568898 -138.5037468368386 -265.1683822181185 -1377.5206711158742 0.0 0.0
-1101.9973459476025 114.94189818991663 -296.1166343273057 -1378.7563655983208 0.0 0.0
-1396.8980673376755 119.01584880215204 -383.364665560657 -1306.9182690303267 0.0 0.0
-1677.2045420521818 66.97015536304437 -483.0703160067412 -1252.9369084446998 0.0 0.0
-1974.432964089459 27.66381606376509 -584.0307444077081 -1225.329111909581 0.0 0.0
-2288.9799058305503 8.234364604884075 -684.2236623677 -1214.0340796324651 0.0 0.0
-2612.5568483475317 0.9154121321839099 -783.4924308646043 -1210.470504606803 0.0 0.0
-2939.23168135608 -1.0310179016674041 -882.0788097773241 -1209.9231170756002 0.0 0.0
-3266.4580926403273 -1.0521939381516283 -980.2530859735438 -1210.207016360509 0.0 0.0
-3593.6668140261236 -0.19949753904845835 -1078.1598934695517 -1210.317331924074 0.0 0.0
-3921.431615106353 2.0432812143731596 -1175.816500167594 -1209.432107459268 0.0 0.0
-4251.492981764492 7.4913581237279985 -1273.2004870922294 -1206.206698204054 0.0 0.0
-4587.462337851611 18.579595888561904 -1370.6648225889148 -1198.6715132143554 0.0 0.0
-4937.433359362621 35.776718347336875 -1470.4969923045855 -1185.4291631848878 0.0 0.0
-5311.447239751256 55.48519720802897 -1576.7886127629688 -1173.6339256832723 0.0 0.0
-5670.9767924232865 44.71512477294057 -1687.878500295104 -1207.376729779682 0.0 0.0
-5832.0244259741685 -221.71265493389708 -1816.1211242724196 -1339.8597875967987 0.0 0.0
-5751.350959510364 -1447.2275791281431 -2159.5735615915523 -1242.337757224301 0.0 0.0
-6141.723997305098 -3515.7482635320775 -2897.2416782511527 -2.063416104647331e-11 0.0 0.0
-5751.35095951009 -1447.2275791275467 -2159.5735615912913 1242.3377572243198 0.0 0.0
-5832.024425974403 -221.71265493450954 -1816.1211242726736 1339.8597875968776 0.0 0.0
-5670.976792423129 44.715124773448665 -1687.8785002949035 1207.3767297797256 0.0 0.0
-5311.447239751111 55.48519720838986 -1576.7886127628158 1173.6339256831975 0.0 0.0
-4937.433359362554 35.776718347454036 -1470.4969923045294 1185.429163184952 0.0 0.0
-4587.462337851562 18.579595888682945 -1370.664822588864 1198.671513214453 0.0 0.0
-4251.492981764591 7.491358123441632 -1273.2004870923447 1206.2066982039962 0.0 0.0
-3921.4316151066137 2.0432812138192755 -1175.816500167838 1209.432107459285 0.0 0.0
-3593.6668140261095 -0.19949753897810396 -1078.1598934695262 1210.3173319240805 0.0 0.0
-3266.4580926402423 -1.0521939379022207 -980.2530859734434 1210.207016360489 0.0 0.0
-2939.2316813559073 -1.0310179012332732 -882.0788097771422 1209.9231170755604 0.0 0.0
-2612.5568483475063 0.9154121321880968 -783.4924308645955 1210.4705046068452 0.0 0.0
-2288.9799058307444 8.234364604437099 -684.223662367892 1214.0340796325245 0.0 0.0
-1974.432964089519 27.663816063536526 -584.0307444077946 1225.3291119095247 0.0 0.0
-1677.2045420522845 66.97015536269818 -483.0703160068759 1252.9369084447394 0.0 0.0
-1396.8980673376448 119.01584880232141 -383.3646655605969 1306.9182690303742 0.0 0.0
-1101.9973459478504 114.94189818950923 -296.1166343275024 1378.7563655983945 0.0 0.0
-745.3908605569148 -138.50374683674525 -265.1683822180979 1377.5206711158917 0.0 0.0
-429.18308059293923 -846.91326851151 -382.82890473133494 1024.7619158840632 0.0 0.0
-331.0393632060426 -1377.4487905669166 -512.5464461318878 584.5382716755724 0.0 0.0
-280.0444785916684 -968.3699553636945 -374.5243301866089 -500.1205489380259 0.0 0.0
-482.5363393273959 -711.2682831882657 -358.1413867546985 -908.1952818299872 0.0 0.0
-879.2818103025938 -130.5127805436503 -302.93837725387334 -1266.643286602488 0.0 0.0
-1356.0913998268597 91.18436232683422 -379.47211125000763 -1292.3993814760104 0.0 0.0
-1788.650216767575 99.88500652465379 -506.6295630728764 -1224.7452306854482 0.0 0.0
-2201.991526144678 57.22025948185694 -643.4313799988465 -1165.397303155884 0.0 0.0
-2621.3976342601154 23.755371990205475 -779.2926786809732 -1132.9280964581346 0.0 0.0
-3050.243542870888 7.024413330542252 -912.965738862104 -1119.3222405144872 0.0 0.0
-3484.324366938741 0.7428090297726477 -1045.0744673726908 -1115.058075008227 0.0 0.0
-3920.1429164915253 -0.9051827066228384 -1176.3144297594442 -1114.4454661366751 0.0 0.0
-4356.172440392347 -0.9140578211080808 -1307.1259494640367 -1114.821249660762 0.0 0.0
-4792.087077544402 -0.18524241387432738 -1437.6816959874827 -1114.9853499306182 0.0 0.0
-5228.221830276607 1.7189091630875808 -1567.9508763340555 -1113.9803684303872 0.0 0.0
-5665.682755338014 6.3267805408492634 -1697.8067924391498 -1110.1861626209534 0.0 0.0
-6106.682674442254 16.035605365971342 -1827.1941207228854 -1101.0711983787007 0.0 0.0
-6557.461616971743 30.74114859848683 -1958.0161405119768 -1084.505833956072 0.0 0.0
-7035.0036501269215 46.81498852852698 -2096.456598479519 -1064.1679936495009 0.0 0.0
-7522.138280258652 56.50359056781 -2239.6904069072534 -1086.9828689936437 0.0 0.0
-7802.352546557275 -125.6500656288999 -2378.400783655852 -1273.5018060919754 0.0 0.0
-7737.148197661637 -1434.8960406121817 -2751.6132714821465 -1346.9440148049857 0.0 0.0
-8374.906594806826 -4297.405592865939 -3801.69365630183 4.030198397231288e-11 0.0 0.0
-7737.148197661726 -1434.896040612476 -2751.6132714822606 1346.9440148050376 0.0 0.0
-7802.35254655706 -125.65006562857275 -2378.4007836556902 1273.5018060919658 0.0 0.0
-7522.138280258874 56.50359056736414 -2239.690406907453 1086.9828689936326 0.0 0.0
-7035.003650126636 46.81498852924436 -2096.4565984792175 1064.1679936495625 0.0 0.0
-6557.461616971393 30.741148599209524 -1958.016140511655 1084.50583395607 0.0 0.0
-6106.68267444236 16.035605365708268 -1827.1941207229954 1101.071198378604 0.0 0.0
-5665.682755338224 6.326780540493846 -1697.806792439319 1110.1861626209663 0.0 0.0
-5228.221830276736 1.7189091629723503 -1567.9508763341291 1113.9803684304516 0.0 0.0
-4792.087077544571 -0.1852424141847866 -1437.6816959876269 1114.9853499306687 0.0 0.0
-4356.172440392322 -0.9140578208908465 -1307.125949463964 1114.821249660858 0.0 0.0
-3920.1429164914284 -0.905182706306368 -1176.3144297593208 1114.4454661367183 0.0 0.0
-3484.3243669383673 0.7428090304941275 -1045.074467372362 1115.0580750081638 0.0 0.0
-3050.243542871056 7.024413330135031 -912.965738862276 1119.3222405144006 0.0 0.0
-2621.3976342601554 23.75537199016758 -779.2926786809962 1132.9280964580973 0.0 0.0
-2201.9915261447422 57.220259481703536 -643.4313799989118 1165.3973031559042 0.0 0.0
-1788.6502167674391 99.88500652478105 -506.6295630727977 1224.745230685399 0.0 0.0
-1356.091399826781 91.18436232685174 -379.472111249979 1292.3993814760638 0.0 0.0
-879.2818103026078 -130.51278054361183 -302.93837725386584 1266.643286602544 0.0 0.0
-482.536339327453 -711.2682831883621 -358.14138675474453 908.1952818300342 0.0 0.0
-280.0444785916626 -968.3699553636554 -374.5243301865954 500.1205489379387 0.0 0.0
-247.38044427161142 -633.4517351070097 -264.24965381358624 -412.66238648856006 0.0 0.0
-530.0580645398883 -576.1977921968852 -331.87675702103206 -778.9657178427765 0.0 0.0
-1008.0504225796915 -111.88836815875254 -335.98163722153333 -1126.934132419422 0.0 0.0
-1605.0830942852808 69.92246022339228 -460.5481902185666 -1169.0510834634492 0.0 0.0
-2176.127229422411 79.49556605843905 -628.9894990091917 -1106.7928320299477 0.0 0.0
-2724.5677587989044 46.203820655922144 -803.5091814428948 -1046.037732894609 0.0 0.0
-3267.7653871790762 19.275833475107174 -974.5468661111906 -1011.5085021808445 0.0 0.0
-3811.5968418249977 5.667468052146194 -1141.7788121318554 -996.8921233907689 0.0 0.0
-4356.307790397713 0.5694883219409235 -1306.7214906227318 -992.3767600713795 0.0 0.0
-4901.217532495142 -0.751580904902319 -1470.590734020013 -991.7922099886403 0.0 0.0
-5445.996132516152 -0.750536857906674 -1634.0240008122173 -992.246628700186 0.0 0.0
-5990.603266628163 -0.1658948175612025 -1797.230748433718 -992.4656437276207 0.0 0.0
-6535.080090932201 1.3838486008913193 -1960.108872699393 -991.4407267878104 0.0 0.0
-7079.74281307274 5.03463239995515 -2122.4124542018353 -987.4638834580444 0.0 0.0
-7625.3520232952915 13.030474094384232 -2283.6964647602726 -977.5066864264551 0.0 0.0
-8174.258436733487 25.80338808554853 -2444.5365145943815 -959.0950483613816 0.0 0.0
-8746.802111636223 34.98025158943584 -2613.5465580140367 -932.9094480124353 0.0 0.0
-9361.021288453117 54.44579460561844 -2791.9726481542507 -934.9235810181178 0.0 0.0
-9786.099124353972 -4.46969697338163 -2937.1706463982064 -1151.888809318025 0.0 0.0
-9724.36003556993 -1298.5584033524224 -3306.8755316767047 -1448.828533830823 0.0 0.0
-10742.83838916623 -5287.83698396503 -4809.2026119393795 4.729372449219227e-11 0.0 0.0
-9724.360035570813 -1298.558403354467 -3306.875531677584 1448.8285338308965 0.0 0.0
-9786.099124353652 -4.469696972656813 -2937.170646397893 1151.8888093179996 0.0 0.0
-9361.021288453569 54.445794604495504 -2791.9726481547223 934.9235810181912 0.0 0.0
-8746.802111635689 34.98025159072279 -2613.54655801349 932.9094480126121 0.0 0.0
-8174.2584367338195 25.80338808486347 -2444.5365145946876 959.0950483613321 0.0 0.0
-7625.35202329521 13.030474094542766 -2283.6964647601994 977.5066864263397 0.0 0.0
-7079.742813072785 5.034632399790002 -2122.412454201898 987.4638834579773 0.0 0.0
-6535.080090931914 1.3838486015996594 -1960.108872699094 991.4407267878116 0.0 0.0
-5990.603266628269 -0.16589481777722703 -1797.2307484338141 992.4656437276867 0.0 0.0
-5445.9961325161 -0.7505368577488323 -1634.0240008121548 992.2466287001351 0.0 0.0
-4901.217532495239 -0.7515809050550573 -1470.5907340200881 991.7922099887028 0.0 0.0
-4356.307790397795 0.5694883218059492 -1306.7214906227969 992.3767600713687 0.0 0.0
-3811.596841824968 5.66746805218547 -1141.7788121318351 996.8921233906244 0.0 0.0
-3267.765387178909 19.275833475477732 -974.5468661110292 1011.5085021807688 0.0 0.0
-2724.5677587989867 46.20382065575893 -803.5091814429683 1046.0377328945983 0.0 0.0
-2176.127229422407 79.49556605842474 -628.9894990091944 1106.792832029964 0.0 0.0
-1605.0830942851355 69.92246022367904 -460.5481902184369 1169.0510834633944 0.0 0.0
-1008.0504225796943 -111.88836815872135 -335.98163722152475 1126.934132419485 0.0 0.0
-530.0580645399718 -576.1977921970284 -331.8767570211001 778.9657178428246 0.0 0.0
-247.380444271562 -633.4517351069343 -264.24965381354895 412.66238648853846 0.0 0.0
-229.96196736275434 -374.6840057158902 -181.39379192359334 -322.67872523718387 0.0 0.0
-568.6833424615397 -445.95635930786517 -304.39191053082146 -637.9644349773972 0.0 0.0
-1129.7508292818816 -87.1312589106129 -365.0646264577485 -959.052205920816 0.0 0.0
-1849.3564018710993 50.832348758279124 -539.557215933846 -1008.1554265195032 0.0 0.0
-2561.3636090610316 59.30006126226695 -750.6190643396295 -952.3086633178966 0.0 0.0
-3246.7636333248797 34.99017043298136 -963.5320388675697 -894.4281100826199 0.0 0.0
-3914.496376959446 14.686975303571312 -1169.9428204967624 -860.9329887878789 0.0 0.0
-4573.387807824552 4.311666410662809 -1370.7228424241666 -846.7514994320779 0.0 0.0
-5228.582972581492 0.42109907049459494 -1568.4485620532994 -842.4633976746537 0.0 0.0
-5882.443522199289 -0.5814196620558292 -1764.907482558404 -841.9872920643807 0.0 0.0
-6535.907526702835 -0.5745180452648668 -1960.9446134244308 -842.4875973613904 0.0 0.0
-7189.215118259743 -0.1380284671997245 -2156.805944018083 -842.7525971816633 0.0 0.0
-7842.117445893501 1.0479201937255809 -2352.3208577099326 -841.8034850147048 0.0 0.0
-8493.893804659023 3.8465782703095286 -2547.0141679166145 -838.0310682130843 0.0 0.0
-9144.045021041396 9.590609660752726 -2740.336323414193 -828.2728838791024 0.0 0.0
-9789.964917904279 21.392128035892835 -2930.5718369605165 -809.2162679259544 0.0 0.0
-10446.081197151743 24.383985647448636 -3126.5091634512864 -782.3893798735573 0.0 0.0
-11177.132146477988 30.156057091588213 -3344.0928268159196 -760.2398743884896 0.0 0.0
-11781.715730793823 118.6589286551404 -3498.917040641604 -959.3264384290686 0.0 0.0
-11703.287426619547 -969.6242469890337 -3801.873502082574 -1525.3324998504722 0.0 0.0
-13311.63792065624 -6557.710959560634 -5960.804664065063 -8.873257684172131e-11 0.0 0.0
-11703.28742662013 -969.624246990201 -3801.8735020831004 1525.3324998504836 0.0 0.0
-11781.715730793656 118.65892865546175 -3498.9170406414582 959.3264384290987 0.0 0.0
-11177.132146478289 30.156057090583683 -3344.0928268163116 760.2398743884287 0.0 0.0
-10446.081197152103 24.383985646652995 -3126.509163451636 782.3893798735046 0.0 0.0
-9789.964917904084 21.392128036333467 -2930.5718369603255 809.2162679258493 0.0 0.0
-9144.045021041456 9.59060966052087 -2740.336323414283 828.2728838790968 0.0 0.0
-8493.893804659207 3.846578270026683 -2547.0141679167546 838.0310682131503 0.0 0.0
-7842.1174458935 1.0479201938682738 -2352.320857709889 841.8034850146595 0.0 0.0
-7189.215118259582 -0.13802846683437942 -2156.805944017925 842.7525971816466 0.0 0.0
-6535.907526703018 -0.5745180457043624 -1960.9446134246164 842.4875973614004 0.0 0.0
-5882.443522199266 -0.5814196619833423 -1764.907482558375 841.9872920644198 0.0 0.0
-5228.582972581724 0.42109906994640856 -1568.4485620535338 842.4633976746337 0.0 0.0
-4573.387807824393 4.311666411011004 -1370.722842424015 846.7514994321323 0.0 0.0
-3914.496376959275 14.68697530388366 -1169.9428204966173 860.9329887878979 0.0 0.0
-3246.7636333248697 34.99017043294346 -963.5320388675775 894.4281100825433 0.0 0.0
-2561.363609060894 59.30006126252162 -750.6190643395117 952.3086633180002 0.0 0.0
-1849.3564018711068 50.8323487582487 -539.5572159338574 1008.155426519472 0.0 0.0
-1129.7508292819086 -87.13125891061033 -365.0646264577556 959.052205920863 0.0 0.0
-568.6833424616185 -445.95635930799375 -304.39191053088365 637.9644349773489 0.0 0.0
-229.96196736277756 -374.68400571588063 -181.39379192359746 322.6787252372014 0.0 0.0
-223.00110197693397 -193.9315780955593 -125.079804021748 -232.9018995356927 0.0 0.0
-592.9952204389992 -324.49498011721556 -275.2470601668644 -486.75432185586743 0.0 0.0
-1240.8447393151316 -61.63083780666489 -390.74267313653894 -762.0522081448777 0.0 0.0
-2088.8426285383625 33.682266069189694 -616.5481087407519 -808.1555171209408 0.0 0.0
-2946.6340419430635 40.98241845999351 -871.695487044921 -760.6851495067451 0.0 0.0
-3770.635199599672 24.715672324131706 -1123.7758581826624 -710.4749991758645 0.0 0.0
-4562.638161184885 10.485003075217026 -1365.6459474329 -681.2747849211362 0.0 0.0
-5335.984410253895 3.107228639722887 -1599.8631544842515 -668.9984417634 0.0 0.0
-6101.218067188195 0.3131879786675924 -1830.2714637628583 -665.3819987413174 0.0 0.0
-6863.794672201368 -0.4099364309245175 -2059.261382589687 -665.0575159140585 0.0 0.0
-7625.878743388233 -0.4111823266055481 -2287.886977714451 -665.5490262923121 0.0 0.0
-8387.91270811754 -0.08370709280951161 -2516.398924563105 -665.8186892653868 0.0 0.0
-9149.422961551667 0.6950420807405777 -2744.6183758412776 -665.0672752537284 0.0 0.0
-9908.51367074448 2.9328314992449194 -2971.6742517735706 -661.7538765931835 0.0 0.0
-10662.972647472565 6.336220300494418 -3196.99092815162 -653.5568222835806 0.0 0.0
-11407.576388538662 15.959877850357781 -3417.4849532064914 -635.2698538221413 0.0 0.0
-12135.775728783654 22.853825456551363 -3633.8765709981317 -611.6057946312676 0.0 0.0
-12954.110542416993 -16.543363576648673 -3891.196171798092 -581.0713843981468 0.0 0.0
-13781.929115631336 187.33223921228318 -4078.379062925716 -688.9480895277088 0.0 0.0
-13654.43197229253 -351.47251584502663 -4201.771346441268 -1519.2302994966406 0.0 0.0
-16181.580608359905 -8187.6292010540565 -7310.762942824191 4.615685611497611e-11 0.0 0.0
-13654.431972292285 -351.47251584426715 -4201.771346440964 1519.2302994966765 0.0 0.0
-13781.929115631858 187.3322392110499 -4078.379062926244 688.9480895277507 0.0 0.0
-12954.110542417395 -16.54336357765207 -3891.1961717985155 581.0713843980826 0.0 0.0
-12135.77572878365 22.853825456641374 -3633.876570998104 611.6057946313158 0.0 0.0
-11407.576388538342 15.959877850877582 -3417.4849532062385 635.2698538222123 0.0 0.0
-10662.972647472754 6.336220299858691 -3196.9909281518685 653.5568222833646 0.0 0.0
-9908.513670744589 2.932831499086941 -2971.6742517736498 661.7538765931722 0.0 0.0
-9149.422961552169 0.6950420796196646 -2744.6183758417637 665.0672752537864 0.0 0.0
-8387.912708117048 -0.08370709173713298 -2516.3989245626362 665.818689265434 0.0 0.0
-7625.878743388277 -0.41118232667443166 -2287.886977714485 665.5490262922816 0.0 0.0
-6863.794672201304 -0.40993643071398544 -2059.261382589606 665.0575159141063 0.0 0.0
-6101.2180671883025 0.3131879783131717 -1830.2714637629963 665.3819987413981 0.0 0.0
-5335.98441025372 3.107228640118073 -1599.8631544840805 668.9984417634894 0.0 0.0
-4562.638161184856 10.485003075371786 -1365.645947432845 681.2747849211999 0.0 0.0
-3770.635199599653 24.715672324095635 -1123.7758581826677 710.4749991758299 0.0 0.0
-2946.6340419429584 40.982418460159266 -871.6954870448398 760.6851495067883 0.0 0.0
-2088.84262853824 33.68226606944438 -616.5481087406386 808.155517120873 0.0 0.0
-1240.8447393151532 -61.6308378067086 -390.74267313655855 762.0522081449193 0.0 0.0
-592.995220439039 -324.4949801172609 -275.2470601668901 486.75432185582633 0.0 0.0
-223.00110197693803 -193.9315780955721 -125.07980402175305 232.90189953572454 0.0 0.0
-217.59851665104628 -90.60720600979602 -92.46171679825268 -150.05954536355668 0.0 0.0
-594.4092829480572 -217.25966740270906 -243.50068510522988 -327.81471515977125 0.0 0.0
-1335.791249647148 -41.89783762165191 -413.30672618064006 -532.1604263995048 0.0 0.0
-2323.379828117246 19.20496312507502 -691.2524594976511 -566.3961166394938 0.0 0.0
-3334.784818328262 26.519287463865385 -992.479659259319 -531.5865922122704 0.0 0.0
-4298.445560732592 16.506204401986707 -1284.5818068991814 -494.44233578105076 0.0 0.0
-5213.2609888941915 7.165219537865816 -1561.8287308068977 -472.84564776288164 0.0 0.0
-6099.738451305204 2.17797417032574 -1829.268143140464 -463.82563660031843 0.0 0.0
-6974.254423915997 0.2470136123866027 -2092.2022230910834 -461.22244578822813 0.0 0.0
-7845.232150490767 -0.2656322358066845 -2353.649334817972 -461.0330450477971 0.0 0.0
-8715.854967653964 -0.2721046876243989 -2614.838121702477 -461.42599961963174 0.0 0.0
-9586.725581472801 -0.05726181281586662 -2876.0348529856847 -461.6502102435184 0.0 0.0
-10456.936158220215 0.5261750318228096 -3136.9229949565174 -461.1153662963689 0.0 0.0
-11324.269428857657 1.7946778067145033 -3396.742425315284 -458.7576235514219 0.0 0.0
-12182.182325515436 5.397078801238912 -3653.0355740142595 -452.36422429281447 0.0 0.0
-13028.70073875707 6.323766450054883 -3906.7130916921046 -440.17799876119375 0.0 0.0
-13828.231057734338 33.09687353294774 -4138.540255260417 -413.8126802974238 0.0 0.0
-14668.205633000314 -50.66498188283537 -4415.661184464946 -415.0921551949419 0.0 0.0
-15766.982562671581 81.03995621301581 -4705.782781937569 -385.0108954719859 0.0 0.0
-15543.34271376872 674.3278665079692 -4460.704454178226 -1285.442990094636 0.0 0.0
-19506.551452055035 -10232.41308109276 -8921.68935994434 1.5575096767861396e-11 0.0 0.0
-15543.342713769096 674.3278665071609 -4460.704454178581 1285.4429900946243 0.0 0.0
-15766.982562672258 81.03995621140899 -4705.782781938254 385.01089547196125 0.0 0.0
-14668.205633000574 -50.66498188342812 -4415.661184465201 415.09215519485497 0.0 0.0
-13828.231057734207 33.09687353322772 -4138.540255260293 413.8126802974095 0.0 0.0
-13028.700738757147 6.323766449789916 -3906.713091692208 440.17799876113895 0.0 0.0
-12182.182325515632 5.397078800728735 -3653.035574014471 452.3642242927342 0.0 0.0
-11324.269428857871 1.794677806217484 -3396.742425315497 458.75762355139915 0.0 0.0
-10456.936158220438 0.5261750314071723 -3136.9229949567093 461.1153662965402 0.0 0.0
-9586.725581472403 -0.057261811972630916 -2876.034852985312 461.6502102436553 0.0 0.0
-8715.854967653797 -0.27210468726648473 -2614.8381217023198 461.4259996196551 0.0 0.0
-7845.232150490896 -0.2656322361061296 -2353.649334818101 461.03304504784006 0.0 0.0
-6974.254423916054 0.2470136121934754 -2092.2022230911584 461.22244578830043 0.0 0.0
-6099.73845130528 2.1779741701650437 -1829.268143140535 463.82563660028575 0.0 0.0
-5213.260988894194 7.165219537761326 -1561.82873080693 472.84564776295736 0.0 0.0
-4298.445560732614 16.506204401914715 -1284.5818068992091 494.4423357811261 0.0 0.0
-3334.7848183283763 26.519287463677603 -992.4796592594095 531.5865922122365 0.0 0.0
-2323.379828117179 19.204963125211368 -691.2524594975903 566.3961166395344 0.0 0.0
-1335.7912496471015 -41.89783762158987 -413.3067261806076 532.1604263994832 0.0 0.0
-594.4092829480139 -217.259667402656 -243.50068510520097 327.81471515979604 0.0 0.0
-217.59851665101687 -90.6072060098129 -92.4617167982489 150.05954536356631 0.0 0.0
-196.09873594056182 -57.477873351072716 -76.07298278749036 -88.3837316676955 0.0 0.0
-559.8453156735683 -134.82032037609827 -208.3996908149 -164.59386745496644 0.0 0.0
-1406.4545594189412 -35.2916194240275 -432.5238536528907 -260.11071262596766 0.0 0.0
-2553.4031183068932 10.602452433433228 -762.8401997620381 -279.8657333760907 0.0 0.0
-3729.6761368329544 17.819291053175057 -1113.5570537339345 -264.9580576916753 0.0 0.0
-4832.545694029734 11.530302516926032 -1446.304617453842 -247.0375043106243 0.0 0.0
-5867.415805224642 5.141131760181661 -1758.682402039338 -236.20188149331992 0.0 0.0
-6864.93523858078 1.6021585332054897 -2058.9999240142724 -231.5186278724994 0.0 0.0
-7847.693326357541 0.19908894601591243 -2354.2482712234582 -230.09579269354367 0.0 0.0
-8826.690139758077 -0.18240247601509196 -2648.061762670226 -229.94237076253543 0.0 0.0
-9805.79141596585 -0.1916885423709047 -2941.7949313524673 -230.1125519173667 0.0 0.0
-10785.577977074769 -0.03679873488428598 -3235.684432742896 -230.20646392753304 0.0 0.0
-11764.9310235483 0.3723819737107945 -3529.367592472376 -229.89775792985046 0.0 0.0
-12740.51786480821 1.366069650123741 -3821.7455385474245 -228.6888618645755 0.0 0.0
-13705.893796601675 3.372183587290337 -4110.756483904314 -225.342057698481 0.0 0.0
-14643.75002299014 8.000172577876754 -4390.72495512368 -219.2961050229984 0.0 0.0
-15558.343914601659 4.569667727514933 -4666.132274062244 -208.14231158831493 0.0 0.0
-16288.82413902018 75.45386586669292 -4864.011081946047 -193.49257877463936 0.0 0.0
-17687.300106644594 -432.6058220167581 -5435.971778598406 -305.1668384128867 0.0 0.0
-17317.700260320158 2180.4215355510482 -4541.183617430732 -435.54771859156114 0.0 0.0
-23520.57992924348 -12578.982306080194 -10829.868670597101 -5.445599526865408e-11 0.0 0.0
-17317.700260320988 2180.421535549159 -4541.183617431547 435.547718591492 0.0 0.0
-17687.30010664503 -432.60582201767465 -5435.971778598811 305.1668384128839 0.0 0.0
-16288.824139019925 75.45386586745369 -4864.011081945741 193.4925787746588 0.0 0.0
-15558.343914602232 4.5696677260476655 -4666.132274062856 208.14231158830748 0.0 0.0
-14643.75002298964 8.000172578953308 -4390.724955123204 219.29610502299334 0.0 0.0
-13705.893796601886 3.372183586717842 -4110.75648390455 225.34205769854822 0.0 0.0
-12740.517864808644 1.3660696490608935 -3821.745538547875 228.68886186458616 0.0 0.0
-11764.931023548304 0.37238197379218363 -3529.367592472354 229.89775792983113 0.0 0.0
-10785.577977074596 -0.03679873469254735 -3235.6844327427866 230.20646392752684 0.0 0.0
-9805.791415965781 -0.19168854230258547 -2941.794931352424 230.11255191736882 0.0 0.0
-8826.690139758275 -0.1824024763655332 -2648.061762670393 229.94237076249365 0.0 0.0
-7847.693326357581 0.19908894592874038 -2354.2482712234955 230.09579269356672 0.0 0.0
-6864.935238580772 1.6021585333199821 -2058.999924014236 231.51862787243397 0.0 0.0
-5867.415805224699 5.141131760072723 -1758.682402039388 236.20188149328098 0.0 0.0
-4832.545694029616 11.530302517213865 -1446.3046174537203 247.03750431057773 0.0 0.0
-3729.67613683304 17.819291053049493 -1113.5570537339972 264.9580576915729 0.0 0.0
-2553.4031183067304 10.60245243379278 -762.8401997618816 279.8657333761924 0.0 0.0
-1406.4545594188846 -35.29161942390836 -432.5238536528379 260.1107126259242 0.0 0.0
-559.8453156735396 -134.82032037610756 -208.39969081489411 164.59386745492722 0.0 0.0
-196.09873594050543 -57.4778733510736 -76.07298278747372 88.38373166768038 0.0 0.0
-102.05681815686776 -24.26321494517059 -37.89600993061151 -59.22765892568049 0.0 0.0
-456.1529953784599 -69.2592829741872 -157.62368350579422 -69.5649083221482 0.0 0.0
-1436.7921040338938 -37.19687787402063 -442.19669457237427 -88.53151387573484 0.0 0.0
-2810.930808594988 -53.12642125943165 -859.2171689563258 -98.70947218810218 0.0 0.0
-4183.289130184913 -93.7005472735832 -1283.0969032375492 -97.95764331708318 0.0 0.0
-5437.516443478885 -134.01844399600571 -1671.460466242467 -93.3993255145216 0.0 0.0
-6600.505410414839 -169.0757314010591 -2030.87434254477 -89.91596934175837 0.0 0.0
-7718.101938924061 -200.0954672463538 -2375.4592218511243 -88.1188265362598 0.0 0.0
-8819.763580207025 -229.21945760528766 -2714.6949113436935 -87.43049541529402 0.0 0.0
-9918.457840618985 -257.75003978214164 -3052.8623641203376 -87.25727944971214 0.0 0.0
-11018.196811387268 -286.2254371610327 -3391.3266745644905 -87.2508974165275 0.0 0.0
-12119.31245313473 -314.71701492137595 -3730.208840416832 -87.2370094794835 0.0 0.0
-13220.509126397794 -343.23924738044093 -4069.1245121334714 -87.05905353600428 0.0 0.0
-14317.706866132201 -370.8226479625024 -4406.558854228411 -86.57996963362848 0.0 0.0
-15403.450246721117 -399.2364076432045 -4740.8059963092965 -85.42614636028316 0.0 0.0
-16453.795253217893 -415.3586631887627 -5060.7461749219965 -83.19383629164577 0.0 0.0
-17458.412522548235 -468.35967370792935 -5378.031658876848 -85.4625914379601 0.0 0.0
-18277.975390805776 -309.3742727912444 -5576.204899079106 -58.14857718390249 0.0 0.0
-19121.212829257845 -1042.8191703217358 -6049.209599873876 -285.5181241800875 0.0 0.0
-19520.98037358444 2476.465671035993 -5113.354410764534 -1.285417610732793 0.0 0.0
-28865.87818316301 -15137.82637422148 -13201.111367215348 -1.000444171950221e-11 0.0 0.0
-19520.980373584996 2476.4656710348913 -5113.354410765032 1.285417610648949 0.0 0.0
-19121.212829258195 -1042.819170322426 -6049.209599874187 285.5181241800617 0.0 0.0
-18277.975390805346 -309.37427278994744 -5576.204899078588 58.14857718388555 0.0 0.0
-17458.412522548697 -468.35967370906934 -5378.031658877329 85.46259143789553 0.0 0.0
-16453.795253217097 -415.35866318721315 -5060.746174921294 83.19383629168499 0.0 0.0
-15403.45024672137 -399.23640764397413 -4740.805996309603 85.42614636018368 0.0 0.0
-14317.706866133014 -370.82264796436266 -4406.558854229213 86.57996963362518 0.0 0.0
-13220.509126397974 -343.23924738081 -4069.1245121336356 87.05905353585172 0.0 0.0
-12119.312453134386 -314.71701492080604 -3730.2088404165575 87.23700947942223 0.0 0.0
-11018.196811387255 -286.2254371611302 -3391.326674564515 87.25089741656308 0.0 0.0
-9918.457840619005 -257.75003978210884 -3052.862364120334 87.25727944967917 0.0 0.0
-8819.763580207238 -229.21945760561013 -2714.6949113438545 87.430495415331 0.0 0.0
-7718.10193892405 -200.09546724614387 -2375.459221851058 88.11882653624014 0.0 0.0
-6600.505410414868 -169.07573140119382 -2030.8743425448179 89.91596934170468 0.0 0.0
-5437.516443478553 -134.01844399534355 -1671.4604662421689 93.39932551445912 0.0 0.0
-4183.289130184854 -93.70054727348776 -1283.0969032375028 97.95764331700684 0.0 0.0
-2810.9308085946986 -53.12642125871855 -859.217168956025 98.7094721882248 0.0 0.0
-1436.7921040338817 -37.19687787388639 -442.19669457233044 88.5315138757125 0.0 0.0
-456.15299537855117 -69.25928297433816 -157.62368350586678 69.56490832209454 0.0 0.0
-102.05681815691952 -24.263214945197134 -37.896009930635 59.227658925638195 0.0 0.0
SCALARS Strain float 6
LOOKUP_TABLE default
0.026440629137244563 -0.06568057032181834 0.0 -0.004419537896352222 0.0 0.0
0.023547536009327543 0.005120027673553722 0.0 -0.006865013136074228 0.0 0.0
0.018611047013804678 -0.009274301939724752 0.0 -0.002936088624197597 0.0 0.0
0.017747768007975284 -0.006466026487670121 0.0 -0.00043729166150900396 0.0 0.0
0.020846010020871036 -0.008519144194835912 0.0 -0.001007831817373739 0.0 0.0
0.02504519030415242 -0.010147459828166639 0.0 -0.0010385322490903185 0.0 0.0
0.02975295825257441 -0.012112538417714709 0.0 -0.0011012372830872755 0.0 0.0
0.034654065073490975 -0.014107809707740476 0.0 -0.0011250976200471155 0.0 0.0
0.03961390419708262 -0.016129958685339205 0.0 -0.0011335822128797463 0.0 0.0
0.044583141806474866 -0.01815272804319405 0.0 -0.0011357904517544158 0.0 0.0
0.04954691684566566 -0.020173473364249524 0.0 -0.0011357903131362975 0.0 0.0
0.05450453722372409 -0.02219164024942318 0.0 -0.001136041847506333 0.0 0.0
0.05946240840870827 -0.02420954360388606 0.0 -0.0011382544657786554 0.0 0.0
0.06443787310673171 -0.026233115923868483 0.0 -0.0011447726220998851 0.0 0.0
0.0694694068550658 -0.028276272489602634 0.0 -0.0011581179240192333 0.0 0.0
0.0746229134614922 -0.030364597273826704 0.0 -0.001177043475802986 0.0 0.0
0.0799644513194668 -0.03252782699411677 0.0 -0.0011856135174248008 0.0 0.0
0.08544639280865868 -0.034758857210806904 0.0 -0.0011364690417509501 0.0 0.0
0.0906746262831395 -0.03691825400741766 0.0 -0.0009479075039171433 0.0 0.0
0.09469521021567849 -0.0386215535591493 0.0 -0.0005545186739165449 0.0 0.0
0.0962451685054106 -0.039296983256793795 0.0 7.337880303381894e-16 0.0 0.0
0.09469521021567867 -0.03862155355915042 0.0 0.0005545186739178915 0.0 0.0
0.09067462628313977 -0.036918254007412894 0.0 0.000947907503917344 0.0 0.0
0.0854463928086587 -0.03475885721079726 0.0 0.001136469041750042 0.0 0.0
0.07996445131946676 -0.03252782699411855 0.0 0.0011856135174237582 0.0 0.0
0.07462291346149204 -0.030364597273822 0.0 0.001177043475802218 0.0 0.0
0.06946940685506549 -0.02827627248960312 0.0 0.0011581179240215457 0.0 0.0
0.0644378731067319 -0.026233115923871855 0.0 0.0011447726220993703 0.0 0.0
0.05946240840870817 -0.024209543603886885 0.0 0.0011382544657799953 0.0 0.0
0.05450453722372378 -0.022191640249419012 0.0 0.001136041847505197 0.0 0.0
0.04954691684566554 -0.020173473364251928 0.0 0.001135790313137276 0.0 0.0
0.044583141806475 -0.018152728043190503 0.0 0.0011357904517541183 0.0 0.0
0.039613904197082925 -0.01612995868534327 0.0 0.0011335822128798498 0.0 0.0
0.034654065073491044 -0.014107809707738707 0.0 0.0011250976200460618 0.0 0.0
0.02975295825257423 -0.012112538417715491 0.0 0.0011012372830880885 0.0 0.0
0.025045190304152348 -0.01014745982816595 0.0 0.0010385322490896463 0.0 0.0
0.020846010020871195 -0.008519144194835135 0.0 0.0010078318173742681 0.0 0.0
0.017747768007975374 -0.006466026487668527 0.0 0.0004372916615084764 0.0 0.0
0.01861104701380487 -0.009274301939725128 0.0 0.0029360886241975213 0.0 0.0
0.023547536009327852 0.0051200276735540815 0.0 0.006865013136075126 0.0 0.0
0.026440629137244712 -0.06568057032181877 0.0 0.004419537896350932 0.0 0.0
0.016464637997793054 -0.06104919368486987 0.0 -0.0030201865109978202 0.0 0.0
0.01393030806267579 0.004437521586340014 0.0 -0.005473577917203502 0.0 0.0
0.013373739780594921 -0.007192155762841943 0.0 -0.0020522139236203735 0.0 0.0
0.016092661993755728 -0.006380446615202636 0.0 -0.0016986229562276258 0.0 0.0
0.018693299255520535 -0.00794729946050979 0.0 -0.002449062909723908 0.0 0.0
0.02259018607749138 -0.009630476599059891 0.0 -0.002774320691915199 0.0 0.0
0.026806104852569818 -0.011471266150135077 0.0 -0.0029201492142911906 0.0 0.0
0.03120529968599836 -0.013368484267848488 0.0 -0.002979846874706187 0.0 0.0
0.03565963789052258 -0.015282156756629663 0.0 -0.0029962360805034652 0.0 0.0
0.040127403139859984 -0.017198154462472953 0.0 -0.002997913959621155 0.0 0.0
0.0445934285214514 -0.019112173773389564 0.0 -0.0029956284766002343 0.0 0.0
0.04905605218382195 -0.02102413033690987 0.0 -0.002994505291151121 0.0 0.0
0.053520554492190876 -0.02293587933219766 0.0 -0.002998657974395306 0.0 0.0
0.05800149761460398 -0.024852469912523656 0.0 -0.0030153564075437863 0.0 0.0
0.06252919681872206 -0.02678573853751273 0.0 -0.003056004515212844 0.0 0.0
0.06715082186912398 -0.028757724254334455 0.0 -0.003128008816730158 0.0 0.0
0.0719014181110886 -0.030794615489688273 0.0 -0.0032049683284116393 0.0 0.0
0.07670520027234963 -0.03289111081326476 0.0 -0.003168551284877019 0.0 0.0
0.08119449391960207 -0.03492424593902497 0.0 -0.0027620481731558746 0.0 0.0
0.08457485507460798 -0.03654308250266301 0.0 -0.0016926118003511503 0.0 0.0
0.0858601866662588 -0.03719655065186596 0.0 5.895891413976173e-16 0.0 0.0
0.08457485507460819 -0.03654308250266291 0.0 0.0016926118003519675 0.0 0.0
0.08119449391960237 -0.03492424593902289 0.0 0.0027620481731565143 0.0 0.0
0.0767052002723497 -0.032891110813260245 0.0 0.0031685512848770975 0.0 0.0
0.07190141811108891 -0.03079461548968762 0.0 0.0032049683284121303 0.0 0.0
0.06715082186912452 -0.028757724254333934 0.0 0.0031280088167292366 0.0 0.0
0.06252919681872213 -0.026785738537513197 0.0 0.003056004515213357 0.0 0.0
0.058001497614604186 -0.024852469912524735 0.0 0.0030153564075437868 0.0 0.0
0.05352055449219086 -0.02293587933219759 0.0 0.002998657974395961 0.0 0.0
0.049056052183821565 -0.021024130336908003 0.0 0.0029945052911507734 0.0 0.0
0.04459342852145148 -0.019112173773392357 0.0 0.0029956284766011814 0.0 0.0
0.04012740313986017 -0.017198154462470465 0.0 0.0029979139596211356 0.0 0.0
0.035659637890522525 -0.015282156756631426 0.0 0.0029962360805035 0.0 0.0
0.03120529968599836 -0.013368484267848639 0.0 0.002979846874706392 0.0 0.0
0.026806104852569818 -0.011471266150135842 0.0 0.0029201492142913975 0.0 0.0
0.022590186077491345 -0.009630476599059554 0.0 0.0027743206919148963 0.0 0.0
0.018693299255520653 -0.00794729946050969 0.0 0.002449062909724707 0.0 0.0
0.016092661993755773 -0.006380446615201195 0.0 0.001698622956227178 0.0 0.0
0.013373739780594812 -0.007192155762842415 0.0 0.002052213923619245 0.0 0.0
0.01393030806267569 0.004437521586339938 0.0 0.0054735779172041255 0.0 0.0
0.016464637997793023 -0.061049193684870114 0.0 0.0030201865109964958 0.0 0.0
0.011809371750640412 -0.05231886136148334 0.0 -0.013909320392411162 0.0 0.0
0.008971312512078732 0.0024295504289213237 0.0 -0.009897977728359184 0.0 0.0
0.009212338126400477 -0.0036864490079669783 0.0 -0.0013916018596148811 0.0 0.0
0.013609260130656678 -0.005747957290661022 0.0 -0.003918454331879101 0.0 0.0
0.016557866452136298 -0.006896773805612038 0.0 -0.004876427738671955 0.0 0.0
0.020049477782963062 -0.00854300652039528 0.0 -0.005588840404197028 0.0 0.0
0.02384276206350492 -0.010191220540243968 0.0 -0.005867286697712271 0.0 0.0
0.02774824157864717 -0.011885379931145749 0.0 -0.005979814224065505 0.0 0.0
0.03170434347101328 -0.01358678471613888 0.0 -0.006010046269518286 0.0 0.0
0.035672180707746436 -0.015289084251670564 0.0 -0.00601179493262874 0.0 0.0
0.03964062257456537 -0.016989839220150727 0.0 -0.006006627040257085 0.0 0.0
0.043607505916013714 -0.018689110533010853 0.0 -0.006003839372113693 0.0 0.0
0.047576628572913594 -0.020387943137688366 0.0 -0.006011260524427578 0.0 0.0
0.05155856402919164 -0.02208914474898407 0.0 -0.006043312820150267 0.0 0.0
0.05557466719409551 -0.023800028763394883 0.0 -0.006123869343162198 0.0 0.0
0.059656575052652 -0.02553633262733902 0.0 -0.0062716421153905045 0.0 0.0
0.06382244544305998 -0.02732162604442976 0.0 -0.006441783933787841 0.0 0.0
0.06799869990933298 -0.0291651060504061 0.0 -0.006404914329080091 0.0 0.0
0.07187499328011518 -0.030990492564559595 0.0 -0.005634303989527785 0.0 0.0
0.07478732583996162 -0.032508252620904635 0.0 -0.0034874357234930967 0.0 0.0
0.07589558081223827 -0.03315600486669104 0.0 4.466912950640278e-17 0.0 0.0
0.07478732583996142 -0.03250825262090416 0.0 0.003487435723492837 0.0 0.0
0.07187499328011518 -0.030990492564561142 0.0 0.005634303989527661 0.0 0.0
0.06799869990933285 -0.02916510605040317 0.0 0.006404914329079919 0.0 0.0
0.06382244544305986 -0.027321626044428244 0.0 0.006441783933787748 0.0 0.0
0.05965657505265222 -0.02553633262734128 0.0 0.006271642115389714 0.0 0.0
0.05557466719409555 -0.023800028763395646 0.0 0.006123869343162822 0.0 0.0
0.05155856402919163 -0.022089144748982544 0.0 0.006043312820151031 0.0 0.0
0.0475766285729136 -0.02038794313768827 0.0 0.006011260524426534 0.0 0.0
0.04360750591601357 -0.01868911053301132 0.0 0.006003839372113556 0.0 0.0
0.039640622574565514 -0.016989839220153072 0.0 0.006006627040257591 0.0 0.0
0.03567218070774654 -0.015289084251671706 0.0 0.006011794932628354 0.0 0.0
0.03170434347101314 -0.013586784716138774 0.0 0.0060100462695182235 0.0 0.0
0.027748241578647023 -0.011885379931148032 0.0 0.005979814224065846 0.0 0.0
0.023842762063504722 -0.010191220540243464 0.0 0.005867286697711546 0.0 0.0
0.020049477782963145 -0.008543006520395108 0.0 0.005588840404197299 0.0 0.0
0.016557866452136333 -0.0068967738056122845 0.0 0.004876427738672973 0.0 0.0
0.013609260130656402 -0.005747957290660701 0.0 0.003918454331878517 0.0 0.0
0.00921233812640035 -0.003686449007966817 0.0 0.0013916018596134762 0.0 0.0
0.008971312512078597 0.0024295504289211416 0.0 0.00989797772835994 0.0 0.0
0.01180937175064017 -0.05231886136148335 0.0 0.01390932039241116 0.0 0.0
0.009380613748326078 -0.04464503089499206 0.0 -0.017364154478342685 0.0 0.0
0.006316381906030303 -0.00015351790183237485 0.0 -0.01355499131779755 0.0 0.0
0.006200337145885084 -0.0014487600776987837 0.0 -0.00412438727008493 0.0 0.0
0.010956183155241146 -0.004522303526631454 0.0 -0.005664508913491718 0.0 0.0
0.014293642790632794 -0.005911227944092165 0.0 -0.007254141096915868 0.0 0.0
0.017486312856145922 -0.007399381760079782 0.0 -0.008067982371848113 0.0 0.0
0.020854228685137057 -0.008903765478689808 0.0 -0.008473587914618722 0.0 0.0
0.02428589415837456 -0.01039730111994546 0.0 -0.008622360444500154 0.0 0.0
0.027746978708830104 -0.011890764400498794 0.0 -0.008666350935147116 0.0 0.0
0.031217101743997666 -0.013380249657395335 0.0 -0.00866954434373451 0.0 0.0
0.03468810914596766 -0.014867847945750922 0.0 -0.008663113509657405 0.0 0.0
0.038158687502459425 -0.016354035468099642 0.0 -0.008659725613105393 0.0 0.0
0.041630795593702 -0.01783886165283051 0.0 -0.008670185981102512 0.0 0.0
0.04511036746311218 -0.019322245657999348 0.0 -0.00871386576720012 0.0 0.0
0.04860970074482985 -0.020806462613397886 0.0 -0.008822548434129345 0.0 0.0
0.05214829219865283 -0.022302535079814265 0.0 -0.009020725935762091 0.0 0.0
0.05573943712596886 -0.02383948584022619 0.0 -0.009245547548458017 0.0 0.0
0.05933517025307408 -0.025460283295347396 0.0 -0.009176893178897057 0.0 0.0
0.06270202839343496 -0.027159139158096996 0.0 -0.008070617366931168 0.0 0.0
0.06527749568328245 -0.028697389972009636 0.0 -0.00500107908211285 0.0 0.0
0.06627264342363806 -0.02940939348957536 0.0 1.734723475976807e-16 0.0 0.0
0.06527749568328227 -0.02869738997200781 0.0 0.0050010790821135055 0.0 0.0
0.06270202839343496 -0.02715913915809348 0.0 0.008070617366931222 0.0 0.0
0.059335170253073916 -0.02546028329534485 0.0 0.009176893178895692 0.0 0.0
0.05573943712596914 -0.023839485840227628 0.0 0.009245547548456946 0.0 0.0
0.052148292198653155 -0.022302535079815923 0.0 0.009020725935761666 0.0 0.0
0.04860970074482988 -0.020806462613396685 0.0 0.008822548434130112 0.0 0.0
0.045110367463112054 -0.019322245657997523 0.0 0.008713865767200337 0.0 0.0
0.0416307955937017 -0.017838861652831 0.0 0.00867018598110263 0.0 0.0
0.03815868750245945 -0.016354035468101234 0.0 0.008659725613105594 0.0 0.0
0.03468810914596769 -0.014867847945753649 0.0 0.008663113509656982 0.0 0.0
0.03121710174399754 -0.013380249657395574 0.0 0.008669544343734181 0.0 0.0
0.02774697870883002 -0.011890764400498736 0.0 0.008666350935147138 0.0 0.0
0.02428589415837454 -0.010397301119944956 0.0 0.008622360444500527 0.0 0.0
0.020854228685137182 -0.008903765478687698 0.0 0.008473587914618046 0.0 0.0
0.01748631285614598 -0.007399381760080075 0.0 0.008067982371847986 0.0 0.0
0.014293642790632798 -0.0059112279440928905 0.0 0.007254141096915688 0.0 0.0
0.010956183155241404 -0.004522303526631827 0.0 0.0056645089134908806 0.0 0.0
0.0062003371458852295 -0.0014487600776985716 0.0 0.004124387270085487 0.0 0.0
0.006316381906030213 -0.00015351790183232208 0.0 0.0135549913177971 0.0 0.0
0.009380613748326041 -0.044645030894992103 0.0 0.017364154478342806 0.0 0.0
0.007917443050823102 -0.03797718832115553 0.0 -0.01776044656813571 0.0 0.0
0.00481768337632433 -0.0023792322397969325 0.0 -0.01602852652271353 0.0 0.0
0.0040826821717764115 -0.000241869871197245 0.0 -0.00781502882138218 0.0 0.0
0.008451122387540772 -0.003197919353681956 0.0 -0.007729666902675474 0.0 0.0
0.011943036573795878 -0.004864940697267733 0.0 -0.009375767631071697 0.0 0.0
0.014900882894803489 -0.006251816750609761 0.0 -0.010281999635840948 0.0 0.0
0.017851672742049247 -0.007601820942282744 0.0 -0.010734537866754365 0.0 0.0
0.020817082227084956 -0.00890701796966539 0.0 -0.010913721696543276 0.0 0.0
0.023787971686871506 -0.010193492110340267 0.0 -0.010966025403218824 0.0 0.0
0.026761647186965838 -0.011471446943776838 0.0 -0.010971599335319188 0.0 0.0
0.029735621407350053 -0.012745956821804936 0.0 -0.010964975377400045 0.0 0.0
0.03270946436080519 -0.014018798627973197 0.0 -0.010961701994285894 0.0 0.0
0.03568340033445409 -0.015288843024956575 0.0 -0.01097433433632042 0.0 0.0
0.038658448077498214 -0.016552844181262696 0.0 -0.011024892655825423 0.0 0.0
0.04163822007173954 -0.017807926036620195 0.0 -0.011149113857281097 0.0 0.0
0.044633076915074066 -0.019061778136490713 0.0 -0.011374352399463002 0.0 0.0
0.0476607377003496 -0.020354872664615373 0.0 -0.011626325799634874 0.0 0.0
0.050716157838289734 -0.02177832118929677 0.0 -0.011521918672620694 0.0 0.0
0.053656369291530365 -0.023415278988024212 0.0 -0.010146047495299595 0.0 0.0
0.05599763710203195 -0.025072750702241315 0.0 -0.006311913134447998 0.0 0.0
0.056929537722180554 -0.025911304598193203 0.0 -5.5012418231914495e-16 0.0 0.0
0.05599763710203165 -0.02507275070223601 0.0 0.006311913134447565 0.0 0.0
0.05365636929153018 -0.023415278988019546 0.0 0.010146047495300174 0.0 0.0
0.05071615783828979 -0.021778321189301137 0.0 0.011521918672619886 0.0 0.0
0.04766073770034973 -0.02035487266461373 0.0 0.01162632579963631 0.0 0.0
0.04463307691507398 -0.01906177813649195 0.0 0.011374352399464684 0.0 0.0
0.04163822007173944 -0.01780792603661822 0.0 0.011149113857281701 0.0 0.0
0.0386584480774981 -0.016552844181263893 0.0 0.011024892655825094 0.0 0.0
0.03568340033445384 -0.015288843024957349 0.0 0.010974334336319638 0.0 0.0
0.03270946436080527 -0.01401879862797645 0.0 0.010961701994285939 0.0 0.0
0.029735621407350067 -0.012745956821806282 0.0 0.010964975377400961 0.0 0.0
0.026761647186965633 -0.01147144694377458 0.0 0.01097159933531918 0.0 0.0
0.0237879716868714 -0.01019349211034025 0.0 0.010966025403218409 0.0 0.0
0.020817082227085025 -0.00890701796966181 0.0 0.01091372169654451 0.0 0.0
0.017851672742049348 -0.0076018209422827 0.0 0.010734537866753808 0.0 0.0
0.014900882894803489 -0.0062518167506105705 0.0 0.010281999635840502 0.0 0.0
0.0119430365737959 -0.004864940697266377 0.0 0.009375767631071693 0.0 0.0
0.008451122387540826 -0.0031979193536824805 0.0 0.007729666902675266 0.0 0.0
0.004082682171776383 -0.00024186987119732573 0.0 0.007815028821381966 0.0 0.0
0.004817683376324326 -0.002379232239796916 0.0 0.016028526522712746 0.0 0.0
0.007917443050823193 -0.0379771883211556 0.0 0.017760446568136315 0.0 0.0
0.006880222585672238 -0.03221027957568663 0.0 -0.016944119273806037 0.0 0.0
0.0038938687785690035 -0.003994112522294379 0.0 -0.017490391785934298 0.0 0.0
0.0025854397347952925 0.0002926773333776103 0.0 -0.011385656465392678 0.0 0.0
0.006207494372109053 -0.0020009962012533327 0.0 -0.0100382830644858 0.0 0.0
0.009581629014795832 -0.003778256344665291 0.0 -0.01130200660945551 0.0 0.0
0.01229801438604102 -0.0051006416306291135 0.0 -0.01220951070114077 0.0 0.0
0.014841819294196732 -0.00629424820492065 0.0 -0.012664853928520962 0.0 0.0
0.01734337096318499 -0.007413739706823826 0.0 -0.012853906592070776 0.0 0.0
0.019827225583549574 -0.008495479109052597 0.0 -0.012910942574251124 0.0 0.0
0.022305635376853407 -0.009562348889467852 0.0 -0.01291816284711575 0.0 0.0
0.024782895850727737 -0.010624009221598 0.0 -0.012912214162753793 0.0 0.0
0.02725979297610907 -0.01168334130556362 0.0 -0.012909412694120308 0.0 0.0
0.02973489409518039 -0.012738193316878851 0.0 -0.01292295491754987 0.0 0.0
0.032204449588058764 -0.013782129636701354 0.0 -0.012975186824032443 0.0 0.0
0.03466401095047941 -0.01480729145181853 0.0 -0.013102411130438156 0.0 0.0
0.03711702936485668 -0.01581886766093835 0.0 -0.013333728397790966 0.0 0.0
0.03959179700667269 -0.016872177751698962 0.0 -0.01359417085709634 0.0 0.0
0.042138299727638426 -0.018116173789929486 0.0 -0.013470616215334718 0.0 0.0
0.04471585716376478 -0.01973962197813422 0.0 -0.011918589515249444 0.0 0.0
0.046905753001108066 -0.021601337014908156 0.0 -0.0074785415046621315 0.0 0.0
0.047816057095059795 -0.02263032656696561 0.0 1.227316859253591e-16 0.0 0.0
0.04690575300110786 -0.021601337014904635 0.0 0.0074785415046625305 0.0 0.0
0.04471585716376457 -0.019739621978134884 0.0 0.01191858951524986 0.0 0.0
0.042138299727638294 -0.018116173789932345 0.0 0.01347061621533327 0.0 0.0
0.039591797006672785 -0.016872177751693865 0.0 0.013594170857095501 0.0 0.0
0.0371170293648566 -0.015818867660940275 0.0 0.013333728397790352 0.0 0.0
0.03466401095047923 -0.014807291451818291 0.0 0.013102411130439005 0.0 0.0
0.03220444958805879 -0.013782129636703718 0.0 0.012975186824032543 0.0 0.0
0.029734894095180563 -0.012738193316879073 0.0 0.012922954917550043 0.0 0.0
0.027259792976109393 -0.0116833413055656 0.0 0.012909412694120569 0.0 0.0
0.024782895850727783 -0.010624009221597683 0.0 0.012912214162753545 0.0 0.0
0.022305635376853275 -0.009562348889465368 0.0 0.012918162847115314 0.0 0.0
0.019827225583549563 -0.00849547910905067 0.0 0.012910942574251344 0.0 0.0
0.01734337096318507 -0.0074137397068236455 0.0 0.01285390659207161 0.0 0.0
0.014841819294196652 -0.006294248204922651 0.0 0.012664853928519269 0.0 0.0
0.012298014386040888 -0.005100641630628796 0.0 0.012209510701140217 0.0 0.0
0.009581629014795805 -0.003778256344663531 0.0 0.011302006609455227 0.0 0.0
0.006207494372108923 -0.0020009962012537135 0.0 0.01003828306448607 0.0 0.0
0.0025854397347952647 0.00029267733337787406 0.0 0.011385656465392214 0.0 0.0
0.0038938687785690616 -0.003994112522294494 0.0 0.01749039178593496 0.0 0.0
0.006880222585672181 -0.032210279575686604 0.0 0.016944119273806072 0.0 0.0
0.0060303707287639435 -0.027214685758799484 0.0 -0.01570969739922777 0.0 0.0
0.0032446405953965697 -0.005002904261762929 0.0 -0.018196126980367048 0.0 0.0
0.0014908321261897979 0.0004480126573480651 0.0 -0.014400441781743614 0.0 0.0
0.004236036207806974 -0.0010011212596033937 0.0 -0.012350572080580394 0.0 0.0
0.007268381239564869 -0.0026989175793697036 0.0 -0.013055704487922426 0.0 0.0
0.009691519370186101 -0.003947882481576917 0.0 -0.013844640719624969 0.0 0.0
0.011829003398714214 -0.004986310767211113 0.0 -0.014266265629782393 0.0 0.0
0.01386691820391349 -0.0059187170889101574 0.0 -0.014445363995193795 0.0 0.0
0.015864881410239964 -0.0067967460105613844 0.0 -0.014501670468538105 0.0 0.0
0.017848919082067503 -0.007652882871143693 0.0 -0.014509698535941855 0.0 0.0
0.01982975443895682 -0.008501842012781131 0.0 -0.014504816779898441 0.0 0.0
0.021809674101577005 -0.009347659225450115 0.0 -0.01450264853980163 0.0 0.0
0.023785775902572057 -0.010187260789958828 0.0 -0.01451565238496538 0.0 0.0
0.025749989210960847 -0.01101129748591567 0.0 -0.014564420689660181 0.0 0.0
0.027690594074105068 -0.011807281929961694 0.0 -0.014682869175704903 0.0 0.0
0.029605364193012317 -0.012578021282447716 0.0 -0.014901614120209194 0.0 0.0
0.031535941045000536 -0.013394132976613852 0.0 -0.015157935192116292 0.0 0.0
0.03359489646108463 -0.014467509113496774 0.0 -0.015045645540038566 0.0 0.0
0.03585653666184047 -0.01610983300741869 0.0 -0.013431326929695852 0.0 0.0
0.03796403955662304 -0.01825324791181434 0.0 -0.008547433606030178 0.0 0.0
0.03889022264212536 -0.019546079174264566 0.0 3.3285006695304986e-16 0.0 0.0
0.03796403955662306 -0.018253247911817108 0.0 0.008547433606030747 0.0 0.0
0.03585653666184042 -0.016109833007416606 0.0 0.013431326929695838 0.0 0.0
0.03359489646108457 -0.01446750911349546 0.0 0.015045645540039496 0.0 0.0
0.031535941045000626 -0.0133941329766125 0.0 0.015157935192115769 0.0 0.0
0.029605364193012296 -0.012578021282448601 0.0 0.014901614120209173 0.0 0.0
0.027690594074104926 -0.011807281929962965 0.0 0.014682869175706308 0.0 0.0
0.0257499892109608 -0.011011297485917781 0.0 0.014564420689659689 0.0 0.0
0.023785775902572054 -0.010187260789957193 0.0 0.01451565238496549 0.0 0.0
0.021809674101576915 -0.00934765922545043 0.0 0.014502648539800433 0.0 0.0
0.019829754438956813 -0.008501842012781716 0.0 0.014504816779898486 0.0 0.0
0.01784891908206746 -0.007652882871143785 0.0 0.014509698535942722 0.0 0.0
0.01586488141023992 -0.006796746010559192 0.0 0.014501670468538095 0.0 0.0
0.013866918203913402 -0.005918717088911695 0.0 0.014445363995193933 0.0 0.0
0.011829003398714068 -0.004986310767210617 0.0 0.014266265629780759 0.0 0.0
0.00969151937018605 -0.003947882481576007 0.0 0.013844640719625316 0.0 0.0
0.007268381239564967 -0.002698917579370396 0.0 0.013055704487922232 0.0 0.0
0.0042360362078072466 -0.0010011212596039718 0.0 0.012350572080580957 0.0 0.0
0.0014908321261898755 0.0004480126573481613 0.0 0.01440044178174369 0.0 0.0
0.0032446405953966417 -0.0050029042617629515 0.0 0.01819612698036815 0.0 0.0
0.0060303707287641985 -0.02721468575879954 0.0 0.015709697399227465 0.0 0.0
0.0052618287594528995 -0.02286323271499777 0.0 -0.014392367809005178 0.0 0.0
0.002714766230399394 -0.005497687614299035 0.0 -0.018356847786966494 0.0 0.0
0.0006430843053368605 0.00042643190506058335 0.0 -0.016722312266493056 0.0 0.0
0.002503472224255669 -0.00019228155694335595 0.0 -0.014456065927884537 0.0 0.0
0.005036997398877193 -0.0016638785255395144 0.0 -0.014608391975087402 0.0 0.0
0.00709760897981789 -0.00280164756530689 0.0 -0.015185580146943337 0.0 0.0
0.008817487039782149 -0.003681046119631331 0.0 -0.01553641813588751 0.0 0.0
0.010389587886575697 -0.004423586293021775 0.0 -0.01568920703512252 0.0 0.0
0.011901314433301809 -0.005097433896203863 0.0 -0.015738735227207905 0.0 0.0
0.013391393877505093 -0.005742984464515316 0.0 -0.01574650889100832 0.0 0.0
0.014876074093185507 -0.006379351571050197 0.0 -0.015742858438591634 0.0 0.0
0.01635914153291223 -0.007011768044640791 0.0 -0.015741317708672046 0.0 0.0
0.017836529352057744 -0.007636393936533039 0.0 -0.015752374345224477 0.0 0.0
0.019296544251378996 -0.008241447227432195 0.0 -0.015793059800859707 0.0 0.0
0.020721124494709548 -0.008810357324916834 0.0 -0.0158923185936981 0.0 0.0
0.02210258851909368 -0.009342972875771599 0.0 -0.016081986635425233 0.0 0.0
0.023495200471118104 -0.009922529084639505 0.0 -0.016324612369786936 0.0 0.0
0.025077252760222754 -0.01082405387877664 0.0 -0.01626102768059013 0.0 0.0
0.027053191305703474 -0.012501071464771044 0.0 -0.014714035347020713 0.0 0.0
0.02913750747597163 -0.014999898787055314 0.0 -0.009557639368133366 0.0 0.0
0.030115892928668675 -0.01664793406657179 0.0 -1.474514954580286e-16 0.0 0.0
0.029137507475971713 -0.014999898787055418 0.0 0.009557639368132774 0.0 0.0
0.02705319130570334 -0.012501071464765806 0.0 0.01471403534702109 0.0 0.0
0.025077252760222855 -0.010824053878780325 0.0 0.016261027680589547 0.0 0.0
0.023495200471117847 -0.0099225290846394 0.0 0.016324612369784705 0.0 0.0
0.022102588519093337 -0.00934297287576907 0.0 0.01608198663542463 0.0 0.0
0.020721124494709416 -0.008810357324919537 0.0 0.015892318593698978 0.0 0.0
0.01929654425137902 -0.008241447227431415 0.0 0.015793059800860643 0.0 0.0
0.01783652935205802 -0.007636393936533309 0.0 0.015752374345224703 0.0 0.0
0.01635914153291242 -0.007011768044642558 0.0 0.015741317708671782 0.0 0.0
0.014876074093185743 -0.006379351571050165 0.0 0.015742858438592033 0.0 0.0
0.013391393877505212 -0.005742984464517795 0.0 0.015746508891008256 0.0 0.0
0.011901314433301644 -0.005097433896201991 0.0 0.015738735227208037 0.0 0.0
0.010389587886575445 -0.004423586293021626 0.0 0.015689207035122055 0.0 0.0
0.008817487039782133 -0.0036810461196292053 0.0 0.015536418135886639 0.0 0.0
0.007097608979817984 -0.002801647565306456 0.0 0.01518558014694378 0.0 0.0
0.00503699739887729 -0.0016638785255396753 0.0 0.014608391975087343 0.0 0.0
0.002503472224255791 -0.00019228155694333567 0.0 0.014456065927883708 0.0 0.0
0.0006430843053367171 0.0004264319050609585 0.0 0.016722312266492425 0.0 0.0
0.002714766230399184 -0.005497687614298697 0.0 0.018356847786966113 0.0 0.0
0.005261828759452682 -0.02286323271499796 0.0 0.014392367809005486 0.0 0.0
0.00452930274602905 -0.019045690537952804 0.0 -0.013119995137855965 0.0 0.0
0.002225857247488031 -0.005588837656821269 0.0 -0.01812140908748178 0.0 0.0
-6.324784418418428e-05 0.00035510633929245177 0.0 -0.01834647172714752 0.0 0.0
0.0009628016509489609 0.00046114471006340654 0.0 -0.016210727040868123 0.0 0.0
0.0029004331941781445 -0.000692559010046549 0.0 -0.015907990662541092 0.0 0.0
0.004529865721720096 -0.0016716840416879856 0.0 -0.016224589627359925 0.0 0.0
0.005811716434536441 -0.002381083803080814 0.0 -0.016471943463590936 0.0 0.0
0.006912905267775721 -0.0029296521218319465 0.0 -0.01658500833572878 0.0 0.0
0.00793694603082737 -0.0033978183875480188 0.0 -0.016622484186267453 0.0 0.0
0.008933016232203324 -0.0038326023154813616 0.0 -0.016628825447894173 0.0 0.0
0.00992176790133364 -0.004256469877877098 0.0 -0.01662644927593038 0.0 0.0
0.01090824392352496 -0.004675696885995771 0.0 -0.01662544953584565 0.0 0.0
0.011887572127797794 -0.00508589925269279 0.0 -0.01663336119736348 0.0 0.0
0.012845351181530702 -0.005473496574179173 0.0 -0.016662238287860783 0.0 0.0
0.01375829863043455 -0.00581860525785393 0.0 -0.016733812835659084 0.0 0.0
0.014612690710750654 -0.006117079066527513 0.0 -0.016879942097682277 0.0 0.0
0.015471159144255148 -0.006458982963623152 0.0 -0.01709922821155244 0.0 0.0
0.01657589968956375 -0.007176899816377709 0.0 -0.01712179180326941 0.0 0.0
0.018279566566099806 -0.008886123068128639 0.0 -0.015783746973985293 0.0 0.0
0.020392694794262124 -0.011812000442593163 0.0 -0.010543844049284419 0.0 0.0
0.021460925722950032 -0.013934950572320158 0.0 5.178149575790769e-16 0.0 0.0
0.020392694794262117 -0.011812000442592637 0.0 0.010543844049284882 0.0 0.0
0.018279566566099685 -0.00888612306812793 0.0 0.01578374697398515 0.0 0.0
0.01657589968956368 -0.00717689981638003 0.0 0.017121791803269924 0.0 0.0
0.01547115914425519 -0.006458982963624505 0.0 0.017099228211553283 0.0 0.0
0.014612690710750671 -0.0061170790665255525 0.0 0.016879942097682857 0.0 0.0
0.013758298630434648 -0.005818605257853622 0.0 0.016733812835658883 0.0 0.0
0.012845351181530499 -0.0054734965741759485 0.0 0.016662238287860807 0.0 0.0
0.011887572127797801 -0.005085899252694335 0.0 0.016633361197363424 0.0 0.0
0.010908243923525018 -0.004675696885997732 0.0 0.01662544953584487 0.0 0.0
0.00992176790133348 -0.004256469877875611 0.0 0.016626449275929916 0.0 0.0
0.008933016232203382 -0.0038326023154818386 0.0 0.01662882544789423 0.0 0.0
0.007936946030827511 -0.0033978183875476853 0.0 0.016622484186266644 0.0 0.0
0.006912905267775546 -0.0029296521218299147 0.0 0.016585008335727812 0.0 0.0
0.005811716434536356 -0.0023810838030796796 0.0 0.01647194346359035 0.0 0.0
0.004529865721720273 -0.0016716840416871933 0.0 0.016224589627360616 0.0 0.0
0.0029004331941782585 -0.0006925590100467782 0.0 0.015907990662541442 0.0 0.0
0.0009628016509489718 0.00046114471006466714 0.0 0.016210727040866818 0.0 0.0
-6.324784418433211e-05 0.0003551063392928449 0.0 0.0183464717271473 0.0 0.0
0.0022258572474879667 -0.005588837656821163 0.0 0.018121409087481284 0.0 0.0
0.004529302746029154 -0.01904569053795266 0.0 0.013119995137856036 0.0 0.0
0.0038161209466575545 -0.015674030201558223 0.0 -0.011926204315698574 0.0 0.0
0.0017408358895382493 -0.00537881841713937 0.0 -0.017586759961122356 0.0 0.0
-0.0006967408967486603 0.0003076128163591415 0.0 -0.01932043221294723 0.0 0.0
-0.0004324407267938189 0.001001232890816554 0.0 -0.01752940418710605 0.0 0.0
0.0008578458688151245 0.00020986726174677332 0.0 -0.016899681624992485 0.0 0.0
0.0019971414537568234 -0.0005658449409187971 0.0 -0.016946987201115035 0.0 0.0
0.002815682188572433 -0.001088948028613301 0.0 -0.017068306081807913 0.0 0.0
0.003438112054222581 -0.0014378433480968583 0.0 -0.017131416974228673 0.0 0.0
0.003972128258841809 -0.0016981719408826746 0.0 -0.017152950344901434 0.0 0.0
0.00447378427162025 -0.0019217159691908622 0.0 -0.017156848313445994 0.0 0.0
0.004966779107784921 -0.002133150213191684 0.0 -0.01715572017223024 0.0 0.0
0.005457026985790419 -0.0023394767020758983 0.0 -0.01715517204795836 0.0 0.0
0.005939218022327486 -0.0025360120081630555 0.0 -0.01715908381134098 0.0 0.0
0.006397320606907289 -0.0027081133953556066 0.0 -0.01717359510724719 0.0 0.0
0.0068042484673303295 -0.002833624951653817 0.0 -0.017211429633726964 0.0 0.0
0.007139282543126487 -0.0029033691524637285 0.0 -0.017301816551652104 0.0 0.0
0.0074657975278993455 -0.0030057024814022643 0.0 -0.017485347171447167 0.0 0.0
0.008081846780673214 -0.003517914191398156 0.0 -0.01762387269618955 0.0 0.0
0.009508479416490892 -0.005235412964329821 0.0 -0.016644059744202 0.0 0.0
0.011696376655140613 -0.008657049074385827 0.0 -0.011538279278595976 0.0 0.0
0.012895576158679223 -0.011416887966789779 0.0 7.502679033599691e-17 0.0 0.0
0.011696376655140794 -0.00865704907438589 0.0 0.011538279278595902 0.0 0.0
0.009508479416490979 -0.005235412964332106 0.0 0.01664405974420183 0.0 0.0
0.008081846780672813 -0.0035179141913942733 0.0 0.017623872696189778 0.0 0.0
0.007465797527899226 -0.0030057024814023887 0.0 0.017485347171446983 0.0 0.0
0.007139282543126503 -0.0029033691524642156 0.0 0.01730181655165316 0.0 0.0
0.006804248467330255 -0.002833624951652604 0.0 0.017211429633726946 0.0 0.0
0.006397320606907263 -0.002708113395354564 0.0 0.017173595107247305 0.0 0.0
0.005939218022327552 -0.0025360120081636844 0.0 0.0171590838113407 0.0 0.0
0.005457026985790555 -0.00233947670207494 0.0 0.01715517204795728 0.0 0.0
0.004966779107784955 -0.002133150213190866 0.0 0.017155720172229372 0.0 0.0
0.004473784271620332 -0.0019217159691908405 0.0 0.017156848313446903 0.0 0.0
0.003972128258841942 -0.0016981719408860627 0.0 0.017152950344901174 0.0 0.0
0.0034381120542225007 -0.0014378433480933073 0.0 0.01713141697422919 0.0 0.0
0.0028156821885723902 -0.001088948028613369 0.0 0.017068306081808312 0.0 0.0
0.0019971414537568026 -0.0005658449409181702 0.0 0.016946987201115694 0.0 0.0
0.0008578458688151551 0.0002098672617458172 0.0 0.01689968162499208 0.0 0.0
-0.0004324407267935866 0.0010012328908164689 0.0 0.017529404187104514 0.0 0.0
-0.000696740896748598 0.0003076128163588632 0.0 0.019320432212946426 0.0 0.0
0.0017408358895382144 -0.005378818417139242 0.0 0.01758675996112253 0.0 0.0
0.003816120946657524 -0.01567403020155818 0.0 0.011926204315697984 0.0 0.0
0.003119310540190672 -0.012682621400430895 0.0 -0.010803069638997648 0.0 0.0
0.0012449857518506682 -0.004954056447107721 0.0 -0.01681238013979085 0.0 0.0
-0.001300155446663172 0.0003219101083811765 0.0 -0.019706668745135922 0.0 0.0
-0.001722299636857251 0.0014661223006921943 0.0 -0.018369191880041165 0.0 0.0
-0.0010994783347153506 0.0010473463623838742 0.0 -0.01753603972150036 0.0 0.0
-0.0004966162927253642 0.0005113794178886171 0.0 -0.017333873789150134 0.0 0.0
-0.0001677581389104836 0.000193330540602676 0.0 -0.017319511501026136 0.0 0.0
-3.387807921076061e-05 5.12295225100155e-05 0.0 -0.017326558671206447 0.0 0.0
7.098087198517428e-06 1.3189429776540946e-06 0.0 -0.017329907582860973 0.0 0.0
1.3710751906793395e-05 -1.03261861969415e-05 0.0 -0.01733074249725834 0.0 0.0
1.1076252278697661e-05 -9.364272177692155e-06 0.0 -0.017330820188847566 0.0 0.0
5.520882207518045e-06 -3.1285704446416926e-06 0.0 -0.017330680718357507 0.0 0.0
-8.3470993550419e-06 1.3122022353211148e-05 0.0 -0.017330170836402536 0.0 0.0
-4.702581611699616e-05 5.432602294283274e-05 0.0 -0.017329083168980217 0.0 0.0
-0.00013959098440811198 0.00014359903104807682 0.0 -0.01733000927471463 0.0 0.0
-0.00031437382082517775 0.00029553126647233885 0.0 -0.0173554541082907 0.0 0.0
-0.0005177038814121369 0.00043382510387227215 0.0 -0.017486295754286535 0.0 0.0
-0.0004119644885646869 0.00015856309670594232 0.0 -0.017754410063366304 0.0 0.0
0.000712003209123484 -0.0015172035333433484 0.0 -0.01728296020165048 0.0 0.0
0.0030141623420580238 -0.005495954931202678 0.0 -0.01257154941158946 0.0 0.0
0.004390845320981949 -0.009116340863090962 0.0 9.467253370143425e-16 0.0 0.0
0.003014162342058223 -0.0054959549312012 0.0 0.01257154941158923 0.0 0.0
0.0007120032091237652 -0.0015172035333444643 0.0 0.017282960201649603 0.0 0.0
-0.00041196448856478554 0.00015856309670994546 0.0 0.017754410063366054 0.0 0.0
-0.0005177038814121143 0.0004338251038729322 0.0 0.017486295754287607 0.0 0.0
-0.0003143738208252194 0.0002955312664775929 0.0 0.017355454108291184 0.0 0.0
-0.00013959098440817735 0.0001435990310480928 0.0 0.017330009274714855 0.0 0.0
-4.702581611707986e-05 5.4326022943964594e-05 0.0 0.017329083168980568 0.0 0.0
-8.34709935529452e-06 1.312202235405875e-05 0.0 0.0173301708364014 0.0 0.0
5.520882207362028e-06 -3.1285704442896793e-06 0.0 0.01733068071835705 0.0 0.0
1.1076252278748077e-05 -9.364272177784583e-06 0.0 0.017330820188846956 0.0 0.0
1.3710751906887667e-05 -1.0326186195432657e-05 0.0 0.01733074249725871 0.0 0.0
7.098087198559658e-06 1.3189429753792894e-06 0.0 0.017329907582861476 0.0 0.0
-3.3878079210944597e-05 5.1229522509149195e-05 0.0 0.017326558671205885 0.0 0.0
-0.00016775813891067984 0.00019333054060067224 0.0 0.01731951150102621 0.0 0.0
-0.000496616292725375 0.0005113794178880638 0.0 0.0173338737891495 0.0 0.0
-0.0010994783347155093 0.0010473463623834152 0.0 0.017536039721500293 0.0 0.0
-0.0017222996368573672 0.0014661223006913273 0.0 0.018369191880040124 0.0 0.0
-0.0013001554466630992 0.00032191010838104525 0.0 0.01970666874513496 0.0 0.0
0.0012449857518505758 -0.004954056447107532 0.0 0.016812380139790112 0.0 0.0
0.0031193105401903167 -0.01268262140043109 0.0 0.010803069638996824 0.0 0.0
0.0024425624271438105 -0.010026171471488321 0.0 -0.00972622579904054 0.0 0.0
0.0007357731857708665 -0.004384195033020254 0.0 -0.015832596090495043 0.0 0.0
-0.0018984777597670119 0.0004132869377923244 0.0 -0.01956618242666421 0.0 0.0
-0.0029386211168554045 0.0018861952645680968 0.0 -0.018714164930875316 0.0 0.0
-0.0029839436334170998 0.0018286374036245692 0.0 -0.0177800712097062 0.0 0.0
-0.002951648280958591 0.0015589643721345928 0.0 -0.017365219050167538 0.0 0.0
-0.0031372886671895976 0.0014646536346639366 0.0 -0.01721840602776924 0.0 0.0
-0.0035025854795497887 0.001537276849603533 0.0 -0.01716825907597473 0.0 0.0
-0.0039580399465874464 0.0017005792665389574 0.0 -0.017152992940956676 0.0 0.0
-0.004447194206358484 0.0019015606369478725 0.0 -0.01715064389451977 0.0 0.0
-0.004945351690736009 0.002114898459437135 0.0 -0.017151909123842367 0.0 0.0
-0.005446267495337295 0.0023333440613775877 0.0 -0.017152203120865107 0.0 0.0
-0.005955074785272446 0.0025614568449749756 0.0 -0.017147331892078174 0.0 0.0
-0.006487586046079507 0.002813743862300615 0.0 -0.017130772688626162 0.0 0.0
-0.0070726403057798405 0.0031128152337198543 0.0 -0.01709478173247198 0.0 0.0
-0.007745535628645871 0.003477677983061667 0.0 -0.017050459344620603 0.0 0.0
-0.00847427991811779 0.0038543596972578633 0.0 -0.01710722953618539 0.0 0.0
-0.008908808754855557 0.0038535343297305203 0.0 -0.017492923470520873 0.0 0.0
-0.008138018965802919 0.002301579151612689 0.0 -0.01766884310503483 0.0 0.0
-0.005691146788961323 -0.0022782730192341906 0.0 -0.013671957989734662 0.0 0.0
-0.0040835723054655345 -0.007072156228697784 0.0 -4.631711680858075e-16 0.0 0.0
-0.005691146788961368 -0.002278273019232105 0.0 0.013671957989734217 0.0 0.0
-0.008138018965803009 0.0023015791516106626 0.0 0.017668843105034592 0.0 0.0
-0.008908808754855595 0.0038535343297326895 0.0 0.017492923470520342 0.0 0.0
-0.008474279918117725 0.0038543596972547053 0.0 0.017107229536184255 0.0 0.0
-0.007745535628645998 0.003477677983066558 0.0 0.01705045934461929 0.0 0.0
-0.007072640305779839 0.003112815233722237 0.0 0.01709478173247044 0.0 0.0
-0.006487586046079536 0.002813743862300217 0.0 0.017130772688626342 0.0 0.0
-0.005955074785272487 0.00256145684497913 0.0 0.017147331892077983 0.0 0.0
-0.005446267495337217 0.0023333440613759167 0.0 0.017152203120864944 0.0 0.0
-0.004945351690735943 0.0021148984594366606 0.0 0.017151909123843317 0.0 0.0
-0.004447194206358378 0.0019015606369484493 0.0 0.017150643894518997 0.0 0.0
-0.003958039946587319 0.0017005792665396634 0.0 0.017152992940956572 0.0 0.0
-0.0035025854795497965 0.0015372768496028262 0.0 0.017168259075973174 0.0 0.0
-0.0031372886671896124 0.001464653634662033 0.0 0.017218406027770243 0.0 0.0
-0.002951648280958471 0.0015589643721341188 0.0 0.017365219050167018 0.0 0.0
-0.002983943633417067 0.001828637403625015 0.0 0.01778007120970647 0.0 0.0
-0.0029386211168554006 0.001886195264568436 0.0 0.018714164930875087 0.0 0.0
-0.0018984777597671272 0.00041328693779231604 0.0 0.019566182426664268 0.0 0.0
0.0007357731857706334 -0.004384195033020324 0.0 0.01583259609049433 0.0 0.0
0.00244256242714368 -0.010026171471488307 0.0 0.009726225799040434 0.0 0.0
0.0017929858110657193 -0.007676931040766239 0.0 -0.008667060146866436 0.0 0.0
0.00021749152104724235 -0.003724081400419377 0.0 -0.014665910001797414 0.0 0.0
-0.0025043507493158097 0.0005829562794961216 0.0 -0.018952100398256035 0.0 0.0
-0.004105128165500026 0.002283391331338649 0.0 -0.01856367467357664 0.0 0.0
-0.004809041885193023 0.0025643877817108367 0.0 -0.017604569146586518 0.0 0.0
-0.005371437959197031 0.0025788430094180843 0.0 -0.017022126044990794 0.0 0.0
-0.006093260539540692 0.0027251085465993864 0.0 -0.016757392898122427 0.0 0.0
-0.006968059225387643 0.0030203713184985908 0.0 -0.016654253196755196 0.0 0.0
-0.007923321250166938 0.0033996448504497933 0.0 -0.016621826429233492 0.0 0.0
-0.0089089284000578 0.0038139405319534804 0.0 -0.01661668087904204 0.0 0.0
-0.009902497364089812 0.004239630635791395 0.0 -0.01661914804964842 0.0 0.0
-0.010898358002493306 0.00466995765354313 0.0 -0.016619959518288707 0.0 0.0
-0.011901052373260987 0.005109053523608781 0.0 -0.016611276631689976 0.0 0.0
-0.012924663233900307 0.005570330597752012 0.0 -0.01658068458502905 0.0 0.0
-0.0139953312186561 0.006074564491266787 0.0 -0.016510865555256764 0.0 0.0
-0.015152435080568287 0.006642343518820169 0.0 -0.016398128086911275 0.0 0.0
-0.0163965904830428 0.007248920244243883 0.0 -0.016358101820187865 0.0 0.0
-0.01740570704958284 0.007560490313186575 0.0 -0.01681436013943767 0.0 0.0
-0.017068710338771064 0.0062531190544511065 0.0 -0.017744380625254883 0.0 0.0
-0.014461581646682032 0.0010647316223769644 0.0 -0.014862154648185516 0.0 0.0
-0.012562287891635531 -0.0053443163305138455 0.0 6.643990912991171e-16 0.0 0.0
-0.014461581646681987 0.001064731622380766 0.0 0.014862154648186132 0.0 0.0
-0.017068710338770866 0.006253119054447238 0.0 0.017744380625255567 0.0 0.0
-0.017405707049582983 0.007560490313188964 0.0 0.016814360139438368 0.0 0.0
-0.016396590483042726 0.0072489202442444275 0.0 0.01635810182018764 0.0 0.0
-0.015152435080568367 0.006642343518816546 0.0 0.01639812808691314 0.0 0.0
-0.01399533121865611 0.006074564491270309 0.0 0.016510865555256497 0.0 0.0
-0.012924663233900291 0.00557033059775205 0.0 0.016580684585028593 0.0 0.0
-0.011901052373261358 0.005109053523610192 0.0 0.01661127663168969 0.0 0.0
-0.010898358002493294 0.004669957653542187 0.0 0.016619959518288135 0.0 0.0
-0.009902497364089791 0.004239630635791828 0.0 0.016619148049648355 0.0 0.0
-0.008908928400057813 0.003813940531952743 0.0 0.01661668087904131 0.0 0.0
-0.007923321250166777 0.0033996448504494394 0.0 0.016621826429234012 0.0 0.0
-0.006968059225387608 0.003020371318501118 0.0 0.01665425319675468 0.0 0.0
-0.006093260539540722 0.0027251085465995572 0.0 0.01675739289812274 0.0 0.0
-0.005371437959196899 0.002578843009416968 0.0 0.0170221260449908 0.0 0.0
-0.004809041885193023 0.0025643877817112274 0.0 0.017604569146587243 0.0 0.0
-0.004105128165500058 0.0022833913313394564 0.0 0.018563674673576357 0.0 0.0
-0.0025043507493156337 0.0005829562794961066 0.0 0.018952100398256455 0.0 0.0
0.0002174915210473392 -0.003724081400419019 0.0 0.014665910001797223 0.0 0.0
0.001792985811065805 -0.007676931040766355 0.0 0.0086670601468667 0.0 0.0
0.0011797960390183728 -0.005621865238827596 0.0 -0.007598997531783336 0.0 0.0
-0.0003013021431000512 -0.003016548364571388 0.0 -0.013321904906492672 0.0 0.0
-0.003121446109202014 0.0008233201299783198 0.0 -0.01790776872450637 0.0 0.0
-0.005238224625531929 0.0026718804613619462 0.0 -0.01792383275277817 0.0 0.0
-0.006587967111550622 0.003265473343358259 0.0 -0.016989937497394244 0.0 0.0
-0.007761872469295366 0.0035752630639036076 0.0 -0.016288179809781096 0.0 0.0
-0.009037614427931382 0.003976014643064576 0.0 -0.01592927845482455 0.0 0.0
-0.010430915582508532 0.004500977175321798 0.0 -0.015782443035222048 0.0 0.0
-0.011888918713639028 0.005098650979479125 0.0 -0.015736116559888443 0.0 0.0
-0.013371493665261915 0.005726810647191771 0.0 -0.015729000521982804 0.0 0.0
-0.014860332543334097 0.006364805798230049 0.0 -0.01573269121268662 0.0 0.0
-0.016350794983617724 0.007006742573548273 0.0 -0.01573412531501296 0.0 0.0
-0.01784649824710194 0.007656088578982791 0.0 -0.01572261739697049 0.0 0.0
-0.01935890121536971 0.008324496993903724 0.0 -0.015680687076652707 0.0 0.0
-0.020909183849207532 0.0090300887201036 0.0 -0.01558272967178662 0.0 0.0
-0.022535086385877236 0.0097907791192375 0.0 -0.01541057912140354 0.0 0.0
-0.024275281075423878 0.010609779764811483 0.0 -0.015257241033882544 0.0 0.0
-0.025890138898833185 0.011261858562942291 0.0 -0.015695897487135863 0.0 0.0
-0.026103371461061366 0.010363655050700398 0.0 -0.01741817723875838 0.0 0.0
-0.02334655308647228 0.004630248886012159 0.0 -0.016150390843915906 0.0 0.0
-0.021089135073850646 -0.004020292804326014 0.0 -2.667137344314341e-16 0.0 0.0
-0.0233465530864722 0.004630248886014342 0.0 0.01615039084391616 0.0 0.0
-0.026103371461061238 0.010363655050698072 0.0 0.017418177238759415 0.0 0.0
-0.025890138898833463 0.011261858562944295 0.0 0.015695897487136432 0.0 0.0
-0.024275281075423916 0.010609779764812841 0.0 0.015257241033881569 0.0 0.0
-0.02253508638587715 0.009790779119237897 0.0 0.015410579121404373 0.0 0.0
-0.020909183849207542 0.009030088720104057 0.0 0.01558272967178789 0.0 0.0
-0.019358901215369605 0.008324496993902614 0.0 0.015680687076651954 0.0 0.0
-0.01784649824710204 0.007656088578980775 0.0 0.015722617396970704 0.0 0.0
-0.016350794983617793 0.007006742573548566 0.0 0.01573412531501305 0.0 0.0
-0.014860332543334194 0.006364805798231021 0.0 0.01573269121268636 0.0 0.0
-0.013371493665261976 0.00572681064719341 0.0 0.01572900052198229 0.0 0.0
-0.011888918713638924 0.005098650979479095 0.0 0.015736116559888984 0.0 0.0
-0.010430915582508537 0.00450097717532014 0.0 0.015782443035222814 0.0 0.0
-0.009037614427931207 0.003976014643063653 0.0 0.015929278454823823 0.0 0.0
-0.007761872469295158 0.003575263063902233 0.0 0.01628817980978161 0.0 0.0
-0.00658796711155081 0.0032654733433589694 0.0 0.01698993749739486 0.0 0.0
-0.005238224625532262 0.002671880461360576 0.0 0.017923832752779128 0.0 0.0
-0.003121446109202309 0.0008233201299787932 0.0 0.017907768724506588 0.0 0.0
-0.0003013021431004287 -0.00301654836457114 0.0 0.01332190490649282 0.0 0.0
0.0011797960390179947 -0.005621865238827689 0.0 0.007598997531782441 0.0 0.0
0.0006141190353671134 -0.003859996563651058 0.0 -0.006501567136194337 0.0 0.0
-0.0008085671917225331 -0.002295324826818188 0.0 -0.011806538663789837 0.0 0.0
-0.0037462323148166853 0.0011207663786164499 0.0 -0.016466362725832347 0.0 0.0
-0.00634802537574954 0.0030592670782494734 0.0 -0.01680119195918813 0.0 0.0
-0.008333134249015543 0.003942344702383947 0.0 -0.015921687998910826 0.0 0.0
-0.010130640949947908 0.004554235656624573 0.0 -0.015150164941026497 0.0 0.0
-0.011973682211264425 0.005219812329362661 0.0 -0.01472806525395575 0.0 0.0
-0.0138923057260571 0.0059799359892522014 0.0 -0.014551189126688336 0.0 0.0
-0.01585512434717933 0.00679781229661601 0.0 -0.01449575497510695 0.0 0.0
-0.017834885163758533 0.007640160105843341 0.0 -0.014487791059776774 0.0 0.0
-0.01981880219103402 0.008490377295679035 0.0 -0.01449267624558991 0.0 0.0
-0.02180363498011997 0.009343726948228458 0.0 -0.014494809549098039 0.0 0.0
-0.023791761200626583 0.010202853605731432 0.0 -0.01448174478959504 0.0 0.0
-0.02579119375884263 0.011076868224369991 0.0 -0.014432420114072392 0.0 0.0
-0.02781667559917591 0.011980993219577568 0.0 -0.014313925578923106 0.0 0.0
-0.029896395596988486 0.012926922379218019 0.0 -0.014098575841428937 0.0 0.0
-0.03210055583570813 0.013931265315552301 0.0 -0.013834183917443512 0.0 0.0
-0.034335911176784105 0.014925260983587908 0.0 -0.014130777296917366 0.0 0.0
-0.03525568645885925 0.014642879667175195 0.0 -0.01655552347919568 0.0 0.0
-0.03240597702016671 0.008558662000654775 0.0 -0.017510272192464812 0.0 0.0
-0.02972588410028247 -0.003222127587666714 0.0 5.230191280070073e-16 0.0 0.0
-0.032405977020166524 0.008558662000653599 0.0 0.017510272192465492 0.0 0.0
-0.03525568645885891 0.014642879667176267 0.0 0.016555523479195554 0.0 0.0
-0.034335911176784244 0.014925260983586316 0.0 0.014130777296917224 0.0 0.0
-0.03210055583570823 0.013931265315555007 0.0 0.013834183917444311 0.0 0.0
-0.029896395596988305 0.012926922379220624 0.0 0.014098575841428911 0.0 0.0
-0.027816675599175875 0.011980993219576578 0.0 0.014313925578921853 0.0 0.0
-0.02579119375884288 0.011076868224368782 0.0 0.014432420114072565 0.0 0.0
-0.023791761200626947 0.010202853605731163 0.0 0.014481744789595866 0.0 0.0
-0.021803634980120137 0.009343726948227372 0.0 0.014494809549098691 0.0 0.0
-0.01981880219103433 0.008490377295679977 0.0 0.014492676245591155 0.0 0.0
-0.01783488516375871 0.007640160105844595 0.0 0.014487791059777336 0.0 0.0
-0.015855124347179037 0.006797812296618566 0.0 0.014495754975106127 0.0 0.0
-0.013892305726057066 0.005979935989250674 0.0 0.014551189126687208 0.0 0.0
-0.011973682211264535 0.005219812329362566 0.0 0.014728065253955269 0.0 0.0
-0.010130640949947905 0.004554235656624 0.0 0.015150164941026747 0.0 0.0
-0.008333134249015174 0.0039423447023842605 0.0 0.015921687998910188 0.0 0.0
-0.006348025375749217 0.003059267078249399 0.0 0.01680119195918883 0.0 0.0
-0.003746232314816823 0.0011207663786166522 0.0 0.016466362725833072 0.0 0.0
-0.0008085671917226045 -0.0022953248268185156 0.0 0.011806538663790443 0.0 0.0
0.0006141190353670628 -0.00385999656365089 0.0 0.006501567136193202 0.0 0.0
0.00010964986202283699 -0.0023998135284072518 0.0 -0.0053646110243512814 0.0 0.0
-0.0012881784988725662 -0.0015880867286430455 0.0 -0.010126554331956094 0.0 0.0
-0.004368447104828028 0.0014566062489080748 0.0 -0.014650143721452482 0.0 0.0
-0.007439476876433643 0.0034480592278727335 0.0 -0.015197664085024848 0.0 0.0
-0.010056395247685927 0.004605152922939601 0.0 -0.01438830681638932 0.0 0.0
-0.012486880752814062 0.00552313451364231 0.0 -0.013598490527629922 0.0 0.0
-0.01490592038694126 0.006459847547310938 0.0 -0.01314961052835098 0.0 0.0
-0.01735381719300543 0.007458400821196014 0.0 -0.012959597604080001 0.0 0.0
-0.01982231094853739 0.008497391363140375 0.0 -0.012900897880927934 0.0 0.0
-0.022299074190088346 0.009553954495248224 0.0 -0.012893298729852322 0.0 0.0
-0.02477781885607558 0.010616277515703022 0.0 -0.012899206173102421 0.0 0.0
-0.02725692136826391 0.01168092154850502 0.0 -0.012902053368459069 0.0 0.0
-0.029737312918513267 0.012749702688451853 0.0 -0.012888729448241534 0.0 0.0
-0.03222264733266089 0.013828406062911643 0.0 -0.012837030484954572 0.0 0.0
-0.03472076113047763 0.014928725102555267 0.0 -0.012707586923543917 0.0 0.0
-0.037243192493904204 0.01605720936741955 0.0 -0.01246823562869796 0.0 0.0
-0.03986616109854422 0.017215424262422573 0.0 -0.012127822824161657 0.0 0.0
-0.042698816161942654 0.018501719877939152 0.0 -0.012154006553235529 0.0 0.0
-0.044518035106712484 0.01906255617126137 0.0 -0.01497455452113432 0.0 0.0
-0.04171364927530596 0.01305406133410784 0.0 -0.0188347709398007 0.0 0.0
-0.038568632551974555 -0.003111123418166737 0.0 6.166941957097549e-16 0.0 0.0
-0.041713649275305985 0.013054061334100258 0.0 0.018834770939801654 0.0 0.0
-0.04451803510671245 0.019062556171264042 0.0 0.014974554521134002 0.0 0.0
-0.042698816161942516 0.018501719877934922 0.0 0.012154006553236486 0.0 0.0
-0.039866161098544295 0.017215424262427385 0.0 0.012127822824163954 0.0 0.0
-0.03724319249390437 0.01605720936741708 0.0 0.01246823562869732 0.0 0.0
-0.03472076113047756 0.014928725102555825 0.0 0.012707586923542416 0.0 0.0
-0.03222264733266076 0.013828406062910976 0.0 0.012837030484953701 0.0 0.0
-0.02973731291851333 0.012749702688454516 0.0 0.012888729448241551 0.0 0.0
-0.027256921368263964 0.011680921548504239 0.0 0.012902053368459931 0.0 0.0
-0.02477781885607565 0.01061627751570364 0.0 0.012899206173101757 0.0 0.0
-0.022299074190088482 0.009553954495247718 0.0 0.012893298729853134 0.0 0.0
-0.019822310948537487 0.00849739136313992 0.0 0.0129008978809278 0.0 0.0
-0.017353817193005376 0.007458400821196134 0.0 0.012959597604078115 0.0 0.0
-0.014905920386941218 0.006459847547312297 0.0 0.013149610528349995 0.0 0.0
-0.012486880752814119 0.005523134513641726 0.0 0.01359849052762978 0.0 0.0
-0.010056395247685875 0.0046051529229395255 0.0 0.014388306816389532 0.0 0.0
-0.007439476876433541 0.003448059227873754 0.0 0.015197664085024126 0.0 0.0
-0.004368447104828104 0.0014566062489082222 0.0 0.014650143721453308 0.0 0.0
-0.0012881784988726674 -0.0015880867286435347 0.0 0.010126554331956717 0.0 0.0
0.00010964986202291478 -0.002399813528407006 0.0 0.005364611024351 0.0 0.0
-0.00031569314035454626 -0.0012563863896499297 0.0 -0.00419482342808339 0.0 0.0
-0.0017178943075496682 -0.0009201689170507849 0.0 -0.008293537654706164 0.0 0.0
-0.004970460318356869 0.0018065668890563818 0.0 -0.012467678676970613 0.0 0.0
-0.008513694708592149 0.003837532170498815 0.0 -0.013106020544753537 0.0 0.0
-0.01176983954068912 0.005264474316412329 0.0 -0.012380012623132656 0.0 0.0
-0.01484100536397252 0.006490394360453582 0.0 -0.01162756543107406 0.0 0.0
-0.017839598117007444 0.007700093672702173 0.0 -0.011192128854242428 0.0 0.0
-0.020817322275102513 0.008937724307426396 0.0 -0.011007769492617012 0.0 0.0
-0.02379087366843326 0.010197652797304663 0.0 -0.0109520241697705 0.0 0.0
-0.02676398425766577 0.011468119408826265 0.0 -0.010945834796836947 0.0 0.0
-0.02973725893630965 0.012742405619964585 0.0 -0.010952338765698079 0.0 0.0
-0.032710659632570804 0.014018341451080746 0.0 -0.010955783763361626 0.0 0.0
-0.03568367782319322 0.015296897056373788 0.0 -0.010943445305191164 0.0 0.0
-0.03865471763882566 0.016580594850215007 0.0 -0.010894403886770095 0.0 0.0
-0.04162410653457682 0.01787452506498715 0.0 -0.010767547490428332 0.0 0.0
-0.04458605502613447 0.019187765772476658 0.0 -0.010519811483037409 0.0 0.0
-0.04757721821905295 0.02048080546914179 0.0 -0.010171061938356242 0.0 0.0
-0.05091475557780344 0.021932617745398807 0.0 -0.009883118367050362 0.0 0.0
-0.05383819148598941 0.023514243800428842 0.0 -0.012471243699577894 0.0 0.0
-0.051359190509490324 0.01840962015810801 0.0 -0.01982932249805614 0.0 0.0
-0.04778041616784265 -0.0038798909207212176 0.0 -1.1518563880486e-15 0.0 0.0
-0.05135919050949071 0.01840962015810385 0.0 0.01982932249805628 0.0 0.0
-0.053838191485989284 0.02351424380042998 0.0 0.012471243699578286 0.0 0.0
-0.050914755577802874 0.021932617745394824 0.0 0.009883118367049573 0.0 0.0
-0.04757721821905306 0.02048080546913888 0.0 0.010171061938355562 0.0 0.0
-0.044586055026134434 0.01918776577247829 0.0 0.01051981148303604 0.0 0.0
-0.04162410653457665 0.017874525064986223 0.0 0.010767547490428256 0.0 0.0
-0.03865471763882595 0.016580594850214084 0.0 0.010894403886770956 0.0 0.0
-0.035683677823193476 0.015296897056374433 0.0 0.010943445305190574 0.0 0.0
-0.032710659632570784 0.014018341451082088 0.0 0.010955783763361409 0.0 0.0
-0.029737258936309616 0.012742405619962932 0.0 0.010952338765698205 0.0 0.0
-0.0267639842576658 0.011468119408826546 0.0 0.010945834796837457 0.0 0.0
-0.02379087366843325 0.010197652797302623 0.0 0.010952024169770239 0.0 0.0
-0.020817322275102468 0.008937724307427673 0.0 0.011007769492617716 0.0 0.0
-0.017839598117007274 0.0077000936727032575 0.0 0.011192128854242672 0.0 0.0
-0.014841005363972391 0.0064903943604533885 0.0 0.011627565431073059 0.0 0.0
-0.011769839540688987 0.0052644743164132176 0.0 0.012380012623134005 0.0 0.0
-0.008513694708592121 0.003837532170498691 0.0 0.013106020544753136 0.0 0.0
-0.004970460318356996 0.0018065668890564451 0.0 0.012467678676971222 0.0 0.0
-0.0017178943075497766 -0.0009201689170512159 0.0 0.008293537654705538 0.0 0.0
-0.0003156931403546706 -0.0012563863896498408 0.0 0.004194823428083617 0.0 0.0
-0.0006364884367087091 -0.0004475365314797736 0.0 -0.003027724693964006 0.0 0.0
-0.0020653630417688763 -0.0003201114796772823 0.0 -0.006327806184126275 0.0 0.0
-0.005525663430160854 0.002139226929644182 0.0 -0.00990667870588341 0.0 0.0
-0.009569914378684471 0.004226497436264622 0.0 -0.010506021722572232 0.0 0.0
-0.013487100606837927 0.0059324063857819475 0.0 -0.009888906943587687 0.0 0.0
-0.017204585719210574 0.007465194948294162 0.0 -0.00923617498928624 0.0 0.0
-0.0207804493893879 0.008944851178302765 0.0 -0.00885657220397477 0.0 0.0
-0.024284788162502683 0.010419307490305837 0.0 -0.0086969797429242 0.0 0.0
-0.0277611529222647 0.011898800236319923 0.0 -0.008649965983637124 0.0 0.0
-0.031229466382475916 0.013382534400031959 0.0 -0.00864574770688276 0.0 0.0
-0.03469694647687958 0.014868592670020997 0.0 -0.00865213734180006 0.0 0.0
-0.03816483959310383 0.016356048913556923 0.0 -0.00865564296045003 0.0 0.0
-0.04163122980711753 0.017844537216493123 0.0 -0.008645874578298471 0.0 0.0
-0.045089456223310925 0.019334946041273306 0.0 -0.008602800395711386 0.0 0.0
-0.04852888117558613 0.020821626464938753 0.0 -0.008496238689686549 0.0 0.0
-0.05193559432965911 0.022317391401869516 0.0 -0.008258508099687837 0.0 0.0
-0.0552623445256059 0.023768747576955445 0.0 -0.007950875330206478 0.0 0.0
-0.05890894340902286 0.02518524325343939 0.0 -0.00755392799717591 0.0 0.0
-0.06307307534258655 0.02772712346389699 0.0 -0.008956325163860215 0.0 0.0
-0.061442294068033226 0.025026942398875575 0.0 -0.019749993893456323 0.0 0.0
-0.057660314825982176 -0.005699630678494132 0.0 6.010816844259637e-16 0.0 0.0
-0.06144229406803359 0.025026942398878548 0.0 0.019749993893456795 0.0 0.0
-0.06307307534258651 0.02772712346389241 0.0 0.00895632516386076 0.0 0.0
-0.05890894340902275 0.025185243253435612 0.0 0.007553927997175077 0.0 0.0
-0.05526234452560609 0.023768747576955844 0.0 0.007950875330207106 0.0 0.0
-0.05193559432965867 0.022317391401871257 0.0 0.008258508099688764 0.0 0.0
-0.04852888117558578 0.02082162646493623 0.0 0.00849623868968374 0.0 0.0
-0.04508945622331109 0.0193349460412728 0.0 0.008602800395711239 0.0 0.0
-0.04163122980711762 0.017844537216489 0.0 0.008645874578299224 0.0 0.0
-0.0381648395931037 0.016356048913560853 0.0 0.008655642960450646 0.0 0.0
-0.03469694647687965 0.014868592670020771 0.0 0.008652137341799662 0.0 0.0
-0.031229466382476048 0.013382534400032798 0.0 0.00864574770688338 0.0 0.0
-0.027761152922264484 0.011898800236318514 0.0 0.008649965983638177 0.0 0.0
-0.024284788162502655 0.010419307490307296 0.0 0.008696979742925362 0.0 0.0
-0.020780449389388066 0.008944851178303412 0.0 0.008856572203975602 0.0 0.0
-0.01720458571921041 0.007465194948293959 0.0 0.009236174989285788 0.0 0.0
-0.013487100606837776 0.005932406385782495 0.0 0.009888906943588247 0.0 0.0
-0.00956991437868441 0.00422649743626554 0.0 0.010506021722571346 0.0 0.0
-0.005525663430160865 0.0021392269296440247 0.0 0.00990667870588395 0.0 0.0
-0.0020653630417689704 -0.00032011147967741035 0.0 0.0063278061841257425 0.0 0.0
-0.0006364884367087027 -0.00044753653147982397 0.0 0.00302772469396442 0.0 0.0
-0.0008133891990431586 1.2054320124968326e-05 0.0 -0.001950774089726237 0.0 0.0
-0.0022809058859783785 0.00017056661506638563 0.0 -0.004261591297077026 0.0 0.0
-0.005996149402532305 0.0024141577756334235 0.0 -0.006918085543193564 0.0 0.0
-0.010608827896027365 0.004617973247047722 0.0 -0.007363149516313417 0.0 0.0
-0.015224983533948133 0.006623493153700701 0.0 -0.006910625698759513 0.0 0.0
-0.019590114399917175 0.008457072073457599 0.0 -0.0064277503651536585 0.0 0.0
-0.023734309677567407 0.010198460677240962 0.0 -0.0061469934209174605 0.0 0.0
-0.027758057003070824 0.011904399762520135 0.0 -0.006029733275804141 0.0 0.0
-0.03173333930536195 0.013600920038572557 0.0 -0.005995891795246966 0.0 0.0
-0.035695288301873164 0.015296994066784076 0.0 -0.005993429585621364 0.0 0.0
-0.03965660949868468 0.016994679110596544 0.0 -0.005998537995055208 0.0 0.0
-0.04361948973516625 0.018693854342623654 0.0 -0.006001452733165739 0.0 0.0
-0.04758008556121404 0.020393419604924214 0.0 -0.005994499761852796 0.0 0.0
-0.051528925523025446 0.02209049117029299 0.0 -0.005963849106168484 0.0 0.0
-0.05543945388475767 0.023779812243300745 0.0 -0.005880734915806589 0.0 0.0
-0.05929291970592228 0.02543473957792404 0.0 -0.005722313983895517 0.0 0.0
-0.0629829902160805 0.02711564133715688 0.0 -0.00537956484386651 0.0 0.0
-0.06664153891547991 0.028372475316783725 0.0 -0.0053961980175342445 0.0 0.0
-0.07189779857477109 0.031114347797978816 0.0 -0.0050051416411358175 0.0 0.0
-0.07203714868733822 0.03337771008446026 0.0 -0.01671075887123027 0.0 0.0
-0.06880160359871951 -0.008519704187464755 0.0 2.0209528495129803e-16 0.0 0.0
-0.07203714868733835 0.03337771008445732 0.0 0.01671075887123012 0.0 0.0
-0.07189779857477104 0.031114347797972813 0.0 0.005005141641135498 0.0 0.0
-0.06664153891547994 0.028372475316781526 0.0 0.005396198017533115 0.0 0.0
-0.06298299021608042 0.027115641337157895 0.0 0.005379564843866324 0.0 0.0
-0.059292919705922126 0.025434739577922985 0.0 0.005722313983894806 0.0 0.0
-0.055439453884757545 0.023779812243298806 0.0 0.0058807349158055446 0.0 0.0
-0.05152892552302546 0.02209049117029115 0.0 0.005963849106168189 0.0 0.0
-0.047580085561214236 0.020393419604922757 0.0 0.005994499761855024 0.0 0.0
-0.04361948973516609 0.018693854342626718 0.0 0.006001452733167518 0.0 0.0
-0.03965660949868461 0.01699467911059785 0.0 0.005998537995055517 0.0 0.0
-0.035695288301873185 0.01529699406678297 0.0 0.0059934295856219205 0.0 0.0
-0.031733339305361825 0.013600920038571792 0.0 0.0059958917952479054 0.0 0.0
-0.027758057003070855 0.011904399762519552 0.0 0.006029733275803716 0.0 0.0
-0.02373430967756722 0.010198460677240498 0.0 0.006146993420918444 0.0 0.0
-0.019590114399917126 0.00845707207345731 0.0 0.0064277503651546395 0.0 0.0
-0.015224983533948286 0.006623493153700068 0.0 0.006910625698759075 0.0 0.0
-0.01060882789602733 0.004617973247048211 0.0 0.007363149516313949 0.0 0.0
-0.0059961494025322125 0.0024141577756336147 0.0 0.0069180855431932795 0.0 0.0
-0.002280905885978285 0.0001705666150665427 0.0 0.004261591297077349 0.0 0.0
-0.0008133891990429913 1.2054320124834119e-05 0.0 0.001950774089726363 0.0 0.0
-0.0007801673954949645 0.00012086821133671477 0.0 -0.0011489885116800415 0.0 0.0
-0.0022843965615813445 0.00047826590785221123 0.0 -0.0021397202769145632 0.0 0.0
-0.006330549587479331 0.0025820095224876115 0.0 -0.0033814392641375794 0.0 0.0
-0.01163865897054156 0.005027377239270565 0.0 -0.00363825453388918 0.0 0.0
-0.017004774040143642 0.00735394624111621 0.0 -0.003444454749991779 0.0 0.0
-0.022010566997743293 0.009475926979809998 0.0 -0.003211487556038117 0.0 0.0
-0.02670676712070448 0.011464852969696878 0.0 -0.0030706244594131595 0.0 0.0
-0.03123857954468231 0.013393913536558609 0.0 -0.003009742162342492 0.0 0.0
-0.03570739285837155 0.015303907841101583 0.0 -0.002991245305016068 0.0 0.0
-0.04016108445107103 0.01721121584126238 0.0 -0.0029892508199129615 0.0 0.0
-0.044615977149986996 0.019120421078265625 0.0 -0.0029914631749257676 0.0 0.0
-0.049074308038157176 0.02103170962105208 0.0 -0.00299268403105793 0.0 0.0
-0.05353116230199351 0.022943309833899563 0.0 -0.0029886708530880543 0.0 0.0
-0.05797202012069509 0.024850225453284074 0.0 -0.0029729552042394814 0.0 0.0
-0.062368392532532846 0.02674183633869544 0.0 -0.0029294467500802536 0.0 0.0
-0.06664466294113201 0.028591713330060116 0.0 -0.002850849365298978 0.0 0.0
-0.07079937566350623 0.030359562621633446 0.0 -0.0027058500506480948 0.0 0.0
-0.07426128487098188 0.03210652216078282 0.0 -0.002515403524070313 0.0 0.0
-0.07963363413230025 0.032521878717780714 0.0 -0.003967168899367527 0.0 0.0
-0.08304735817878124 0.043690433494381585 0.0 -0.005662120341690297 0.0 0.0
-0.08248962318120147 -0.01136923863064011 0.0 -7.129713486264677e-16 0.0 0.0
-0.08304735817878135 0.043690433494374604 0.0 0.005662120341689393 0.0 0.0
-0.07963363413230043 0.0325218787177774 0.0 0.00396716889936749 0.0 0.0
-0.0742612848709822 0.03210652216078577 0.0 0.002515403524070564 0.0 0.0
-0.07079937566350596 0.03035956262162788 0.0 0.002705850050647998 0.0 0.0
-0.06664466294113182 0.028591713330064043 0.0 0.0028508493652989134 0.0 0.0
-0.06236839253253269 0.026741836338693252 0.0 0.002929446750081127 0.0 0.0
-0.05797202012069501 0.024850225453280087 0.0 0.002972955204239621 0.0 0.0
-0.05353116230199369 0.02294330983389995 0.0 0.002988670853087806 0.0 0.0
-0.04907430803815676 0.02103170962105261 0.0 0.0029926840310578497 0.0 0.0
-0.0446159771499868 0.019120421078265806 0.0 0.002991463174925795 0.0 0.0
-0.04016108445107126 0.017211215841261177 0.0 0.002989250819912418 0.0 0.0
-0.03570739285837156 0.01530390784110126 0.0 0.002991245305016367 0.0 0.0
-0.0312385795446825 0.013393913536559117 0.0 0.0030097421623416424 0.0 0.0
-0.02670676712070452 0.011464852969696494 0.0 0.0030706244594126534 0.0 0.0
-0.022010566997743324 0.009475926979811075 0.0 0.00321148755603751 0.0 0.0
-0.017004774040143777 0.0073539462411158045 0.0 0.003444454749990447 0.0 0.0
-0.011638658970541525 0.005027377239271885 0.0 0.003638254533890501 0.0 0.0
-0.006330549587479307 0.0025820095224880434 0.0 0.003381439264137015 0.0 0.0
-0.0022843965615811953 0.00047826590785211257 0.0 0.002139720276914054 0.0 0.0
-0.0007801673954947064 0.00012086821133660078 0.0 0.001148988511679845 0.0 0.0
-0.0004170452534706659 8.861316740536602e-05 0.0 -0.0007699595660338463 0.0 0.0
-0.0019404405271723282 0.0005743686034554451 0.0 -0.0009043438081879265 0.0 0.0
-0.006464870161499878 0.0026324988085392994 0.0 -0.0011509096803845533 0.0 0.0
-0.012686138657651308 0.005239589860029814 0.0 -0.0012832231384453286 0.0 0.0
-0.018851249475157872 0.007731076313765779 0.0 -0.001273449363122081 0.0 0.0
-0.02447936385203672 0.009993373144602002 0.0 -0.0012141912316887813 0.0 0.0
-0.029702601941155458 0.01210169097243412 0.0 -0.0011689076014428587 0.0 0.0
-0.034727177660974086 0.014139864404931009 0.0 -0.0011455447449713772 0.0 0.0
-0.03968294634761166 0.01615559044929964 0.0 -0.0011365964403988208 0.0 0.0
-0.04462637059724121 0.01816823010819828 0.0 -0.0011343446328462578 0.0 0.0
-0.04957465588934806 0.020183158043122477 0.0 -0.0011342616664148574 0.0 0.0
-0.05452917348266634 0.02220069686572047 0.0 -0.001134081123233285 0.0 0.0
-0.05948399999271812 0.0242182542208947 0.0 -0.0011317676959680537 0.0 0.0
-0.06442246207737463 0.02623228534072841 0.0 -0.0011255396052371703 0.0 0.0
-0.06930718762767685 0.028220202326329602 0.0 -0.001110539902683682 0.0 0.0
-0.07405481900892334 0.030195018826266025 0.0 -0.0010815198717913964 0.0 0.0
-0.07852247561386402 0.031912867903597986 0.0 -0.0011110136886934826 0.0 0.0
-0.08256150819622336 0.03423439907087111 0.0 -0.0007559315033907324 0.0 0.0
-0.08496802099099585 0.03254153779208892 0.0 -0.0037117356143411395 0.0 0.0
-0.09364956875832939 0.04933383053170344 0.0 -1.671042893952937e-05 0.0 0.0
-0.10182098430365984 -0.01258864754553987 0.0 -1.249000902703301e-16 0.0 0.0
-0.0936495687583298 0.04933383053169951 0.0 1.671042893843476e-05 0.0 0.0
-0.08496802099099607 0.03254153779208645 0.0 0.003711735614340801 0.0 0.0
-0.08256150819622393 0.03423439907087618 0.0 0.0007559315033905129 0.0 0.0
-0.0785224756138639 0.0319128679035937 0.0 0.0011110136886926403 0.0 0.0
-0.07405481900892275 0.030195018826271527 0.0 0.0010815198717919056 0.0 0.0
-0.06930718762767649 0.02822020232632659 0.0 0.0011105399026823878 0.0 0.0
-0.06442246207737473 0.026232285340721535 0.0 0.0011255396052371287 0.0 0.0
-0.05948399999271821 0.02421825422089337 0.0 0.0011317676959660718 0.0 0.0
-0.054529173482665894 0.02220069686572239 0.0 0.0011340811232324888 0.0 0.0
-0.04957465588934781 0.020183158043122013 0.0 0.0011342616664153198 0.0 0.0
-0.04462637059724136 0.018168230108198468 0.0 0.0011343446328458294 0.0 0.0
-0.03968294634761199 0.016155590449298592 0.0 0.0011365964403993048 0.0 0.0
-0.03472717766097445 0.01413986440493194 0.0 0.0011455447449711213 0.0 0.0
-0.029702601941155322 0.01210169097243356 0.0 0.0011689076014421611 0.0 0.0
-0.024479363852036494 0.009993373144604367 0.0 0.0012141912316879682 0.0 0.0
-0.01885124947515779 0.007731076313766098 0.0 0.0012734493631210886 0.0 0.0
-0.012686138657651379 0.0052395898600324925 0.0 0.0012832231384469221 0.0 0.0
-0.006464870161500085 0.0026324988085398874 0.0 0.001150909680384263 0.0 0.0
-0.0019404405271724486 0.0005743686034549362 0.0 0.0009043438081872289 0.0 0.0
-0.00041704525347084946 8.861316740534612e-05 0.0 0.0007699595660332966 0.0 0.0