# vtk DataFile Version 3.0
Some data
ASCII
DATASET UNSTRUCTURED_GRID
POINTS 682 float
-50.0 -50.0 0.0
50.0 -50.0 0.0
50.0 50.0 0.0
-50.0 50.0 0.0
0.0 20.0 0.0
0.0 -20.0 0.0
-45.99999999999896 50.0 0.0
-41.9999999999979 50.0 0.0
-37.99999999999686 50.0 0.0
-33.99999999999581 50.0 0.0
-30.00000000000059 50.0 0.0
-26.00000000001376 50.0 0.0
-22.00000000002693 50.0 0.0
-18.0000000000401 50.0 0.0
-14.00000000005324 50.0 0.0
-10.0000000000664 50.0 0.0
-6.000000000079542 50.0 0.0
-2.000000000092656 50.0 0.0
1.999999999906121 50.0 0.0
5.999999999915295 50.0 0.0
9.999999999923459 50.0 0.0
13.99999999993163 50.0 0.0
17.99999999994331 50.0 0.0
21.99999999995853 50.0 0.0
25.99999999997376 50.0 0.0
29.99999999998899 50.0 0.0
33.99999999999586 50.0 0.0
37.9999999999969 50.0 0.0
41.99999999999793 50.0 0.0
45.99999999999896 50.0 0.0
50.0 45.99999999999896 0.0
50.0 41.9999999999979 0.0
50.0 37.99999999999686 0.0
50.0 33.99999999999581 0.0
50.0 30.00000000000059 0.0
50.0 26.00000000001376 0.0
50.0 22.00000000002693 0.0
50.0 18.0000000000401 0.0
50.0 14.00000000005324 0.0
50.0 10.0000000000664 0.0
50.0 6.000000000079542 0.0
50.0 2.000000000092656 0.0
50.0 -1.999999999906121 0.0
50.0 -5.999999999915295 0.0
50.0 -9.999999999923459 0.0
50.0 -13.99999999993163 0.0
50.0 -17.99999999994331 0.0
50.0 -21.99999999995853 0.0
50.0 -25.99999999997376 0.0
50.0 -29.99999999998899 0.0
50.0 -33.99999999999586 0.0
50.0 -37.9999999999969 0.0
50.0 -41.99999999999793 0.0
50.0 -45.99999999999896 0.0
45.99999999999896 -50.0 0.0
41.9999999999979 -50.0 0.0
37.99999999999686 -50.0 0.0
33.99999999999581 -50.0 0.0
30.00000000000059 -50.0 0.0
26.00000000001376 -50.0 0.0
22.00000000002693 -50.0 0.0
18.0000000000401 -50.0 0.0
14.00000000005324 -50.0 0.0
10.0000000000664 -50.0 0.0
6.000000000079542 -50.0 0.0
2.000000000092656 -50.0 0.0
-1.999999999906121 -50.0 0.0
-5.999999999915295 -50.0 0.0
-9.999999999923459 -50.0 0.0
-13.99999999993163 -50.0 0.0
-17.99999999994331 -50.0 0.0
-21.99999999995853 -50.0 0.0
-25.99999999997376 -50.0 0.0
-29.99999999998899 -50.0 0.0
-33.99999999999586 -50.0 0.0
-37.9999999999969 -50.0 0.0
-41.99999999999793 -50.0 0.0
-45.99999999999896 -50.0 0.0
-50.0 -45.99999999999896 0.0
-50.0 -41.9999999999979 0.0
-50.0 -37.99999999999686 0.0
-50.0 -33.99999999999581 0.0
-50.0 -30.00000000000059 0.0
-50.0 -26.00000000001376 0.0
-50.0 -22.00000000002693 0.0
-50.0 -18.0000000000401 0.0
-50.0 -14.00000000005324 0.0
-50.0 -10.0000000000664 0.0
-50.0 -6.000000000079542 0.0
-50.0 -2.000000000092656 0.0
-50.0 1.999999999906121 0.0
-50.0 5.999999999915295 0.0
-50.0 9.999999999923459 0.0
-50.0 13.99999999993163 0.0
-50.0 17.99999999994331 0.0
-50.0 21.99999999995853 0.0
-50.0 25.99999999997376 0.0
-50.0 29.99999999998899 0.0
-50.0 33.99999999999586 0.0
-50.0 37.9999999999969 0.0
-50.0 41.99999999999793 0.0
-50.0 45.99999999999896 0.0
-3.901806440288044 19.61570560807148 0.0
-7.653668647265455 18.47759065024079 0.0
-11.11140466035381 16.62939224607645 0.0
-14.14213562369474 14.14213562376717 0.0
-16.62939224601915 11.11140466043957 0.0
-18.47759065020115 7.653668647361153 0.0
-19.61570560805066 3.901806440392695 0.0
-20.0 7.776568614319829e-11 0.0
-19.6157056080774 -3.901806440258285 0.0
-18.47759065024524 -7.653668647254714 0.0
-16.62939224607186 -11.11140466036069 0.0
-14.14213562374694 -14.14213562371497 0.0
-11.11140466040043 -16.6293922460453 0.0
-7.65366864729932 -18.47759065022676 0.0
-3.90180644030583 -19.61570560806794 0.0
3.901806440288044 -19.61570560807148 0.0
7.653668647265455 -18.47759065024079 0.0
11.11140466035381 -16.62939224607645 0.0
14.14213562369474 -14.14213562376717 0.0
16.62939224601915 -11.11140466043957 0.0
18.47759065020115 -7.653668647361153 0.0
19.61570560805066 -3.901806440392695 0.0
20.0 -7.776568614319829e-11 0.0
19.6157056080774 3.901806440258285 0.0
18.47759065024524 7.653668647254714 0.0
16.62939224607186 11.11140466036069 0.0
14.14213562374694 14.14213562371497 0.0
11.11140466040043 16.6293922460453 0.0
7.65366864729932 18.47759065022676 0.0
3.90180644030583 19.61570560806794 0.0
21.0349885606842 -31.33291989490623 0.0
-21.92213524993364 32.47129740082516 0.0
-32.94195718131923 -21.14859496421213 0.0
32.48407655338185 21.92361233001349 0.0
-31.42766785017118 20.52973637256061 0.0
31.34269999426618 -20.843591133012 0.0
-20.66850481250735 -31.44486891594184 0.0
20.0281921064395 31.55415036089927 0.0
-18.67233805424752 42.50512532845049 0.0
18.19374025937458 -41.3023818091193 0.0
-42.17227278268256 -16.24076058910855 0.0
42.33829241096302 18.38562740073045 0.0
-40.86321105291192 18.22045265123251 0.0
-19.09931494913455 -40.64436380017196 0.0
-13.30478786335714 35.15565346988954 0.0
13.36569963208577 -33.83771726345368 0.0
-35.00763648785878 -13.66986120776997 0.0
35.15137232365157 13.29896341749408 0.0
-35.91973878086461 15.7257524773399 0.0
35.68134262944334 -13.50523986115313 0.0
14.28764867624587 35.97175823727987 0.0
-13.25608024279581 -36.09807581453354 0.0
-3.43573809733963 36.46130396748957 0.0
35.94387149962209 3.283015085636099 0.0
-35.62528452942622 -38.11661102564214 0.0
-38.61144023634591 34.81445789116533 0.0
34.36510053755555 38.72526495721833 0.0
38.75250588014823 -36.60167160487691 0.0
-40.57866978399257 46.81464340686621 0.0
45.20714492860375 -46.49369314478449 0.0
-34.56961509198562 -30.09715433458693 0.0
28.89989496625516 -35.30943539832101 0.0
35.24685681111853 -28.36472795070014 0.0
-30.34643278536468 34.20824456163002 0.0
34.03674534806063 30.31422029262094 0.0
-28.98189249145605 -10.98912622604279 0.0
25.41109985201274 -43.16931712699911 0.0
-26.597795920339 42.20147207521702 0.0
41.32669930959985 25.54113667098549 0.0
-22.48882370483756 -40.46175611878148 0.0
-18.0669898619053 25.26632201893649 0.0
17.72813917294362 -23.64712901441006 0.0
23.72778775552051 -17.64338066683542 0.0
-22.77443519795011 17.31221796259062 0.0
-25.07450847978108 -17.78314326524689 0.0
25.28898803843497 18.0556593023152 0.0
-17.71437862979588 -23.80397494215774 0.0
17.65719024624709 23.77463017495757 0.0
-27.9747090463393 -35.48993805662332 0.0
-35.40621929961179 27.30862593778066 0.0
26.16468943600576 -25.93382240574992 0.0
-26.50488120041251 25.78703828377619 0.0
-25.97573520979492 -26.47925882668211 0.0
25.80354875442789 26.4894138501519 0.0
-42.69565153438871 -35.45658735479477 0.0
27.18760823652676 35.38729571427982 0.0
41.88190235801823 34.45418445087055 0.0
-34.6954444584546 41.95187196559198 0.0
27.48629807742796 43.2394635414067 0.0
-43.21551196682957 27.63698140879208 0.0
43.40873777236504 -29.7149531370159 0.0
0.03902805686112204 25.50793362079343 0.0
26.49058815765176 0.4508521119359422 0.0
-27.16496611088848 -0.3998490888626399 0.0
-13.90465237569755 42.85919552680384 0.0
11.88268567144881 -43.5135427466366 0.0
-43.04762412693207 -13.58015228415966 0.0
42.8552257871967 13.9000399701175 0.0
43.84814664488243 -13.00404812910894 0.0
-43.89144862605731 12.87407331471758 0.0
-13.51069816788382 -43.5843256978244 0.0
13.05276926181895 43.88413546700496 0.0
43.47454277746057 -4.273927059036473 0.0
4.251839695595125 -43.00296293389271 0.0
-3.677127186826619 42.47072306863843 0.0
-42.57048792093359 -4.104201340196073 0.0
42.23487267792431 4.555512209557088 0.0
1.403550233453511 38.06263322058061 0.0
-28.6840696329963 -43.9094240394531 0.0
33.45783844263915 -43.62753908831294 0.0
46.33332628542988 -37.22257550074718 0.0
-46.58186236091294 35.08454843805947 0.0
-36.97468536493553 -45.693350813237 0.0
-41.50382447786544 42.97499305120035 0.0
-19.37061511912771 38.0783770016086 0.0
20.62296912632873 -38.16205147245761 0.0
-39.43229634248945 20.8134107432894 0.0
38.03064832695853 19.30833920884766 0.0
-20.71607715948846 -38.35175377766666 0.0
20.12189638536551 40.28938809992449 0.0
-41.03453967019605 -39.37510093269113 0.0
-46.42354308684152 43.6290998046874 0.0
-32.92916635725854 17.48596688573752 0.0
33.39922705361964 -17.56142203091263 0.0
-17.51123177642824 -33.46247860523317 0.0
16.29579410043273 32.3606547707406 0.0
-16.93738969355763 35.11727165207721 0.0
17.66368300133982 -33.38345136950765 0.0
35.09735848955847 16.90917182891173 0.0
-31.95048704757514 -16.86533364453098 0.0
41.12700327893752 -46.82287762733851 0.0
46.76974310941768 -41.50919855609006 0.0
19.2957726357979 -45.77701341558947 0.0
-45.76103885556889 -20.35867523002106 0.0
46.35337201291616 20.17070680000077 0.0
-46.70307824580135 19.91031570263512 0.0
-20.22689438772374 -46.69049767040066 0.0
19.89010420255736 46.694342063494 0.0
-41.32201878705205 -43.02276791727626 0.0
42.55326811187462 -43.1237758300644 0.0
40.75109930525767 42.8781751402188 0.0
-44.64664607221794 -40.31474560117277 0.0
-9.48349620752917 34.75512027243715 0.0
8.839568714324972 -36.26944765178768 0.0
34.7531496671939 9.48137247453693 0.0
-35.79167376164647 -9.47755618328256 0.0
16.77397813178351 -37.05172633854437 0.0
-37.99817303550739 17.61249595904635 0.0
37.17101194375822 -17.66060549259279 0.0
-17.56397712116187 -37.24041616734706 0.0
-40.87405509507679 -46.63739324906918 0.0
-36.49599937835107 8.108151523774188 0.0
36.30113923803823 -8.41251196005289 0.0
-7.862078692618412 -36.10177033464163 0.0
8.387693823454779 36.44673844565912 0.0
-46.86026167424509 -36.33176564404296 0.0
-47.84280426237672 -40.10656090758755 0.0
-24.2845560941761 10.04357796342171 0.0
24.45065917299803 -10.63823576451899 0.0
10.67341336290341 25.03669293607638 0.0
-10.66487524635786 -24.46785092437751 0.0
-9.442240815741325 24.5716331986801 0.0
10.55599485582231 -25.14245433446974 0.0
-25.4176844222611 -9.602754668773738 0.0
24.57370499155401 9.440224709866296 0.0
31.7775279301888 -39.86443256499796 0.0
-28.74292279463252 -19.72043452254821 0.0
-19.91350375568665 28.7759248820648 0.0
28.78440433333324 19.90267071306655 0.0
34.27171978713856 -36.12886642978678 0.0
-24.97928262938201 -22.11982520009731 0.0
24.93910918910761 22.11705602762547 0.0
-22.12717428288939 24.92334430133729 0.0
41.4433884223758 30.01312781027387 0.0
-30.30972234325325 41.26155945377006 0.0
-21.76575115563634 -24.81903908726212 0.0
21.86738564489765 -24.44453101328128 0.0
21.70053754803671 24.80786306315723 0.0
24.66866364651609 -21.69992801870708 0.0
21.53397179143645 20.79002112385452 0.0
-20.81238915222155 21.52823876486881 0.0
-21.56726400591951 -20.79710903808696 0.0
-32.41141883193087 38.15853607211221 0.0
-25.19718413950319 21.19588217897681 0.0
-26.28637981374742 5.757344021361345 0.0
27.09044992097831 -7.865367665577171 0.0
5.292297663326828 26.15875440873394 0.0
-7.182834282322627 -26.79319164752931 0.0
6.07554513823264 -26.01617958827297 0.0
-5.167406982938196 26.14218292748527 0.0
26.1420072436647 5.166883667742996 0.0
-25.90619011663622 -5.317432027607834 0.0
37.00465183982011 -32.44224693105269 0.0
20.88652671096859 -20.77498475663256 0.0
-28.79982085586687 -16.4369437253037 0.0
-37.45350829121612 -23.11877944895929 0.0
-15.10258591314434 28.89602376670976 0.0
28.9013055661156 15.09521053187982 0.0
29.68999742037443 -43.31981760192348 0.0
32.28802864858128 -31.62881681890865 0.0
27.82804206942537 -30.30013556405221 0.0
-38.14439335805944 -27.66627416732167 0.0
-22.98369302518139 36.67752571171749 0.0
41.06123645712469 -32.8726901915552 0.0
36.8149944293849 23.09956855971062 0.0
30.62108924979503 -27.41426834463885 0.0
-42.49714928391047 -28.93273599191799 0.0
18.64170406124944 -28.53882502576317 0.0
-31.8721956957397 -37.10275290420343 0.0
38.05743322617566 32.24492185236286 0.0
28.61679479186527 -18.51328504651171 0.0
-18.47455258739948 -28.71169188983244 0.0
-32.79333722339119 -41.28544063528315 0.0
-30.24441309414651 -28.39779293230465 0.0
27.24885644594872 -39.76191319704936 0.0
-29.05665361759432 18.16192768609967 0.0
-28.48010453428999 29.9443665808475 0.0
-27.18014007087914 -30.95699773619476 0.0
37.54130055318566 27.7669489208769 0.0
17.9155158341415 28.03638967459029 0.0
-27.57094307763599 37.93969612336196 0.0
-30.97397708962258 26.82237305728564 0.0
26.78179049924921 30.94065166786703 0.0
39.59204495502527 -29.17613422922446 0.0
29.96137657966497 28.44157396572155 0.0
46.22951749688345 -23.10348972462486 0.0
30.5010366361774 32.76492978218841 0.0
-28.74508703314905 -39.67600195136983 0.0
-32.80254604484505 30.6430386233863 0.0
-35.17450863250387 -34.40542732519621 0.0
-40.86320176941266 31.24387768384927 0.0
-31.16926360526568 -32.74167721485155 0.0
-18.29235422726632 -14.07297047736662 0.0
-14.07591592655374 18.20333108125833 0.0
18.21377941283814 14.07715105758181 0.0
-42.75411559414035 8.592811767496478 0.0
43.39334985526564 -6.944158408799351 0.0
8.797223026487808 42.6608082197339 0.0
-9.490762946082466 -43.97245280505431 0.0
-25.90232122849978 33.44073908523711 0.0
-36.42010031645136 38.08814524026629 0.0
-24.50274483972967 -45.62129349970063 0.0
33.39817839843299 25.86047376623846 0.0
30.9440428473042 40.97733438204173 0.0
-39.24848436563897 -32.15184566594076 0.0
-36.96453485115451 30.97953267423736 0.0
-33.73039942317713 -25.72802894429692 0.0
-24.0421762222579 29.2833252825036 0.0
24.56499477991099 -32.73283792917382 0.0
-45.71626931619788 -31.97831920681199 0.0
14.81453938568843 -26.83464864859409 0.0
24.20991787485559 -36.83071623954785 0.0
29.28261406326955 24.01922903602504 0.0
45.2669583349542 25.1940279193114 0.0
-34.5927455110154 34.48199251046626 0.0
25.02993334449447 13.25525763516154 0.0
-13.25693681265574 25.01962940230319 0.0
-26.3836775832552 -13.65895279252274 0.0
-29.42597287582431 -23.98010393094112 0.0
30.74664517741998 36.97902902031694 0.0
38.01985475999823 36.23486146701501 0.0
34.34803934320186 34.56360979994062 0.0
36.26704224384486 -40.22600997812489 0.0
26.86814794906538 -14.74030795864398 0.0
-14.73044119909943 -26.92144100865037 0.0
14.64765790954706 25.70244253836058 0.0
-26.49251568532352 14.14247946127732 0.0
-39.48758295567198 27.83624405073167 0.0
-44.66607386367298 31.58755726078512 0.0
27.67242487226863 39.49781283126286 0.0
-46.55675186613041 -27.7621746902413 0.0
-39.45600522301348 2.381576184787837 0.0
30.66396661694665 44.39449981822943 0.0
7.857090284066949 -43.27191349714475 0.0
-9.159082885848226 43.31969347140967 0.0
-43.62116548617896 -9.253162047198638 0.0
43.611430039383 9.040613863437962 0.0
45.98376717286205 32.2009835676242 0.0
-45.389712979206 23.86914127750428 0.0
10.34228162882368 -39.99424199609026 0.0
-43.67182065233586 17.51833736258743 0.0
33.05028478376012 -24.45798819789671 0.0
-39.67852562212685 10.69446869876732 0.0
41.30332959498383 -10.12984759752794 0.0
11.34367296257085 39.09720076987105 0.0
-10.88813169860112 -40.26160986423455 0.0
17.68115346783402 43.55158748812199 0.0
23.81133263496577 45.37465429702623 0.0
-24.21477708668854 -33.24418528356734 0.0
-38.75091420128646 -36.52976907067565 0.0
45.26097195937459 -33.62178219366206 0.0
34.2175687603951 43.43437483821785 0.0
43.58359628715256 46.36436102462177 0.0
22.49068308813261 -41.36141860811821 0.0
-16.49612922610315 46.46889704172005 0.0
45.45731611874064 16.61099966478978 0.0
23.32075006006632 -28.86688113527965 0.0
43.78120466144439 22.42130580750169 0.0
-23.05199524807827 42.8073676407578 0.0
-33.21780115492601 23.8802161043464 0.0
-32.88131466013829 -45.12916391509268 0.0
-12.21852879601559 46.37003840516165 0.0
12.68254213086002 -46.95803841041158 0.0
-46.44682984019337 -12.07028681347912 0.0
46.368502470457 12.21700317338924 0.0
-47.50656647873077 12.46160355352135 0.0
12.49772665178411 47.50158423076506 0.0
-12.28265180294652 -46.89783805356987 0.0
-3.784605527721563 39.26762646546352 0.0
-38.26583489745879 -3.513573764117757 0.0
23.35399842694721 33.33716781648582 0.0
-23.01824103204051 -29.25803295477584 0.0
37.65981943679709 -24.83183282924892 0.0
37.95339171695685 -44.41709099308546 0.0
29.06147032268861 -23.11808967269176 0.0
-32.28050962748894 -10.45216305041422 0.0
22.63462329308984 29.26925584229041 0.0
42.22946982563396 -24.98616802294894 0.0
-24.40176943548067 -37.75136497953744 0.0
15.28456907833274 -44.19138684509478 0.0
-29.24378688698793 22.84763830097437 0.0
-2.730717915239267 32.42776599584344 0.0
2.985326047153879 -32.09665181538278 0.0
32.42756409409181 2.73053293116756 0.0
-33.2008857284848 -1.779286612206676 0.0
33.10728888970361 -4.200165305863423 0.0
-33.24920662120177 4.705315264350861 0.0
5.35467298512423 33.65539659523793 0.0
-3.71093239838771 -33.26207075614978 0.0
-25.08491320105205 -41.7910731553382 0.0
-21.70477177110357 39.9396383172768 0.0
-37.39559096185176 23.98819575107854 0.0
40.02673130927776 21.43045826939929 0.0
-38.17643466040309 41.31751653961903 0.0
-42.28737628336636 34.81441633977674 0.0
23.51595654981091 37.55469642733454 0.0
-45.43685154328325 -15.97552352726063 0.0
1.951831922298741 -23.22190297024119 0.0
-2.716919267654542 22.51366256351107 0.0
-22.43128952473501 -2.653122040379019 0.0
22.51357015653226 2.716726214107093 0.0
23.24338192508096 -1.858998830143491 0.0
-23.40529607523518 2.255009256770901 0.0
2.544843574512266 22.54871600298237 0.0
-2.344943004272483 -22.67700029238049 0.0
-40.78373382049886 -20.46167648598446 0.0
23.53331952422296 -46.10227274250673 0.0
-5.379525234768785 46.54605864896269 0.0
5.18656265570794 -46.55019183487264 0.0
46.54578705178262 5.379262074893452 0.0
-46.63858653186009 -5.419198644419137 0.0
-11.27299034254566 39.1594459455923 0.0
-39.41917377032643 -12.25245634408604 0.0
39.17171247084511 10.76431886454337 0.0
28.45143883563859 46.74704246057239 0.0
-46.78103518429548 28.6584376795706 0.0
-44.71823608998358 38.99085985437731 0.0
28.1661137251386 -46.62812885120958 0.0
42.59942759989208 -36.53473999539553 0.0
-44.32437218066914 -45.82829421422312 0.0
-10.07308123514103 27.83687864922294 0.0
8.887174428190713 -28.67710826936883 0.0
-29.39519034636816 -8.080780658776558 0.0
27.83890778889226 10.07028880302913 0.0
-28.81120868989421 9.613338105428737 0.0
9.52852946187912 29.44550799163751 0.0
-27.82940713094477 -47.20394413992642 0.0
46.16594428354865 -5.227897204048392 0.0
-4.344992781012237 -47.17354102974387 0.0
20.89070178964936 -34.9312531971647 0.0
-40.18450466959527 38.27200132002321 0.0
43.7699083197834 -39.60966085490522 0.0
37.75891881780754 40.30421782125342 0.0
-30.74070412629276 -13.6833295354835 0.0
-11.4293235511668 31.69155164873536 0.0
31.69061169328526 11.42492735600181 0.0
-21.88282974408322 -43.12495350631431 0.0
40.3478768248974 -40.07202049758223 0.0
21.01744837280825 43.46437911646579 0.0
-42.93654142480851 20.78409374694154 0.0
40.44584547842847 -15.36603429956696 0.0
-35.27051674230485 19.71777292592257 0.0
14.07608710620581 -40.57091742576254 0.0
19.0155456041985 35.89797855206449 0.0
35.72072125637826 -20.97241494379196 0.0
-41.30953943847621 24.15467782972293 0.0
-20.7895935409564 -35.20337669966668 0.0
-15.39590088150711 -40.11774072993636 0.0
23.83443073315342 41.54304094754578 0.0
-39.71485452247299 14.8792012438567 0.0
31.53911045077602 -46.77048324527022 0.0
15.91711439300562 39.78200810237781 0.0
39.50391324506235 -20.68159230960598 0.0
34.76868780347802 19.9549872542895 0.0
-19.95244127722108 34.75262490481177 0.0
-2.352567565848247 28.86111638316622 0.0
28.86101661273092 2.352387825475975 0.0
-35.02062089719441 46.50726166806006 0.0
-37.3394791905376 -41.06011503384426 0.0
38.78251641197095 45.72819737135973 0.0
44.3587895273903 -16.01479761831144 0.0
-17.96237256297601 -43.549021290574 0.0
-29.2479712196853 3.421022961629238 0.0
30.67536620016686 -0.4914470181134574 0.0
1.626676257092886 30.12819597382147 0.0
-0.7581016015596034 -30.34183406893162 0.0
-36.0349161702575 -18.41166548751916 0.0
-16.82687377969134 -16.74273847018291 0.0
-16.99535689037419 17.31249728963522 0.0
16.76801788445852 16.72138758599757 0.0
16.57737946623868 -16.54425079646755 0.0
-39.26885611211623 -7.799781908290981 0.0
0.8987954993666669 -40.22960191236773 0.0
-0.431326277078848 40.12844694678397 0.0
-39.53490800705038 -0.4981641722913104 0.0
38.94112847784663 1.545713640484382 0.0
8.948991043468133 -46.66003581939572 0.0
-47.34131637164648 -8.548529501048563 0.0
-8.747476214000415 -47.22638344536633 0.0
47.24653877566342 8.550811993885086 0.0
-8.551427383355714 47.2471581051068 0.0
-38.01645911095953 44.75936913457986 0.0
-32.0244112531224 46.79183300815812 0.0
-21.49128356452019 -7.401337324923633 0.0
-21.4829858127214 -11.88669873042717 0.0
45.52370100019567 1.093042895227357 0.0
-46.31971088087451 -1.000436795173481 0.0
-0.9123327375372096 46.30018608610672 0.0
1.415298204359818 -45.18239701938184 0.0
-7.490125935307967 21.52952705218452 0.0
21.53048451317721 7.489389847929297 0.0
-6.604111656599542 -22.53345851752308 0.0
-21.93094388335399 6.810529847952751 0.0
23.24790195907892 -6.554563716961505 0.0
-12.01530484001243 21.65441371339356 0.0
6.793927701778879 22.24932199444125 0.0
21.65823097787382 12.01271385840435 0.0
-32.7578637254792 8.95735466511468 0.0
6.800371367428713 -22.27132585311922 0.0
8.868981991972701 33.09194503975532 0.0
32.52024696254496 -10.96372775352367 0.0
-10.79155458387817 -32.58320753494758 0.0
45.89196283595568 -9.303153395529984 0.0
22.65749848453843 -13.86222515269921 0.0
-17.2222681495106 -19.81249365031845 0.0
-13.89532287244852 -22.66563450974666 0.0
17.16148034127474 19.75522207053878 0.0
13.89666970345974 -22.73911728576056 0.0
-15.06449206390618 32.45583065904845 0.0
13.8579907914976 22.51167005138225 0.0
32.45140185814345 15.05250349565029 0.0
-22.38143617081021 13.50174352513063 0.0
-34.99720410975066 -43.29201759936427 0.0
-19.65287476305809 18.49910991482686 0.0
16.88056763985711 -20.02765672454288 0.0
-36.05175636114199 11.99810199113258 0.0
46.22840724031474 36.23046095866492 0.0
-37.38114447356732 4.902808957137039 0.0
9.489335350381822 -32.22825854877907 0.0
19.99435152702641 -16.85235161582461 0.0
31.06711570699806 -7.617085439222946 0.0
4.897334462285786 37.29743523538321 0.0
38.58543159601813 15.5846331248032 0.0
-7.133501990166136 -31.00893174066447 0.0
-15.64807880423341 38.62504298508611 0.0
6.180941768346437 30.41181104872811 0.0
46.72395347013808 -30.77942893840272 0.0
-5.74103013594171 34.41042358725414 0.0
34.40969389891239 5.74028499626277 0.0
-30.09840124213721 6.12761932981204 0.0
-47.46897041921054 -43.7082667871633 0.0
-34.87336288762795 -4.917191506107566 0.0
37.48993120925683 -3.150733462686841 0.0
45.63898514765926 -2.391755727562408 0.0
-3.414397019353642 -37.73832135190472 0.0
5.945904085438757 -29.78894516650583 0.0
15.8525767690168 -47.38528773421916 0.0
15.33108490837751 -30.46376129263902 0.0
30.91932126878137 -14.5197881480331 0.0
-32.10142780438347 44.08209988146397 0.0
30.84503089601201 6.50929063287421 0.0
-6.510509504994916 30.84584296203149 0.0
-47.48830352751673 40.69280848074916 0.0
-14.43046396036058 -31.03989201738768 0.0
11.17316049440569 35.70452072982244 0.0
-46.75306076293847 3.715473189630325 0.0
3.804698959991915 46.78161745181856 0.0
-15.99710282023416 -46.78694711872815 0.0
-28.85607009079623 45.67186062099918 0.0
42.52037660433121 39.01607277866671 0.0
-16.43178368766621 21.15788425770072 0.0
28.81918299406516 -10.69287642948178 0.0
-6.814420179500674 38.5276521347372 0.0
37.9830690971662 6.0930319724401 0.0
6.170460344163463 -33.61019222661262 0.0
21.1891076858439 16.44700510106781 0.0
-20.61100154463511 -16.60443577455139 0.0
-10.67261405969346 -28.83799918339065 0.0
15.93089090918977 46.80276131737323 0.0
-46.82278928739177 15.91754715224133 0.0
47.08030700186296 23.15720810537092 0.0
-31.72691261520481 13.66685366698206 0.0
12.06804392752782 -29.71265533377547 0.0
-43.99016902508966 -24.77086174631929 0.0
45.60690977374499 28.25356104845801 0.0
12.23284387268576 32.63586632710199 0.0
-30.67895828481284 -47.24850641889444 0.0
40.71381054962541 -5.780468901743395 0.0
-6.245382670822798 -41.00593914562671 0.0
0.04122670852614377 -34.96003076635095 0.0
1.208919611397362 34.78410608477213 0.0
34.68989273695332 -0.06911203107258244 0.0
-36.02397792723743 0.3872339990911862 0.0
-47.60579428177628 31.86610867568002 0.0
-6.20800144836755 -44.4357177318071 0.0
32.18433204901267 47.04534116363804 0.0
4.207389043067255 40.77083846819889 0.0
5.415797655636512 43.99105642663729 0.0
-41.13010373214024 5.081183301919435 0.0
-42.96557696640625 1.364974567581056 0.0
-44.04458040311627 5.469812775885852 0.0
1.401183242875502 43.40714474136398 0.0
41.99265176882528 -1.644387236883892 0.0
-2.605259754933285 -43.79871485135303 0.0
13.54895909026492 28.86959237308456 0.0
-44.08433955811598 46.90312271045891 0.0
46.01805644224521 43.29908465780875 0.0
-46.42139598071188 8.444824943012918 0.0
8.509745079365437 46.40274311370855 0.0
46.91621779437245 -19.03281122713645 0.0
-24.38183980846764 39.91313997366621 0.0
47.2408057876539 -14.20640773460838 0.0
-32.47502528161832 -7.488700081805204 0.0
34.99006812207295 -46.96302266533372 0.0
-20.52993264049286 46.19124165655224 0.0
-13.08093302560058 -18.6033413254328 0.0
6.04817338187029 -39.91006899426107 0.0
18.60391129859582 -12.97399483931749 0.0
12.99253911098136 -18.61299940470116 0.0
43.28135974234355 -20.04154973638074 0.0
-42.55619551675659 -32.14983626804546 0.0
-30.74944229301699 -3.738121762027062 0.0
-10.44075947309608 -21.29473944142159 0.0
-24.50596564995784 46.14532366558771 0.0
10.25793337403336 21.48356717198536 0.0
7.718649905807215 39.46319356552929 0.0
-39.48797776006516 7.475884849818892 0.0
-4.089667652585582 -28.66960951734868 0.0
12.99323304610157 18.53156648569873 0.0
-47.55866851997573 -47.10731220027707 0.0
-23.3880433550982 -14.98330764068705 0.0
10.37984873699152 -21.4486975056583 0.0
38.4188704995637 -11.89059365185463 0.0
4.163925115900903 -36.17933222779381 0.0
21.2931401995853 -10.39600514989833 0.0
-38.68354660632483 -16.20728402289363 0.0
-40.57379075575491 -24.99006556810054 0.0
-47.26159194935779 -24.17834233332447 0.0
-1.202198605691927 -25.90395974302978 0.0
-26.4583979506419 2.519320601936815 0.0
35.32372672374684 47.12854081845406 0.0
-1.106990866279834 -47.23093058009575 0.0
-31.60607498341913 0.4327191269958171 0.0
46.43194642750343 -27.43067330382586 0.0
-18.14875799224159 32.07816221092285 0.0
32.08120576733511 18.1396926923019 0.0
-2.955661267654541 -40.69704842172446 0.0
-18.83953881788787 14.7586694799547 0.0
2.499717830978743 -27.89491222539403 0.0
-47.30157652899129 47.30644450302906 0.0
12.67952304264475 -37.54481013512771 0.0
27.84601325137979 -4.019539409135154 0.0
-20.42390964374141 10.64659902071009 0.0
-4.284751040294422 -25.31544394356227 0.0
40.75483478564721 7.532984215573745 0.0
-25.88019716009278 17.7031268222361 0.0
42.17308848119799 1.387470377096234 0.0
47.10209505088354 46.97930770169142 0.0
46.98439730667694 39.7115249548355 0.0
47.80178623215067 -48.12342328619587 0.0
CELLS 1232 4928
3 220 145 171
3 56 232 55
3 233 51 52
3 51 233 212
3 141 248 217
3 249 144 218
3 251 145 220
3 252 75 76
3 75 252 214
3 81 257 80
3 258 79 80
3 257 258 80
3 232 241 161
3 241 233 161
3 240 214 252
3 229 248 147
3 250 225 151
3 251 226 153
3 222 240 243
3 212 50 51
3 214 74 75
3 99 213 98
3 235 84 85
3 236 36 37
3 234 60 61
3 71 238 70
3 23 239 22
3 95 237 94
3 52 53 233
3 53 161 233
3 101 223 100
3 268 134 231
3 163 271 267
3 176 272 268
3 177 273 270
3 172 274 269
3 277 184 272
3 279 185 273
3 280 182 278
3 177 281 273
3 172 282 274
3 176 283 272
3 284 189 276
3 285 183 274
3 294 159 271
3 173 295 278
3 231 296 268
3 296 176 268
3 298 172 269
3 299 177 270
3 211 300 267
3 163 301 271
3 163 302 301
3 305 159 294
3 307 164 301
3 309 173 278
3 311 188 275
3 174 312 280
3 178 313 277
3 314 156 310
3 316 163 267
3 184 319 315
3 320 170 306
3 170 320 275
3 179 321 279
3 169 322 276
3 183 323 318
3 164 325 294
3 326 185 324
3 187 328 324
3 180 329 310
3 330 165 318
3 156 331 310
3 333 180 310
3 333 162 315
3 133 341 304
3 165 341 318
3 342 189 284
3 135 344 306
3 166 344 326
3 162 346 303
3 346 162 331
3 181 347 330
3 157 347 332
3 134 348 297
3 162 348 315
3 349 133 269
3 349 183 318
3 163 350 302
3 351 186 257
3 353 163 316
3 163 353 350
3 354 135 270
3 354 185 326
3 356 165 330
3 165 356 284
3 357 177 299
3 358 172 298
3 359 167 265
3 359 176 296
3 360 134 268
3 360 184 315
3 187 361 328
3 158 361 345
3 362 188 311
3 363 166 328
3 166 363 311
3 364 211 267
3 369 191 332
3 191 370 332
3 371 190 345
3 190 374 345
3 383 164 307
3 201 384 337
3 203 386 339
3 255 387 153
3 202 387 340
3 390 180 319
3 186 391 222
3 156 391 331
3 212 392 50
3 192 392 305
3 393 158 345
3 168 395 316
3 396 196 140
3 397 199 143
3 236 397 143
3 398 182 302
3 182 398 278
3 399 236 143
3 401 181 323
3 210 402 314
3 403 196 396
3 406 199 397
3 412 187 324
3 184 413 319
3 413 184 277
3 164 414 325
3 182 416 307
3 416 182 280
3 247 417 148
3 185 418 324
3 418 185 279
3 419 192 325
3 180 420 329
3 234 421 141
3 197 421 404
3 183 422 323
3 422 183 285
3 210 431 343
3 431 210 329
3 432 216 304
3 181 433 369
3 170 434 306
3 434 219 306
3 435 189 342
3 436 157 332
3 187 437 371
3 438 198 142
3 235 438 142
3 198 438 405
3 117 439 5
3 102 440 4
3 193 440 291
3 110 441 109
3 195 441 293
3 125 442 124
3 194 442 292
3 443 123 124
3 444 108 109
3 445 131 4
3 445 193 288
3 446 116 5
3 456 190 389
3 457 191 380
3 213 458 436
3 460 159 305
3 167 464 265
3 468 72 73
3 468 210 343
3 471 132 350
3 157 472 342
3 472 157 436
3 473 212 233
3 241 473 233
3 212 473 460
3 158 474 362
3 474 158 393
3 231 475 296
3 478 171 145
3 478 238 343
3 159 479 364
3 479 159 460
3 480 239 389
3 481 237 380
3 136 483 401
3 484 248 141
3 191 487 380
3 487 191 369
3 138 488 390
3 251 489 145
3 190 490 389
3 490 190 371
3 249 491 144
3 219 495 306
3 495 219 230
3 495 135 306
3 216 496 304
3 496 216 228
3 496 133 304
3 500 240 222
3 503 238 478
3 145 503 478
3 439 446 5
3 440 445 4
3 440 193 445
3 442 443 124
3 442 194 443
3 441 444 109
3 441 195 444
3 421 484 141
3 421 197 484
3 491 382 144
3 201 382 491
3 203 388 493
3 459 448 168
3 500 391 156
3 222 391 500
3 382 481 144
3 382 237 481
3 388 239 480
3 454 142 198
3 508 148 231
3 152 485 227
3 364 271 159
3 267 271 364
3 316 300 168
3 267 300 316
3 360 272 184
3 268 272 360
3 349 274 183
3 269 274 349
3 354 273 185
3 270 273 354
3 294 301 164
3 294 271 301
3 277 283 178
3 277 272 283
3 279 281 179
3 279 273 281
3 285 282 175
3 274 282 285
3 311 320 166
3 311 275 320
3 284 322 165
3 284 276 322
3 413 313 138
3 277 313 413
3 309 398 132
3 309 278 398
3 280 295 174
3 280 278 295
3 418 321 139
3 279 321 418
3 416 312 137
3 280 312 416
3 342 356 157
3 342 284 356
3 422 317 136
3 285 317 422
3 305 325 192
3 305 294 325
3 359 475 167
3 359 296 475
3 303 348 162
3 303 297 348
3 307 302 182
3 301 302 307
3 398 350 132
3 302 350 398
3 308 303 346
3 322 341 165
3 322 304 341
3 460 392 212
3 305 392 460
3 320 344 166
3 320 306 344
3 383 416 137
3 383 307 416
3 333 331 162
3 310 331 333
3 314 329 210
3 314 310 329
3 362 363 158
3 362 311 363
3 360 348 134
3 315 348 360
3 333 319 180
3 315 319 333
3 353 395 217
3 353 316 395
3 349 341 133
3 318 341 349
3 330 323 181
3 318 323 330
3 390 413 138
3 390 319 413
3 401 422 136
3 401 323 422
3 412 418 139
3 412 324 418
3 326 328 166
3 326 324 328
3 325 414 419
3 354 344 135
3 326 344 354
3 363 361 158
3 328 361 363
3 431 420 171
3 329 420 431
3 356 347 157
3 330 347 356
3 346 391 186
3 346 331 391
3 369 347 181
3 332 347 369
3 436 370 213
3 332 370 436
3 435 472 215
3 435 342 472
3 478 431 171
3 343 431 478
3 371 361 187
3 345 361 371
3 345 374 393
3 471 353 217
3 350 353 471
3 369 433 487
3 371 437 490
3 375 381 197
3 417 464 167
3 481 380 487
3 486 383 137
3 480 389 490
3 474 501 242
3 474 393 501
3 472 458 215
3 436 458 472
3 479 473 241
3 460 473 479
3 81 82 351
3 257 81 351
3 493 152 386
3 203 493 386
3 150 491 249
3 201 491 384
3 153 489 251
3 489 153 387
3 202 489 387
3 151 482 250
3 484 197 381
3 432 140 216
3 140 432 400
3 434 143 219
3 143 434 399
3 434 170 399
3 259 286 466
3 291 263 462
3 290 264 463
3 261 288 467
3 293 265 464
3 292 266 465
3 58 492 57
3 211 492 300
3 34 379 33
3 188 379 275
3 25 456 24
3 190 456 374
3 97 457 96
3 191 457 370
3 459 58 59
3 459 492 58
3 459 168 300
3 459 300 492
3 372 308 351
3 204 469 338
3 470 66 67
3 469 42 43
3 399 170 355
3 41 451 40
3 89 452 88
3 65 450 64
3 17 449 16
3 207 377 452
3 208 378 451
3 205 375 450
3 206 376 449
3 39 406 38
3 406 378 199
3 87 405 86
3 405 377 198
3 408 20 21
3 409 68 69
3 409 202 340
3 63 404 62
3 15 403 14
3 403 376 196
3 407 92 93
3 236 37 397
3 376 453 196
3 453 244 146
3 378 455 199
3 455 246 149
3 377 454 198
3 454 247 148
3 148 475 231
3 475 148 417
3 167 475 417
3 244 476 146
3 246 477 149
3 237 95 380
3 239 23 389
3 238 71 343
3 437 187 412
3 55 232 161
3 433 181 401
3 433 483 218
3 433 401 483
3 461 252 76
3 77 461 76
3 240 252 461
3 243 240 461
3 8 160 7
3 164 383 414
3 414 383 486
3 420 180 390
3 420 220 171
3 420 488 220
3 420 390 488
3 9 499 8
3 395 141 217
3 141 395 234
3 168 448 395
3 448 234 395
3 448 59 60
3 459 59 448
3 60 234 448
3 415 211 364
3 415 241 232
3 415 479 241
3 415 364 479
3 500 156 314
3 500 214 240
3 242 501 394
3 402 74 214
3 85 438 235
3 485 139 227
3 139 485 412
3 437 485 221
3 437 412 485
3 218 483 249
3 224 483 136
3 150 483 224
3 150 249 483
3 220 488 251
3 488 226 251
3 226 488 138
3 179 367 321
3 321 227 139
3 200 502 482
3 202 503 489
3 489 503 145
3 317 224 136
3 178 366 313
3 313 226 138
3 447 235 142
3 471 217 248
3 229 471 248
3 471 229 132
3 352 173 309
3 229 309 132
3 486 225 250
3 225 486 137
3 174 365 312
3 312 225 137
3 458 213 99
3 458 223 215
3 14 396 13
3 14 403 396
3 38 397 37
3 38 406 397
3 96 380 95
3 96 457 380
3 24 389 23
3 24 456 389
3 72 343 71
3 72 468 343
3 48 327 47
3 86 438 85
3 86 405 438
3 513 454 377
3 454 513 247
3 63 518 404
3 375 518 450
3 87 519 405
3 377 519 452
3 519 377 405
3 520 68 409
3 340 520 409
3 39 521 406
3 378 521 451
3 521 378 406
3 15 522 403
3 376 522 449
3 522 376 403
3 523 160 8
3 499 523 8
3 10 524 9
3 524 499 9
3 265 526 359
3 41 527 451
3 89 528 452
3 17 529 449
3 65 530 450
3 263 536 358
3 266 538 357
3 542 254 151
3 543 255 153
3 545 365 174
3 283 546 178
3 547 366 178
3 281 548 179
3 352 549 173
3 476 550 146
3 550 476 298
3 550 228 146
3 551 367 179
3 477 552 149
3 552 477 299
3 552 230 149
3 553 368 175
3 554 402 214
3 554 500 314
3 500 554 214
3 402 554 314
3 282 555 175
3 556 295 173
3 253 557 539
3 557 253 384
3 245 560 147
3 295 561 174
3 199 564 143
3 564 199 455
3 196 566 140
3 566 196 453
3 568 49 50
3 392 568 50
3 423 569 154
3 425 570 155
3 461 572 243
3 79 572 78
3 575 469 204
3 578 62 404
3 421 578 404
3 579 229 147
3 225 580 151
3 581 276 189
3 499 581 189
3 584 100 223
3 584 458 99
3 458 584 223
3 100 584 99
3 226 585 153
3 152 586 386
3 256 586 541
3 586 256 386
3 589 70 238
3 503 589 238
3 276 590 169
3 362 591 188
3 594 410 154
3 600 22 239
3 388 600 239
3 601 94 237
3 382 601 237
3 36 602 35
3 602 355 35
3 275 606 170
3 606 355 170
3 607 152 227
3 608 402 210
3 608 468 73
3 468 608 210
3 338 609 204
3 615 98 213
3 370 615 213
3 98 615 97
3 340 616 520
3 26 617 25
3 621 373 516
3 569 594 154
3 569 244 594
3 570 595 155
3 570 246 595
3 258 572 79
3 258 243 572
3 624 575 204
3 337 620 622
3 385 544 200
3 385 338 544
3 339 618 619
3 340 610 616
3 546 547 178
3 561 545 174
3 548 551 179
3 549 556 173
3 557 491 150
3 384 491 557
3 192 568 392
3 208 451 527
3 207 452 528
3 205 450 530
3 206 449 529
3 197 518 375
3 197 404 518
3 207 513 377
3 207 411 513
3 585 543 153
3 410 206 515
3 154 515 209
3 154 410 515
3 411 207 516
3 580 542 151
3 74 608 73
3 74 402 608
3 425 155 613
3 612 154 209
3 423 154 612
3 617 456 25
3 374 456 617
3 615 457 97
3 370 457 615
3 524 581 499
3 577 596 424
3 556 561 295
3 556 512 561
3 525 526 265
3 531 536 263
3 532 538 266
3 603 557 150
3 607 586 152
3 541 586 607
3 224 603 150
3 67 68 520
3 161 54 55
3 527 41 42
3 469 575 42
3 527 42 575
3 89 90 528
3 528 90 587
3 17 18 529
3 529 18 588
3 626 367 261
3 467 626 261
3 599 366 262
3 593 365 260
3 352 604 264
3 604 463 264
3 33 558 32
3 558 33 379
3 600 21 22
3 21 600 408
3 203 600 388
3 203 408 600
3 601 93 94
3 93 601 407
3 201 601 382
3 201 407 601
3 589 69 70
3 69 589 409
3 503 202 589
3 589 202 409
3 61 578 234
3 578 61 62
3 578 421 234
3 591 474 242
3 474 591 362
3 336 597 538
3 597 357 538
3 357 597 177
3 335 592 536
3 592 358 536
3 358 592 172
3 610 387 255
3 387 610 340
3 255 576 610
3 609 385 254
3 385 609 338
3 254 574 609
3 373 620 559
3 334 598 526
3 236 602 36
3 602 236 399
3 355 602 399
3 467 288 567
3 506 429 567
3 63 64 518
3 64 450 518
3 466 286 571
3 504 428 571
3 87 88 519
3 88 452 519
3 15 16 522
3 16 449 522
3 39 40 521
3 40 451 521
3 498 194 292
3 497 193 291
3 193 506 288
3 506 567 288
3 35 355 606
3 379 606 275
3 606 379 34
3 35 606 34
3 504 571 286
3 523 215 160
3 215 523 435
3 499 189 523
3 523 189 435
3 551 261 367
3 290 463 577
3 553 259 368
3 545 260 365
3 547 262 366
3 292 465 582
3 582 498 292
3 425 498 582
3 291 462 583
3 583 497 291
3 423 497 583
3 264 549 352
3 455 595 246
3 206 410 594
3 594 453 376
3 453 594 244
3 206 594 376
3 570 425 582
3 582 477 246
3 477 582 465
3 246 570 582
3 569 423 583
3 583 476 244
3 476 583 462
3 244 569 583
3 256 541 429
3 467 567 541
3 567 429 541
3 255 430 576
3 430 611 576
3 254 427 574
3 427 613 574
3 313 585 226
3 585 313 366
3 366 599 585
3 565 430 255
3 255 543 565
3 43 44 544
3 544 338 469
3 469 43 544
3 321 626 227
3 626 321 367
3 626 607 227
3 562 427 254
3 254 542 562
3 312 580 225
3 580 312 365
3 365 593 580
3 612 209 563
3 256 429 563
3 429 612 563
3 253 539 428
3 466 571 539
3 571 428 539
3 253 428 559
3 428 614 559
3 245 596 560
3 577 463 560
3 577 560 596
3 579 309 229
3 309 579 352
3 604 352 579
3 611 507 424
3 611 430 507
3 194 498 505
3 505 498 425
3 613 505 425
3 613 427 505
3 193 497 506
3 506 497 423
3 612 506 423
3 612 429 506
3 419 414 494
3 537 130 131
3 537 288 261
3 445 288 537
3 445 537 131
3 534 107 108
3 534 286 259
3 444 286 534
3 444 534 108
3 533 115 116
3 533 289 262
3 446 533 116
3 393 374 617
3 535 122 123
3 535 287 260
3 443 535 123
3 111 525 110
3 293 525 265
3 293 441 525
3 525 441 110
3 494 486 250
3 486 494 414
3 118 540 117
3 290 540 264
3 290 439 540
3 540 439 117
3 126 532 125
3 292 532 266
3 292 442 532
3 532 442 125
3 103 531 102
3 291 531 263
3 291 440 531
3 531 440 102
3 598 283 176
3 598 546 283
3 598 334 509
3 509 546 598
3 597 281 177
3 597 548 281
3 597 336 511
3 511 548 597
3 623 588 619
3 621 587 622
3 481 218 144
3 487 433 218
3 481 487 218
3 335 536 104
3 317 603 224
3 603 317 368
3 336 538 127
3 513 573 247
3 411 573 513
3 524 10 590
3 276 581 590
3 524 590 581
3 334 526 112
3 222 243 186
3 257 186 243
3 257 243 258
3 134 508 231
3 508 134 297
3 592 282 172
3 592 555 282
3 592 335 510
3 592 510 555
3 437 221 490
3 493 388 221
3 388 480 221
3 480 490 221
3 520 470 67
3 616 470 520
3 619 618 623
3 621 620 373
3 622 620 621
3 536 103 104
3 531 103 536
3 538 126 127
3 532 126 538
3 526 111 112
3 525 111 526
3 29 394 28
3 627 7 160
3 629 92 407
3 630 20 408
3 169 632 322
3 304 632 432
3 632 304 322
3 634 417 247
3 573 634 247
3 635 57 492
3 211 635 492
3 638 375 205
3 642 186 351
3 642 308 346
3 308 642 351
3 186 642 346
3 644 533 262
3 547 644 262
3 645 400 169
3 646 537 261
3 551 646 261
3 647 386 256
3 563 647 256
3 648 384 253
3 648 559 620
3 559 648 253
3 651 77 0
3 78 651 0
3 77 651 461
3 652 359 526
3 652 598 176
3 598 652 526
3 359 652 176
3 540 653 264
3 653 549 264
3 654 151 254
3 385 654 254
3 151 654 482
3 655 424 596
3 656 535 260
3 545 656 260
3 454 657 142
3 508 657 148
3 657 454 148
3 215 627 160
3 215 223 627
3 400 632 169
3 400 432 632
3 630 203 339
3 408 203 630
3 629 201 337
3 407 201 629
3 572 651 78
3 572 461 651
3 627 6 7
3 648 337 384
3 620 337 648
3 415 635 211
3 637 644 547
3 650 646 551
3 639 656 545
3 653 640 549
3 426 643 573
3 633 45 46
3 633 502 200
3 631 502 633
3 46 631 633
3 633 44 45
3 544 633 200
3 544 44 633
3 636 12 13
3 636 13 396
3 636 396 140
3 400 636 140
3 242 394 628
3 628 591 242
3 386 647 339
3 618 647 563
3 647 618 339
3 645 11 12
3 636 400 645
3 12 636 645
3 537 646 130
3 535 656 122
3 533 644 115
3 653 540 118
3 655 611 424
3 634 464 417
3 464 634 643
3 634 573 643
3 20 630 19
3 619 630 339
3 467 607 626
3 467 541 607
3 47 631 46
3 631 47 327
3 631 641 502
3 92 629 91
3 622 629 337
3 650 128 129
3 637 113 114
3 381 638 245
3 638 381 375
3 56 415 232
3 415 56 635
3 57 635 56
3 639 120 121
3 120 640 119
3 335 105 510
3 335 104 105
3 527 575 624
3 336 128 511
3 336 127 128
3 334 113 509
3 334 112 113
3 560 463 604
3 604 147 560
3 579 147 604
3 293 643 195
3 643 293 464
3 466 368 259
3 466 603 368
3 558 379 188
3 591 558 188
3 205 530 514
3 206 529 623
3 515 206 623
3 588 623 529
3 207 528 621
3 516 207 621
3 587 621 528
3 593 542 580
3 599 543 585
3 610 625 616
3 614 516 373
3 373 559 614
3 614 411 516
3 358 462 263
3 298 462 358
3 476 462 298
3 357 465 266
3 299 465 357
3 477 465 299
3 590 10 11
3 11 645 590
3 590 645 169
3 82 372 351
3 372 82 83
3 250 482 494
3 482 641 494
3 482 502 641
3 466 539 603
3 603 539 557
3 609 624 204
3 574 624 609
3 262 289 599
3 599 289 565
3 565 543 599
3 260 287 593
3 593 287 562
3 562 542 593
3 641 327 419
3 327 641 631
3 494 641 419
3 650 548 511
3 128 650 511
3 548 650 551
3 140 566 216
3 228 566 146
3 453 146 566
3 228 216 566
3 143 564 219
3 230 564 149
3 455 149 564
3 230 219 564
3 611 514 576
3 611 655 514
3 637 546 509
3 113 637 509
3 546 637 547
3 235 447 605
3 605 308 372
3 556 640 512
3 640 120 512
3 549 640 556
3 639 561 512
3 120 639 512
3 639 545 561
3 152 493 485
3 221 485 493
3 625 470 616
3 625 514 530
3 646 129 130
3 650 129 646
3 656 121 122
3 639 121 656
3 644 114 115
3 637 114 644
3 119 653 118
3 119 640 653
3 658 303 308
3 605 658 308
3 83 659 372
3 659 605 372
3 195 661 444
3 286 661 504
3 661 286 444
3 661 195 504
3 26 662 617
3 662 26 27
3 66 663 65
3 663 530 65
3 664 428 504
3 428 664 614
3 665 192 419
3 327 665 419
3 269 666 298
3 666 269 133
3 270 667 299
3 667 270 135
3 576 668 610
3 625 668 514
3 668 625 610
3 668 576 514
3 669 553 175
3 555 669 175
3 290 670 439
3 6 671 3
3 671 101 3
3 147 672 245
3 672 381 245
3 496 666 133
3 496 228 666
3 495 667 135
3 495 230 667
3 550 666 228
3 550 298 666
3 552 667 230
3 552 299 667
3 393 662 501
3 393 617 662
3 27 501 662
3 84 659 83
3 659 84 235
3 605 659 235
3 595 517 155
3 208 517 595
3 470 663 66
3 663 470 625
3 530 663 625
3 672 147 248
3 672 484 381
3 484 672 248
3 671 6 627
3 223 671 627
3 671 223 101
3 209 515 618
3 618 563 209
3 623 618 515
3 649 507 430
3 649 565 289
3 565 649 430
3 245 655 596
3 638 655 245
3 673 505 427
3 673 562 287
3 562 673 427
3 669 555 510
3 105 669 510
3 669 105 106
3 658 297 303
3 297 658 447
3 658 605 447
3 657 447 142
3 447 508 297
3 508 447 657
3 194 673 443
3 673 194 505
3 535 673 287
3 535 443 673
3 588 18 19
3 630 588 19
3 619 588 630
3 439 660 446
3 670 660 439
3 507 649 660
3 587 90 91
3 629 587 91
3 622 587 629
3 613 155 517
3 613 517 574
3 624 574 517
3 674 553 669
3 106 674 669
3 533 675 289
3 660 675 446
3 675 533 446
3 378 676 455
3 595 676 208
3 676 595 455
3 676 378 208
3 175 677 285
3 317 677 368
3 677 317 285
3 677 175 368
3 675 649 289
3 660 649 675
3 107 674 106
3 27 28 501
3 28 394 501
3 638 205 514
3 655 638 514
3 665 48 49
3 49 568 665
3 192 665 568
3 48 665 327
3 424 670 577
3 507 670 424
3 577 670 290
3 660 670 507
3 614 664 426
3 643 426 664
3 504 195 664
3 643 664 195
3 411 426 573
3 614 426 411
3 678 208 527
3 678 624 517
3 624 678 527
3 208 678 517
3 674 534 259
3 674 107 534
3 553 674 259
3 679 29 2
3 30 679 2
3 394 679 628
3 679 394 29
3 32 680 31
3 680 628 31
3 680 32 558
3 681 53 1
3 681 54 161
3 54 681 1
3 53 681 161
3 628 30 31
3 30 628 679
3 591 680 558
3 591 628 680
3 482 385 200
3 654 385 482
CELL_TYPES 1232
5
5
5
5
5
5
5
5
5
5
5
5
5
5
5
5
5
5
5
5
5
5
5
5
5
5
5
5
5
5
5
5
5
5
5
5
5
5
5
5
5
5
5
5
5
5
5
5
5
5
5
5
5
5
5
5
5
5
5
5
5
5
5
5
5
5
5
5
5
5
5
5
5
5
5
5
5
5
5
5
5
5
5
5
5
5
5
5
5
5
5
5
5
5
5
5
5
5
5
5
5
5
5
5
5
5
5
5
5
5
5
5
5
5
5
5
5
5
5
5
5
5
5
5
5
5
5
5
5
5
5
5
5
5
5
5
5
5
5
5
5
5
5
5
5
5
5
5
5
5
5
5
5
5
5
5
5
5
5
5
5
5
5
5
5
5
5
5
5
5
5
5
5
5
5
5
5
5
5
5
5
5
5
5
5
5
5
5
5
5
5
5
5
5
5
5
5
5
5
5
5
5
5
5
5
5
5
5
5
5
5
5
5
5
5
5
5
5
5
5
5
5
5
5
5
5
5
5
5
5
5
5
5
5
5
5
5
5
5
5
5
5
5
5
5
5
5
5
5
5
5
5
5
5
5
5
5
5
5
5
5
5
5
5
5
5
5
5
5
5
5
5
5
5
5
5
5
5
5
5
5
5
5
5
5
5
5
5
5
5
5
5
5
5
5
5
5
5
5
5
5
5
5
5
5
5
5
5
5
5
5
5
5
5
5
5
5
5
5
5
5
5
5
5
5
5
5
5
5
5
5
5
5
5
5
5
5
5
5
5
5
5
5
5
5
5
5
5
5
5
5
5
5
5
5
5
5
5
5
5
5
5
5
5
5
5
5
5
5
5
5
5
5
5
5
5
5
5
5
5
5
5
5
5
5
5
5
5
5
5
5
5
5
5
5
5
5
5
5
5
5
5
5
5
5
5
5
5
5
5
5
5
5
5
5
5
5
5
5
5
5
5
5
5
5
5
5
5
5
5
5
5
5
5
5
5
5
5
5
5
5
5
5
5
5
5
5
5
5
5
5
5
5
5
5
5
5
5
5
5
5
5
5
5
5
5
5
5
5
5
5
5
5
5
5
5
5
5
5
5
5
5
5
5
5
5
5
5
5
5
5
5
5
5
5
5
5
5
5
5
5
5
5
5
5
5
5
5
5
5
5
5
5
5
5
5
5
5
5
5
5
5
5
5
5
5
5
5
5
5
5
5
5
5
5
5
5
5
5
5
5
5
5
5
5
5
5
5
5
5
5
5
5
5
5
5
5
5
5
5
5
5
5
5
5
5
5
5
5
5
5
5
5
5
5
5
5
5
5
5
5
5
5
5
5
5
5
5
5
5
5
5
5
5
5
5
5
5
5
5
5
5
5
5
5
5
5
5
5
5
5
5
5
5
5
5
5
5
5
5
5
5
5
5
5
5
5
5
5
5
5
5
5
5
5
5
5
5
5
5
5
5
5
5
5
5
5
5
5
5
5
5
5
5
5
5
5
5
5
5
5
5
5
5
5
5
5
5
5
5
5
5
5
5
5
5
5
5
5
5
5
5
5
5
5
5
5
5
5
5
5
5
5
5
5
5
5
5
5
5
5
5
5
5
5
5
5
5
5
5
5
5
5
5
5
5
5
5
5
5
5
5
5
5
5
5
5
5
5
5
5
5
5
5
5
5
5
5
5
5
5
5
5
5
5
5
5
5
5
5
5
5
5
5
5
5
5
5
5
5
5
5
5
5
5
5
5
5
5
5
5
5
5
5
5
5
5
5
5
5
5
5
5
5
5
5
5
5
5
5
5
5
5
5
5
5
5
5
5
5
5
5
5
5
5
5
5
5
5
5
5
5
5
5
5
5
5
5
5
5
5
5
5
5
5
5
5
5
5
5
5
5
5
5
5
5
5
5
5
5
5
5
5
5
5
5
5
5
5
5
5
5
5
5
5
5
5
5
5
5
5
5
5
5
5
5
5
5
5
5
5
5
5
5
5
5
5
5
5
5
5
5
5
5
5
5
5
5
5
5
5
5
5
5
5
5
5
5
5
5
5
5
5
5
5
5
5
5
5
5
5
5
5
5
5
5
5
5
5
5
5
5
5
5
5
5
5
5
5
5
5
5
5
5
5
5
5
5
5
5
5
5
5
5
5
5
5
5
5
5
5
5
5
5
5
5
5
5
5
5
5
5
5
5
5
5
5
5
5
5
5
5
5
5
5
5
5
5
5
5
5
5
5
5
5
5
5
5
5
5
5
5
5
5
5
5
5
5
5
5
5
5
5
5
5
5
5
5
5
5
5
5
5
5
5
5
5
5
5
5
5
5
5
5
5
5
5
5
5
5
5
5
5
5
5
5
5
5
5
5
5
5
5
5
5
5
5
5
5
5
5
5
5
5
5
5
5
5
5
5
5
5
5
5
5
5
5
5
5
5
5
5
5
5
5
5
5
5
5
5
5
5
5
5
5
5
5
5
5
5
5
5
5
5
5
5
5
5
5
5
5
5
5
5
5
5
5
5
5
5
5
5
5
5
5
5
5
5
5
5
5
5
5
5
5
5
5
5
5
5
5
5
5
5
5
5
5
5
5
5
5
5
5
5
5
5
5
5
5
5
5
5
5
5
5
5
5
5
5
5
5
5
5
5
5
5
5
5
5
5
5
5
5
5
5
5
5
5
5
5
5
5
5
5
5
5
5
5
5
5
5
5
5
5
5
5
5
5
5
5
5
5
5
5
5
5
5
5
5
5
5
5
5
5
5
5
5
5
5
5
5
5
5
5
5
5
5
5
5
5
5
5
POINT_DATA 682
SCALARS Disp float 2
LOOKUP_TABLE default
-0.5 0.0
0.5 8.815041492387412e-05
0.5 -0.17377589357102322
-0.5 -0.17388230746413427
-4.9999780151406e-05 -0.2577181735841852
0.0013098499271910354 0.08364181935869501
-0.45198655151511075 -0.1756123465827457
-0.4041942330281792 -0.18042804205309593
-0.3568556627644866 -0.18855628694072554
-0.3101010069675086 -0.20017711809179872
-0.26433697947299467 -0.21468506525349382
-0.2204765914188297 -0.23157863588503522
-0.17863126456737438 -0.250485905063277
-0.13958941889099716 -0.2701118482100181
-0.10376946007054025 -0.28897919171599323
-0.0711066188850041 -0.30512164629931954
-0.04176188276630029 -0.3174405351648849
-0.013605699529659157 -0.3237265602982653
0.013851413167095837 -0.32381358481599715
0.041354443993944875 -0.3175557055918443
0.07120484569639189 -0.3056381234008573
0.10353533429217 -0.28880252879893475
0.13938837270432614 -0.2701049913924574
0.17854134557754245 -0.2503492359058727
0.2202867524349817 -0.2316663828715418
0.264340726217763 -0.21446970506666363
0.3101874789720281 -0.20019655108255138
0.3571222271432008 -0.18898335296804017
0.40410470709184476 -0.18073216734909622
0.4518703918788073 -0.17580072354400472
0.5 -0.16008823414439727
0.5 -0.14699812765507228
0.5 -0.1345015984562166
0.5 -0.12256395214227275
0.5 -0.11161817928000785
0.5 -0.10191091520642502
0.5 -0.0943095676452477
0.5 -0.08842530662500425
0.5 -0.08450866532410642
0.5 -0.08321892853977057
0.5 -0.08389658589584821
0.5 -0.08566490504123084
0.5 -0.08815503178520541
0.5 -0.08993853657226077
0.5 -0.09011765734970335
0.5 -0.08820635441684363
0.5 -0.08527697254875909
0.5 -0.07958738225736663
0.5 -0.07179130367943143
0.5 -0.06213574473104611
0.5 -0.0515411864028936
0.5 -0.03934408691737991
0.5 -0.026412650424098176
0.5 -0.01395174078338151
0.45178278694875557 0.0019735087595531007
0.4043176495898429 0.006844555240980841
0.3569943911608515 0.014894980189407103
0.31004903810004536 0.02643840081998023
0.2643475847755659 0.04088600736654435
0.22038159588907785 0.05795316575183102
0.178605464519604 0.07675642088153672
0.13956220451155965 0.09617556153713602
0.10372515045533337 0.11527662662222996
0.07119342110030974 0.1315572673461084
0.04133815679895117 0.14359705727699268
0.013296646260892197 0.1504236632061194
-0.013732467096073266 0.15028769694149882
-0.041259697188915506 0.14372282475904186
-0.07093114876372766 0.1315487872541165
-0.10357222848014153 0.11516158842589774
-0.1394179436536691 0.09636243852417055
-0.1784953970041152 0.07668528300947709
-0.22022543578499904 0.05793084037064073
-0.26435698274480357 0.04087323561646675
-0.31024485174377653 0.02630837189388817
-0.3567062080061151 0.0151264707364088
-0.4041927866331328 0.00694162230583764
-0.4516995380040428 0.0019403450005203787
-0.5 -0.013689376915159873
-0.5 -0.02683501703819976
-0.5 -0.03936843112158983
-0.5 -0.051298630799929655
-0.5 -0.06223029065388687
-0.5 -0.07164116861650402
-0.5 -0.0795608450077854
-0.5 -0.08558641873405395
-0.5 -0.08909951193091088
-0.5 -0.09042486374193164
-0.5 -0.08997332150892848
-0.5 -0.08824033886624041
-0.5 -0.08586661911370465
-0.5 -0.08380710247005965
-0.5 -0.08330102231036764
-0.5 -0.08479290792604695
-0.5 -0.08828766884178854
-0.5 -0.09408422901439698
-0.5 -0.102036161068039
-0.5 -0.11189825419055863
-0.5 -0.12269524024466066
-0.5 -0.1341189124375436
-0.5 -0.14691122849283772
-0.5 -0.1600483546868174
-0.09438270152990082 -0.25279463573971966
-0.18521535603279493 -0.2358400969450931
-0.2611221262359178 -0.21293084416045857
-0.3304118084869703 -0.18836993877409408
-0.38416237581088153 -0.1624100425544954
-0.4231911700619843 -0.13644233572378778
-0.44622237476046844 -0.11097861977084997
-0.4538832180126355 -0.08749144281585644
-0.4463872418486288 -0.06225941364032717
-0.42320375920772196 -0.03671577389715497
-0.38486478264159596 -0.012079640906214596
-0.3300116978988289 0.015211879053561927
-0.2614978882999777 0.04082083722182164
-0.18340513446144935 0.06234931439365569
-0.09523568895189152 0.07805992252482859
0.09411538357829591 0.07873977361324233
0.1838737778681109 0.0618132584990797
0.26145152538250216 0.040454571568086135
0.32970644948712396 0.015108132072984812
0.38522482818308457 -0.01202338067631791
0.4230662729333087 -0.037757893368870275
0.4461166239532967 -0.06167684967642286
0.45371264016031565 -0.0860036385891767
0.4463355532509746 -0.1114694942144059
0.42297754189244446 -0.13708895428873016
0.38479449173147484 -0.16120811853659664
0.33041533429838493 -0.18870184538401594
0.2617470318043779 -0.2144722242820691
0.18441231513254452 -0.23570375932107931
0.09543186212105316 -0.2522532009124988
0.23029504598122458 0.019847803907073153
-0.2351969881105633 -0.1927236798202006
-0.3880717868544513 -0.06522811355821141
0.38081632743573246 -0.11194233139059846
-0.38007988580889407 -0.11028319646935394
0.37795572177599623 -0.062207096239295115
-0.2259698408692483 0.02234140862334466
0.21862357849212127 -0.1999550563006172
-0.17272200292278378 -0.24478476588784953
0.17124713467068073 0.06977610648920476
-0.460544084527095 -0.08578887906176236
0.45716544176857365 -0.0907731338628731
-0.44918919623080017 -0.09175474519307596
-0.18186474540004813 0.06289610384113699
-0.13603047173745936 -0.25107723768051304
0.13980658105187801 0.07316596010246787
-0.4338321260857818 -0.08371921837881524
0.4362041790688717 -0.08948727007789231
-0.4300297827794281 -0.09231418443606858
0.437793878578621 -0.0844816372614525
0.14431837521173604 -0.2481994387260505
-0.13315006297157422 0.08062211353318326
-0.033948152440516154 -0.2933720698048842
0.46718919173860574 -0.0859350743305317
-0.3573678319523793 -0.01826951999217013
-0.3935887969875989 -0.13700903324325606
0.34326953146523403 -0.16120187362601118
0.391558737263238 -0.031427525260868124
-0.3931783562614767 -0.1719200103758597
0.44611036303737195 -0.00971447059442379
-0.36749820741113143 -0.04176513283982583
0.2972889101300134 -0.004210531913669611
0.37902496708014355 -0.049040337925242365
-0.31507121795821635 -0.1598875487014229
0.36195528891731843 -0.13417185359585776
-0.4225965634667734 -0.0792555714311784
0.2387646671128839 0.038764261040568244
-0.2541349781299009 -0.20361711977128014
0.43563232784277245 -0.10583014459499589
-0.2167484088266519 0.0443747732324061
-0.22912793510461008 -0.18713535686999372
0.23703476730510478 0.009288695335480577
0.3436654701039612 -0.04716453678603761
-0.3400059804524236 -0.12933937418688027
-0.3524879752058847 -0.05249510543202902
0.3516844054638481 -0.12123370907993447
-0.23563074690954303 0.010055780297217707
0.2351021839885903 -0.18387984302635868
-0.287343533577702 0.0004985227176689735
-0.38354928321376563 -0.12101892670499595
0.30687108508806327 -0.027331413572939698
-0.3106396218158673 -0.14432060219068868
-0.30219658599088006 -0.02437986411873309
0.30039507109512714 -0.15014008950809865
-0.43123897136846573 -0.04211362192679716
0.2796676466252957 -0.1773692008896583
0.42499281252716625 -0.12996526837957714
-0.33941475132892934 -0.17069841846476067
0.2602703499203261 -0.2029988046262885
-0.44674545362599455 -0.10909687908169621
0.44508121521809646 -0.059312499743625666
0.0009176501413307542 -0.2795249062555145
0.4596160513001679 -0.08718450419323628
-0.45994265977324983 -0.08656944975026844
-0.12541609143066346 -0.27031718479379013
0.10479671049051019 0.10767741004086068
-0.46990838513779154 -0.08832944386844663
0.46841913794551865 -0.08557039573945613
0.4743579852466608 -0.0890341677814243
-0.47470181429509994 -0.08454481292484319
-0.11986461540385858 0.10041130409879952
0.1148124642347142 -0.27732792519157545
0.48274844813150464 -0.08900427315455328
0.03729080378570478 0.13128379131306017
-0.03240405320882892 -0.3055743162378423
-0.48107459104928496 -0.08919408397825743
0.47965044698694714 -0.0845476499644577
0.013397422279557529 -0.29839245729077046
-0.2707203700369979 0.026084505982126166
0.32214193218786585 0.0066725932196595086
0.4643799617918408 -0.040441993212564635
-0.4681389135242388 -0.12675066731199813
-0.35519793536297306 0.0028504454901861396
-0.40936766438772787 -0.15720784746334163
-0.19155561271687446 -0.22686843440114476
0.20413515238863508 0.046582035474280484
-0.43364258087553126 -0.09765523134321409
0.4293866424776065 -0.09631119605062742
-0.20443612318238208 0.046693555855970806
0.19320218817653095 -0.22992606423988296
-0.40970534274166326 -0.02702463377466489
-0.461306977646352 -0.15328326948981588
-0.40495722888452595 -0.09982065669837441
0.40796917678893996 -0.07486346919717492
-0.18501164732812397 0.04808754616191869
0.17568861786771678 -0.2248992290310359
-0.17427195844401525 -0.23058610759868564
0.18689767260328702 0.04672419939919537
0.4206949159850247 -0.09517904365038742
-0.40292346231562853 -0.07398877249855622
0.3993437312301712 -0.0027505711728319066
0.46631953036683943 -0.027529238311082012
0.1688781821612852 0.07759769763359034
-0.47440908655867386 -0.0816596434947461
0.47820823903439535 -0.09163379264534678
-0.48046663642542053 -0.09122724160204082
-0.17459547747951873 0.07567499687687254
0.17123833302177116 -0.2511109687298596
-0.40727078126486616 -0.015952773415617974
0.420246312283696 -0.017727263647307565
0.4013980261331108 -0.15863271226283293
-0.44524723087342377 -0.029469021949930334
-0.0970670875927944 -0.26934037840163505
0.08782856025490396 0.10251499380353578
0.4492399174158983 -0.08666310670073009
-0.4525787230773058 -0.08772810221790285
0.16745106505913185 0.06414656049745436
-0.43457836775950764 -0.09308681091390562
0.4294654013743942 -0.07962178118090192
-0.17500106893067877 0.060364031739663954
-0.3966452389935905 -0.002751284753869203
-0.4589796430647973 -0.08531112275769934
0.4577341786918227 -0.08846690531068345
-0.07817685121269104 0.10600829098485079
0.08318348926878456 -0.27809872936465935
-0.47011642428653827 -0.04354826360028474
-0.4779961532778614 -0.03232982753284836
-0.41404861959233835 -0.10503386001835496
0.4094444700133232 -0.06831621062947635
0.1455129944371361 -0.23660279170915627
-0.14979370789076935 0.06130322927599257
-0.13423276654425256 -0.24250559070409802
0.14371683716786168 0.06378468946724213
-0.4206553317139646 -0.07319897424720426
0.4193995885365428 -0.10283431348696889
0.3140991977801723 0.00015612689604828692
-0.36535509119931364 -0.058811572060711394
-0.22933762309705827 -0.1898107247343072
0.36402364073339755 -0.11552442402072992
0.34857076706320955 -0.0210086709317561
-0.31892503487637797 -0.0366938283418779
0.3183384286071678 -0.13710554444465958
-0.27351070403331096 -0.1617734579468303
0.428097982469991 -0.1176244325131955
-0.29539796393798684 -0.18431993351273607
-0.2705214267890449 -0.01015714668045231
0.2740649619962607 -0.01232046370710286
0.26969954909388794 -0.16367485832400333
0.3190760840350952 -0.03705893874810042
0.29839308151621885 -0.14834026855202306
-0.2856180587324633 -0.15566472220940117
-0.29882938539106424 -0.025285767750056906
-0.3250096251590097 -0.1657799362125186
-0.32712212463536783 -0.1322902225627099
-0.4457223562999337 -0.09277235494363913
0.43589035262079256 -0.07980014464504367
0.0706088540124749 -0.2698790403160101
-0.09239375557371561 0.08785470035240467
0.08183124134424148 0.09191523366382455
-0.06883496020365132 -0.2702492153653926
0.4481120709774518 -0.0922176470474695
-0.4473897523260359 -0.08057718162791504
0.38363422319874707 -0.04057301909294874
0.2928197119575674 -0.021502508408947994
-0.38645045484317647 -0.06791361099897894
-0.413137438063645 -0.06848283776611477
-0.17601059618488613 -0.22021086527222053
0.39641167663896404 -0.10182049309021177
0.2830481124198085 0.020011606807823008
0.34176875716902505 -0.02972010516880466
0.30322798460518957 -0.017802114272628473
-0.4053815669291898 -0.057216702382432684
-0.23276799316213995 -0.20253793095126316
0.41994491084575497 -0.04736290262970151
0.40855632260530145 -0.10635438937244662
0.3411730464149296 -0.03873839517867548
-0.4388702754029678 -0.06064024240292619
0.21633422859361004 0.022882924140306085
-0.3220881880014652 -0.009484763832684906
0.39366212915591925 -0.1302416341263041
0.37190342211162775 -0.06225380932023916
-0.213664790374567 0.0246256660366285
-0.32098500704138916 0.001242548199357099
-0.3337344630413664 -0.03414718619762899
0.2677461955568938 0.018731982352417045
-0.37703180773977224 -0.10912260931075193
-0.3110309602197026 -0.1518754250647995
-0.2942884563150865 -0.012596779135187188
0.4000722763855968 -0.11779059683432296
0.2110820830472661 -0.1990612748247786
-0.2762762605180415 -0.18453698650747175
-0.3467160190979024 -0.1317820127445752
0.29041980629339503 -0.16287814689047245
0.41411064377308293 -0.05570460028788925
0.33093385104798206 -0.14090597897361942
0.4744975343643459 -0.07689905408649209
0.3208348686908862 -0.15427890884865147
-0.2833119653128924 0.011735926431135918
-0.34965924936290926 -0.13895157946378645
-0.3615915962033349 -0.02936240254850498
-0.42099605767585213 -0.12198094925869023
-0.3274670356712274 -0.022053438509040065
-0.348367949638303 -0.024182185243788113
-0.26149873543098107 -0.19249362188972313
0.34844668260758743 -0.15011893838508142
-0.47648842195842456 -0.08386228096855086
0.480423346850178 -0.08997189536950344
0.07818470292147081 -0.2917547716121984
-0.08224082685667297 0.1185985055452188
-0.272913911540389 -0.17616031196690723
-0.36559871827813645 -0.15288819494194442
-0.22173761544218554 0.050972009925168
0.3716753920654036 -0.12151891974251985
0.30254142550508745 -0.18081083345614266
-0.40468131667825236 -0.04629000607512835
-0.3867859353265683 -0.1287108511139273
-0.37484952393418813 -0.05356817187458254
-0.2697620417793269 -0.16920717711313019
0.26170152789900436 0.006356264783621012
-0.46255281033768203 -0.05554574287294988
0.18356578699496293 0.041055388563654205
0.2448235594903908 0.023132956501689457
0.34474492665428386 -0.12764616757458436
0.46550014336772666 -0.10188605141401737
-0.35586645489471036 -0.14627202196121092
0.3904253931039441 -0.10853739084847258
-0.17689438601133436 -0.2187906052476798
-0.3930194611499763 -0.06837749736144853
-0.34640299792529783 -0.04690315726182821
0.3110950058825758 -0.1680272370475883
0.3849930502807001 -0.14295858807673145
0.3531175947894977 -0.14739171751539734
0.359396736295204 -0.013356920452239645
0.38760783235650553 -0.06724939858422731
-0.18191765073800503 0.041967142127650486
0.18843493072455886 -0.21170269984656961
-0.3902881237185667 -0.10608255930241296
-0.4161116829528842 -0.11456252534671
-0.4536625198851981 -0.11820753322597181
0.27279705398340276 -0.18959540570532826
-0.47297620488540115 -0.06695506512964482
-0.4750430062098279 -0.08584864697536801
0.29014464842395005 -0.19331206412506247
0.06870816470549347 0.12274784579990951
-0.08041347353852545 -0.29236051783339045
-0.4785421167157039 -0.09037966199332906
0.4790652282630465 -0.08347007359768806
0.46476826221255607 -0.11880366258863079
-0.46787098795179877 -0.09867559227545082
0.097001659965151 0.10520130361746355
-0.46620059975199374 -0.08904270019072492
0.3744243165296549 -0.05572311770927653
-0.4623476201112125 -0.08483547802207733
0.469311097200155 -0.08960124747953103
0.10821125466094124 -0.27214834816907985
-0.1016380869128832 0.10350143054880487
0.15992151630498028 -0.2531800901895612
0.21554122926841682 -0.22716723908353728
-0.2561888134893003 0.009983607065008266
-0.3916343665933534 -0.03143565947957239
0.45700919580157634 -0.050179587572578045
0.330593183263928 -0.1771535091226675
0.42765305958428457 -0.165662689250239
0.2143473732832333 0.04731519776926126
-0.13963695065669413 -0.2676488527202457
0.47680391191985294 -0.08715544202605897
0.26419878112368433 -0.0023514857622554896
0.45890984802329293 -0.09689447275939882
-0.21584442928826655 -0.22291887956887604
-0.3782350461361906 -0.11590647092788167
-0.3117853057359549 0.01379647574953579
-0.10100555588395001 -0.2874545002470608
0.10324059655317075 0.11323694669391844
-0.48586736476769665 -0.08986824106914494
0.4853668839707723 -0.08386284051185128
-0.4897561819968836 -0.08414014785024965
0.10004240369309622 -0.28911004158332143
-0.10000619318379282 0.11474959602535055
-0.035725389280296595 -0.29794230638309216
-0.47156396883652923 -0.08833550915413788
0.2470584072627371 -0.18841588964610603
-0.25926770906159113 0.0008324613122270076
0.40950499747612684 -0.06418073886748059
0.36867486419883666 -0.004067427308659023
0.3475395868418441 -0.04829547973922156
-0.4370192379219118 -0.08453541274816903
0.2552058043291651 -0.17656077618268495
0.44356980386790856 -0.07020673815410784
-0.24402417850491293 0.025322486853706402
0.1349430562369259 0.09339750227465181
-0.35058278071810645 -0.1238067289521292
-0.0290677143082467 -0.2873856669312883
0.032066962696338075 0.11235632984725792
0.4621504008601463 -0.08649577537503625
-0.4640744313724073 -0.0872677969375461
0.4606008683710325 -0.08758232584856984
-0.4605199052029886 -0.08605971494056074
0.05569906991417594 -0.28301752160838606
-0.03888676187447783 0.1131490883334112
-0.239654777473285 0.0357559940865821
-0.2103442878041809 -0.22061057283856902
-0.4096745626252181 -0.1077644363492022
0.43595402272285605 -0.09819858985020638
-0.37718318129357264 -0.15898176210242465
-0.42821802919886953 -0.13030472379132693
0.23551825694195783 -0.20279729134533736
-0.4776709828993157 -0.08696404891443683
0.032670734304142614 0.09831660508615399
-0.04896479041784064 -0.26816994719210385
-0.454061268996481 -0.07842650169185018
0.4539306227956055 -0.09552716837845492
0.45617727185220125 -0.08226776645203651
-0.4560258409093117 -0.09196328930210515
0.045079200513355 -0.26892032159313306
-0.04076874264250897 0.09587121532091099
-0.4433356342978398 -0.0784031648672895
0.21017166310599586 0.057088610065838125
-0.042711384671430076 -0.3112530321948487
0.04120336173094917 0.13776493865473963
0.49057966781147766 -0.08406055447291096
-0.49086581020536396 -0.08984692425056857
-0.10747178782403317 -0.2725796193232421
-0.4574123596323363 -0.08834318914492502
0.4603023669576506 -0.0850641672539867
0.25920827538643054 -0.21002882889819652
-0.4740585613489083 -0.10905320409262739
-0.44727216721971047 -0.13993252596989902
0.2566469001409718 0.037376795130842015
0.42901198604482166 -0.038586892997540444
-0.4365910392835086 -0.010985700540329168
-0.12329486802830776 -0.24846942120485954
0.10602538821295591 0.08360133152802271
-0.44010042017479434 -0.08352521616246945
0.4247001595315242 -0.09509749706249161
-0.43052404107262965 -0.09282715234447657
0.11057676674540654 -0.25595028002360454
-0.2508351214814199 0.040592152946593824
0.48940443058729893 -0.08944321149526528
-0.03379306591341333 0.1410980184104981
0.21621691330257595 0.033978220446170306
-0.4028261536188 -0.14466506358867395
0.4370165792950915 -0.030537180827888567
0.3746113013887098 -0.15682268496811075
-0.4139268465625264 -0.0779271062515101
-0.1248889006661415 -0.251444529598753
0.4307923936085555 -0.09102485121270996
-0.20293973066741122 0.05613745770150497
0.40165539401038575 -0.02362832023371631
0.19328881171273246 -0.23531282284677082
-0.4561974673629559 -0.09445411788360347
0.45425679023254933 -0.0858034693835385
-0.41005016292337165 -0.10092737101671172
0.13215354998861117 0.08905227341515794
0.19367999120512405 -0.22139179397020847
0.40826659223970224 -0.07084035949354531
-0.43831235889125447 -0.10279069494359094
-0.2142180299840233 0.03546996714700618
-0.14612926617072683 0.08113087641343286
0.22758586140873324 -0.21470048331275393
-0.4516931956658248 -0.08779673187922306
0.2925844324292376 0.02410753897413851
0.15197456880470503 -0.2510902733376856
0.4345869421967355 -0.07640498591312317
0.4059444087012222 -0.1021393384451116
-0.20703088183828308 -0.2122016273298258
-0.028162670522326117 -0.2823614754477635
0.4584415646135411 -0.08758409731116394
-0.33161860806986565 -0.18494754193347843
-0.3687670781855694 -0.01341395062580513
0.3749512852467431 -0.172230717530915
0.47242258726685815 -0.08654588358247535
-0.1626269305327808 0.07795704097058641
-0.45732892487441396 -0.08775025686845178
0.4620586026215179 -0.0870120394221468
0.018267365820904734 -0.2857139974670452
-0.008807778078170053 0.11253030006970119
-0.420119659526313 -0.07689328696857513
-0.3027506497821494 -0.007472248688991016
-0.2969579533128017 -0.1661093874374059
0.30299168982213626 -0.16664128305254522
0.30421045104109234 -0.006029319780445102
-0.46733609259290093 -0.08950764573427523
0.008316398220242284 0.12983362487349817
-0.004046402458068235 -0.3028749144771754
-0.47590392862422665 -0.08723802844558519
0.474801950477082 -0.08605079334345361
0.07190727790790259 0.1273218555148065
-0.4913050219353881 -0.09034644680338175
-0.06903938698987447 0.12942485556997899
0.49115558736240866 -0.08345352961929987
-0.06752892516121027 -0.3037485387385731
-0.36868630051872286 -0.17068335708000967
-0.29782097826530274 -0.1961544872678651
-0.4295821345913898 -0.06163602847426395
-0.3880096663096485 -0.05285492834233247
0.4892228770944613 -0.0861534039657661
-0.4910312770934376 -0.08760635824740753
-0.007287787683728922 -0.3164517635650686
0.011902813570969274 0.1399647087439864
-0.13345501154769585 -0.2468193471543725
0.4290215447582998 -0.11229598883944802
-0.1102391892257705 0.08032586905535447
-0.4336687325221609 -0.10844956668765862
0.43720187001610344 -0.07231227262818965
-0.19119859145208842 -0.21651967460800817
0.11550467233197109 -0.25239813579979625
0.3871495165200774 -0.12061909952994913
-0.44574498658773853 -0.08779518619835194
0.11585408733538832 0.0783879580589714
0.09374597912599021 -0.2681847158291286
0.43595767325897183 -0.08415545363205972
-0.11557441244525525 0.08357346558110323
0.48593612468287656 -0.09030543525388929
0.37299448727003887 -0.05353674732946023
-0.26872032805596735 -0.0017273042179999831
-0.20308806815074434 0.032456207240479026
0.2690124426103334 -0.1721376539592082
0.20237820590147604 0.03256484505150705
-0.16224571785494915 -0.2324845643392874
0.20446422057125965 -0.2059382992873736
0.4150308985019812 -0.09578525586537431
-0.3750416012032094 -0.1213782586911612
-0.33919395187206103 0.0008443908824469028
-0.30414411607315855 -0.15134488905115864
0.2632976212292698 0.0013262597993525126
-0.4447823334986068 -0.08743517071664732
0.46410660285233746 -0.13033325357733452
-0.46819172558699795 -0.08534113567335433
0.10238636575139086 0.08932212417423707
0.32435837053433597 -0.029757813004435106
0.4462842851238979 -0.08552963641169067
0.04766468290382631 -0.29143189302430733
0.4442488672877309 -0.08967307621790215
-0.07907816076781841 0.09748484900923028
-0.15224809750697674 -0.24896906569526542
0.06983033631923993 -0.27374174121233513
0.4721461551054578 -0.0590450989363857
-0.05904606204092508 -0.2833771864588307
0.4596087953729384 -0.0862158374633824
-0.450202640310763 -0.08833737412179772
-0.47257722863196266 -0.020804379872194585
-0.4624119550492101 -0.08817891774766382
0.4706950005703595 -0.08813589516531652
0.489063980055884 -0.08809908875263178
-0.032657954489019224 0.12219671830529791
0.06848698831587646 0.09990878038162383
0.13035630133435208 0.09957692299814949
0.1721239013991169 0.050446841353026906
0.4101488995384808 -0.07683224096597921
-0.306410743514885 -0.1868846610832571
0.45021072750368496 -0.08758644379274498
-0.07245214086490682 -0.27394594430142305
-0.47427154745936606 -0.14348629361097742
-0.15971271213523194 0.05807666799141797
0.1128401448897627 -0.2636084236390896
-0.4917824961831019 -0.08484723045407695
0.029813552216720086 -0.31491021281409115
-0.1338187640468734 0.09721719962819825
-0.267276310380297 -0.20496894000935723
0.4249967799826673 -0.14297825377580056
-0.245434729913965 -0.18205541094093158
0.42432975013399576 -0.0795123685255984
-0.06495039843335647 -0.28876398435924383
0.46748620747782127 -0.08462327931538374
0.06430650680377398 0.10634592077418085
0.3376857516563976 -0.1347967403969346
-0.33146075611777165 -0.03456445613618033
-0.1257710206029257 0.07408706730071613
0.1331119134870368 -0.2713453256812207
-0.48435688644874814 -0.08628946724328605
0.4802176083804367 -0.0967952350986195
-0.41905042027817707 -0.09401553138319875
0.1384424470923226 0.06796623132671621
-0.45690278559424646 -0.07234538491471236
0.465029492374938 -0.1085912104354017
0.13099748628566824 -0.24952478575339718
-0.28149291169418245 0.028987574599136638
0.4745119262081716 -0.08944180808495186
-0.05680365654951134 0.12246295386621146
0.0004923463159133906 0.11985485888146781
0.012097036338012691 -0.29278175873458034
0.4673498116688691 -0.08699669243101425
-0.46976747763086113 -0.0866469061423805
-0.4791425230900727 -0.11725408841563124
-0.05269864618459952 0.13026454880674765
0.2988265699415703 -0.1962776240541618
0.03843195638114627 -0.3006440272272606
0.046125549841945925 -0.3050490336274518
-0.47663339053853043 -0.08467417726598626
-0.4834170973088586 -0.08616770087358833
-0.4837487187475235 -0.08421826335265228
0.01202225364814686 -0.309783392927547
0.4809042973414355 -0.0876965000061137
-0.02224545523706014 0.13624474693503383
0.1589005508735546 -0.22975383624197315
-0.4326429718207418 -0.16662517651386496
0.45715453164656283 -0.1525624854601983
-0.4886525108285367 -0.08330360289623458
0.06870063168361379 -0.3023896501378607
0.48251870855163775 -0.08376526662651795
-0.23790709981317862 -0.20672086590067892
0.4877775007554736 -0.08877655653242679
-0.4495947396384909 -0.08654766152741651
0.33006990091454935 0.01288011627540771
-0.17957086754825388 -0.24638777925979943
-0.24507731802522573 0.026914982530045588
0.05626959311700703 0.120569502788139
0.36416686083684974 -0.02911761183086467
0.24434869906529666 0.027293359961570663
0.45960567080320286 -0.08078814306321311
-0.4343179059237641 -0.05128160626508984
-0.4582276203382322 -0.08675381067448597
-0.17713773046119846 0.05306793057692789
-0.219944578724462 -0.22631527193008819
0.17212076715422936 -0.22826057979656406
0.0725977754602928 -0.2875912237395112
-0.4686919562873896 -0.08455410594985426
-0.049210431497061016 0.10447287954586092
0.24573897234993625 -0.20104620802187856
-0.4721182886997316 -0.009353708730881411
-0.3655768155938502 -0.05346561574076273
0.17412475024536236 0.053675149907040795
0.45406227467231786 -0.08770123984002424
0.04118239981660462 0.1173517426279116
0.40209101477985504 -0.05384050569785239
-0.44269307756380344 -0.0834989122523675
-0.43132562847337863 -0.06803121262803175
-0.4806814426835558 -0.07506193983379426
-0.016566801876812934 0.10571578658184888
-0.4563219187358998 -0.08931380781460616
0.33335453883447347 -0.18633409113748883
-0.00859681897991494 0.1448755298938801
-0.46345831096195084 -0.08695185615166023
0.4722762633862513 -0.06757905023339697
-0.19661987426914723 -0.21299835324408886
0.39686386131186585 -0.10248323688473496
-0.027045743364885952 0.12847850311647727
-0.3425520019082495 -0.14563917336493462
0.03063394652572914 0.1064049637493001
-0.46900881435221786 -0.16532495577580522
0.12464574189877896 0.08735480926617685
0.45392477578523815 -0.08492406598768397
-0.39779629862531646 -0.1262149783330987
-0.06083104658913328 0.09720158358097329
0.47241387897767906 -0.08394578586220228
-0.35856238864493567 -0.11920192493202092
0.48145201783310726 -0.08617738107000181
0.4670096529653043 -0.16440787802286475
0.46951439342626716 -0.14065594408677018
0.4744711226048495 -0.0058135141985367865
SCALARS Strain float 6
LOOKUP_TABLE default
0.011747907107702984 -0.003532655418755971 0.0 7.822768638492497e-05 0.0 0.0
0.011833883844742642 -0.0036035038971139527 0.0 -0.00013329537741230168 0.0 0.0
0.011708304036807041 -0.003504413311633207 0.0 0.00010928967302371409 0.0 0.0
0.01174414253501214 -0.0035343760575266858 0.0 -9.707075345025408e-05 0.0 0.0
0.021774907062371257 -0.004848954929797104 0.0 -7.949178267736717e-05 0.0 0.0
0.021577166947964146 -0.004978618050720838 0.0 -8.907919206652451e-05 0.0 0.0
0.011785416786249456 -0.00355799147053649 0.0 1.236921128624082e-06 0.0 0.0
0.011693345012140761 -0.0035358172068863407 0.0 -9.399597145411653e-05 0.0 0.0
0.011485194672266339 -0.0034735623684339035 0.0 -0.0002372986780163928 0.0 0.0
0.011376657832318338 -0.003453142437686704 0.0 -0.00034813744783254393 0.0 0.0
0.011101668900054736 -0.003378593220271856 0.0 -0.00047996605999226985 0.0 0.0
0.010627006387567252 -0.0032312553310291673 0.0 -0.0007026988914201033 0.0 0.0
0.01010938835533128 -0.003059441136178644 0.0 -0.000856272136085843 0.0 0.0
0.009444139808844301 -0.0028448644095531305 0.0 -0.000915589147545862 0.0 0.0
0.00874586580723212 -0.002610059494438428 0.0 -0.0008864035274683999 0.0 0.0
0.007962123175906853 -0.0023465739553680926 0.0 -0.0006789306451158594 0.0 0.0
0.007528736717356688 -0.0021670735700305243 0.0 -0.000559076576283513 0.0 0.0
0.007289310146717746 -0.0021309144816073584 0.0 -0.00013420882231011892 0.0 0.0
0.007219483901952003 -0.00210170618240027 0.0 0.0002685500204980454 0.0 0.0
0.0074822395709771726 -0.002175440883329325 0.0 0.0005197417363724058 0.0 0.0
0.008066815555379941 -0.002373894022241093 0.0 0.0008270996312628715 0.0 0.0
0.00862713977969905 -0.0025690666831887908 0.0 0.0007672173898033347 0.0 0.0
0.009422145308048148 -0.0028092285162192154 0.0 0.0008583709469579296 0.0 0.0
0.010045683760031225 -0.003041107336722013 0.0 0.0008772386479465092 0.0 0.0
0.010679733324191965 -0.0032525982213638224 0.0 0.0006788750147423626 0.0 0.0
0.01112570617359358 -0.003391023379246534 0.0 0.000444958799891003 0.0 0.0
0.011424051536113932 -0.003460456411590127 0.0 0.00026942213975895274 0.0 0.0
0.011547979188201817 -0.003502745163560626 0.0 0.0002486243960574301 0.0 0.0
0.011625513504314842 -0.003502377359729027 0.0 6.910271998781041e-05 0.0 0.0
0.011770790777069726 -0.0035393461423117705 0.0 -2.6182913676265317e-05 0.0 0.0
0.011106918893999075 -0.003340346063295664 0.0 0.00013870236676897694 0.0 0.0
0.010477850173479134 -0.003207527429138819 0.0 0.00011427360991726691 0.0 0.0
0.00980366171636462 -0.003047702455645386 0.0 0.00010325165880543362 0.0 0.0
0.009127429692684826 -0.002867907897164782 0.0 7.443028377328208e-05 0.0 0.0
0.00834480196995974 -0.0025946882586057223 0.0 1.9775401975126504e-05 0.0 0.0
0.0073975755486014785 -0.002183702209623202 0.0 -0.00012693719665955478 0.0 0.0
0.0063913121135491455 -0.0017121964305515196 0.0 -0.00021214202370215858 0.0 0.0
0.005494491749594336 -0.001245654687166603 0.0 -0.0002757335412757182 0.0 0.0
0.004553766478715857 -0.0006717207520121024 0.0 -0.00027916368014331593 0.0 0.0
0.0036107155126942504 -7.801523614225734e-05 0.0 -0.00020489006348603742 0.0 0.0
0.002915096495841787 0.00026662761533145747 0.0 -0.00015357105781704385 0.0 0.0
0.0025324098983807736 0.0005167766339749224 0.0 -0.00010296718030236578 0.0 0.0
0.0025361043105371983 0.0005221168052476962 0.0 7.367360945565424e-05 0.0 0.0
0.0030275889020106466 0.00023599168516915314 0.0 0.00019495402684102512 0.0 0.0
0.003792497255384962 -0.000248975671120757 0.0 0.00029404085119735747 0.0 0.0
0.0044297350254782495 -0.0006050856001164745 0.0 0.00025192009336584575 0.0 0.0
0.005174865354538 -0.0010610828072995814 0.0 0.0002755121609961355 0.0 0.0
0.006313614790152151 -0.001673081010368057 0.0 0.0001618047439008244 0.0 0.0
0.007319530223517153 -0.0021770964996315548 0.0 6.477889075926725e-05 0.0 0.0
0.008197558949401945 -0.002546573753876802 0.0 -3.059032351848013e-05 0.0 0.0
0.009115984690751602 -0.002852412523852352 0.0 -9.746895241904085e-05 0.0 0.0
0.00999063609093432 -0.003109924403681995 0.0 -9.699152721903676e-05 0.0 0.0
0.010426560726905234 -0.003174043266748983 0.0 -0.000136595059250249 0.0 0.0
0.01110675310704636 -0.0033244254622906396 0.0 -0.00013611892541322867 0.0 0.0
0.011825401436769783 -0.0035982689060330667 0.0 6.664766532182484e-05 0.0 0.0
0.011678030110733172 -0.0035317475658140944 0.0 -0.00012047596927500484 0.0 0.0
0.01150965840586484 -0.0034827667197663724 0.0 -0.0002573921772703807 0.0 0.0
0.011397077966727424 -0.003446856428668373 0.0 -0.00029214244995675996 0.0 0.0
0.011074333162836486 -0.003363464194930733 0.0 -0.00045469096074683956 0.0 0.0
0.010641123957085486 -0.0032327070173278584 0.0 -0.0006255978857158298 0.0 0.0
0.010089099714485262 -0.0030520843696236312 0.0 -0.0008507706055793161 0.0 0.0
0.009331536957131386 -0.002793149976001172 0.0 -0.0009340771651094271 0.0 0.0
0.008717799746710702 -0.0025827665396807873 0.0 -0.0008507400051761176 0.0 0.0
0.008074276785467138 -0.0023890078747147592 0.0 -0.0007333429462854249 0.0 0.0
0.007563425537429801 -0.002223175795138402 0.0 -0.0004955356148199444 0.0 0.0
0.007349275311326625 -0.0021486851209509827 0.0 -0.00016651980385142006 0.0 0.0
0.007136321401341855 -0.002057538043412237 0.0 0.00014574483788795445 0.0 0.0
0.007443470918535798 -0.0021761991291468392 0.0 0.0004166498698178025 0.0 0.0
0.008015256417104944 -0.0023583294772119715 0.0 0.0006261679923907677 0.0 0.0
0.008703479588758337 -0.002588533955418274 0.0 0.0007992776325851614 0.0 0.0
0.00942507408305198 -0.002824151524802006 0.0 0.0008468020571516193 0.0 0.0
0.01006146088199679 -0.003044031342944397 0.0 0.0008324054334732848 0.0 0.0
0.010702570866897628 -0.0032585613050504342 0.0 0.000652173538646456 0.0 0.0
0.011106443040476276 -0.003378090327487756 0.0 0.00044817031720913696 0.0 0.0
0.01127505473306143 -0.0034063452693719317 0.0 0.0004220166027359325 0.0 0.0
0.01155878971209796 -0.003490500367481996 0.0 0.00021300516013260097 0.0 0.0
0.011656968413592879 -0.0035273571355563765 0.0 0.00016332756687307144 0.0 0.0
0.011769317475146274 -0.0035621135901178673 0.0 -1.6189582723925174e-05 0.0 0.0
0.011160143499959422 -0.003361336916369953 0.0 6.735057058930088e-05 0.0 0.0
0.010531230738664805 -0.0031982936921596417 0.0 6.624218369474265e-05 0.0 0.0
0.009825454358076132 -0.0030542298780521907 0.0 9.717911153068153e-05 0.0 0.0
0.009100958101289818 -0.002854688163949147 0.0 8.856924769714911e-05 0.0 0.0
0.008320225569189238 -0.002574505589970615 0.0 -2.050337571153338e-06 0.0 0.0
0.007468751018871782 -0.0021834177682782474 0.0 -7.449793396341407e-05 0.0 0.0
0.006487321381402302 -0.0017646950117642766 0.0 -0.00016650159794401575 0.0 0.0
0.005443709154416421 -0.0012042727971415777 0.0 -0.00024158642394576707 0.0 0.0
0.004452633155265407 -0.0006369168927434848 0.0 -0.0002408587320607241 0.0 0.0
0.003620105129200918 -0.00011037466214472354 0.0 -0.00020134319261674527 0.0 0.0
0.0029298671416203275 0.00023447197603966197 0.0 -0.00018259846653122838 0.0 0.0
0.002550127011082727 0.0005103966994561433 0.0 -6.95002370970146e-05 0.0 0.0
0.00248724546947259 0.0005646004492255395 0.0 4.250201700513555e-05 0.0 0.0
0.002852456692063572 0.0003246177954901457 0.0 0.00015710629749970844 0.0 0.0
0.0035788946578004014 -0.00016087943353482645 0.0 0.00021395661615202416 0.0 0.0
0.004517424391667734 -0.0006156943894497714 0.0 0.00021574097306628848 0.0 0.0
0.005434403379871422 -0.0011847228300035676 0.0 0.00021231841385454912 0.0 0.0
0.0064851051825944046 -0.0017430757645824507 0.0 0.00016454286236382965 0.0 0.0
0.007462671151791998 -0.002237268903537936 0.0 6.590799201607035e-05 0.0 0.0
0.008352311929809482 -0.00259124682132918 0.0 2.177141256398904e-05 0.0 0.0
0.009064662899162624 -0.002805766402329854 0.0 -6.245996413426428e-05 0.0 0.0
0.009839017741417592 -0.0030388819195346388 0.0 -0.00017683625549260487 0.0 0.0
0.010537515353190302 -0.0032350436495507486 0.0 -0.00010353425974917897 0.0 0.0
0.011169170380996057 -0.0033655106508873817 0.0 -0.00010588838183429975 0.0 0.0
0.019588269168439816 -0.004066040346727509 0.0 0.007739373426336569 0.0 0.0
0.015277060356221528 -0.002794481812862636 0.0 0.01083495452460548 0.0 0.0
0.010202652558261777 -0.0015982183512410902 0.0 0.009140373145522464 0.0 0.0
0.006249073555947102 -0.0010205147423233362 0.0 0.006934143570307969 0.0 0.0
0.002947890386551485 -0.0015579652704756216 0.0 0.002970810487902156 0.0 0.0
0.0016179729247505546 -0.0029515812876411782 0.0 0.0002603542577349367 0.0 0.0
0.0013326486645574313 -0.004256047872147043 0.0 -0.000441922694516318 0.0 0.0
0.0013965343019503357 -0.004939484985612423 0.0 -0.00011836004679363231 0.0 0.0
0.0013604384757584754 -0.004404350928084319 0.0 0.0010035325478901297 0.0 0.0
0.0017367310539877603 -0.00292730068586888 0.0 -1.6439799886277233e-05 0.0 0.0
0.003093843915355661 -0.001450673983748772 0.0 -0.00391058379897393 0.0 0.0
0.005941531872832671 -0.0008877035808752965 0.0 -0.007043090164306469 0.0 0.0
0.010407965104629501 -0.0013478707230925907 0.0 -0.009459391207267494 0.0 0.0
0.015409931415695171 -0.0027793966719823118 0.0 -0.009769208432521916 0.0 0.0
0.019917533694581803 -0.004341376143157017 0.0 -0.006873570571312108 0.0 0.0
0.01954777641425242 -0.00406755311876685 0.0 0.006324265516046602 0.0 0.0
0.015512061311027758 -0.00284482297249108 0.0 0.009919678640056228 0.0 0.0
0.010398450855136033 -0.0013810441554133507 0.0 0.009421948473635672 0.0 0.0
0.0057480599570344515 -0.000787764128458927 0.0 0.00698572189677372 0.0 0.0
0.0024861074328523295 -0.001403177508083936 0.0 0.003669938776465899 0.0 0.0
0.001581983685093105 -0.002883364251660625 0.0 0.0008058588621578408 0.0 0.0
0.0013123024852592464 -0.004208439563735506 0.0 -0.0005094114393552959 0.0 0.0
0.0014091302953391461 -0.005077376171533397 0.0 -7.917775726229241e-05 0.0 0.0
0.0013762124021080664 -0.004424223040189729 0.0 0.0009142474796730122 0.0 0.0
0.001794982799715625 -0.002977408690799552 0.0 -0.00015577413896915518 0.0 0.0
0.0031259057480836957 -0.0014580442138210441 0.0 -0.004010322438475906 0.0 0.0
0.005961564403479767 -0.0009059764014436653 0.0 -0.007062163755678809 0.0 0.0
0.010369953871559853 -0.0013458358936791577 0.0 -0.009504872545917368 0.0 0.0
0.01542522032894466 -0.0028689436530308244 0.0 -0.010156083995577603 0.0 0.0
0.019758229898445417 -0.004321424382847848 0.0 -0.0073269161631428405 0.0 0.0
0.010500901707994182 -0.0037876719227448096 0.0 -0.0017562828079877545 0.0 0.0
0.010454596655923715 -0.003761419901150892 0.0 -0.001825773007178725 0.0 0.0
0.00723486958144466 -0.0027436421394459267 0.0 -0.002430559651380199 0.0 0.0
0.007513635782530918 -0.0029024214595751003 0.0 -0.0023034179213864713 0.0 0.0
0.007093530810802464 -0.0028128195234501064 0.0 0.002739126704666293 0.0 0.0
0.007280119801546308 -0.0028670693384558856 0.0 0.002610216840653158 0.0 0.0
0.010505813142736438 -0.0037577689555429697 0.0 0.0018718215821239637 0.0 0.0
0.010558503926851232 -0.003719316606824126 0.0 0.0019473960218025065 0.0 0.0
0.009939983099060072 -0.003082730963210716 0.0 -0.0023987333035278024 0.0 0.0
0.009979493063866933 -0.0030872594613728923 0.0 -0.002579581982234537 0.0 0.0
0.005159762870240747 -0.0011861968855398787 0.0 -0.0015779597640302914 0.0 0.0
0.00573334636650592 -0.00149540446252275 0.0 -0.0013543039090109519 0.0 0.0
0.005760842979854745 -0.0015918294342636545 0.0 0.0017378680744128472 0.0 0.0
0.010094705371204864 -0.0031929364467592086 0.0 0.002653852400928243 0.0 0.0
0.010442957482989379 -0.0029519540471570995 0.0 -0.0029917409175090007 0.0 0.0
0.010601530118644497 -0.003004073364566491 0.0 -0.002833047616585116 0.0 0.0
0.004599254251046904 -0.001328413127736979 0.0 -0.003059594044101392 0.0 0.0
0.0043516292637205585 -0.0012049638262737515 0.0 -0.003078561621554801 0.0 0.0
0.005247020138760063 -0.0016244766980006526 0.0 0.002863197872149865 0.0 0.0
0.004574112531529093 -0.0012235676667094058 0.0 0.0029060175345068137 0.0 0.0
0.010349371127524789 -0.0030305545849248915 0.0 0.003003002936674734 0.0 0.0
0.010339683519459714 -0.002951800242681148 0.0 0.0028955530317675443 0.0 0.0
0.009818902726004563 -0.0018933740250050605 0.0 -0.0009355572799204004 0.0 0.0
0.0019071309485082196 0.0002069299499565105 0.0 -0.0010553273125317468 0.0 0.0
0.01005410854687538 -0.0033102808019857557 0.0 0.0006776888354825154 0.0 0.0
0.009480078224492514 -0.0031300126365227145 0.0 -0.00021672305894733732 0.0 0.0
0.010133271541028664 -0.0033058695335523155 0.0 0.0008049924251503921 0.0 0.0
0.009751515229085897 -0.003183848351800282 0.0 -0.000342076918457367 0.0 0.0
0.011322657376574154 -0.003423872565525509 0.0 -0.0001837504901216279 0.0 0.0
0.011308377504570586 -0.0034166547831308977 0.0 -5.107658640302219e-05 0.0 0.0
0.009067910831505896 -0.003233170052190487 0.0 -0.0002711093853022059 0.0 0.0
0.010064817491502481 -0.003529879836211872 0.0 -0.001173699339953056 0.0 0.0
0.008707940985777556 -0.0031125014646722167 0.0 0.0006333266153929901 0.0 0.0
0.009883582576945082 -0.003504268215248299 0.0 -0.0008374213115902758 0.0 0.0
0.009138296808319252 -0.0032822350046597545 0.0 -0.0002069315656182388 0.0 0.0
0.0036082923440925742 -0.001501910183978575 0.0 -0.004232962896950828 0.0 0.0
0.010363937432867367 -0.003253794194745379 0.0 -0.0016280732123297376 0.0 0.0
0.010355620862504546 -0.00332557638373031 0.0 -0.0016760142784020067 0.0 0.0
0.007555662254369279 -0.0024257082537373605 0.0 -0.0008431615228255796 0.0 0.0
0.01022283157667599 -0.003318694424777781 0.0 0.0023756318426376116 0.0 0.0
0.010663759473568252 -0.003879909011210236 0.0 0.0004421167042379198 0.0 0.0
0.010535106698118848 -0.003860018514185494 0.0 0.001313754918089847 0.0 0.0
0.007177111382771943 -0.003215332935107304 0.0 0.004206067371401096 0.0 0.0
0.006944558117342063 -0.003089703163549981 0.0 0.004380143986603733 0.0 0.0
0.007045560136419446 -0.0031355652608887506 0.0 -0.003927702835698908 0.0 0.0
0.00712069863730378 -0.0031782243535103906 0.0 -0.004085538736891668 0.0 0.0
0.01053313459111199 -0.0038446216596675067 0.0 -0.001217595756548685 0.0 0.0
0.010502825452424057 -0.003831526911418536 0.0 -0.001346634425263512 0.0 0.0
0.010114703714026849 -0.0035665536623287293 0.0 0.001308469556967641 0.0 0.0
0.00847986168183743 -0.0030437926296773958 0.0 0.000839318341056321 0.0 0.0
0.00938119210386984 -0.0037747082447239636 0.0 0.000964324789942116 0.0 0.0
0.009282355134717145 -0.003747721310159143 0.0 0.0010528024052491958 0.0 0.0
0.009527610722903396 -0.0037919413893280386 0.0 -0.000699539222462499 0.0 0.0
0.009566678171837211 -0.0038121190878441418 0.0 -0.0006883370427569894 0.0 0.0
0.009454794480513513 -0.003016397508330678 0.0 0.00015354125807241369 0.0 0.0
0.010140255134785815 -0.003574591592600162 0.0 0.001418133005441585 0.0 0.0
0.009319452134736705 -0.003013052355416881 0.0 5.326855169386929e-05 0.0 0.0
0.010506665424354687 -0.0033225612138092415 0.0 -0.0008113537553917334 0.0 0.0
0.010390311063413794 -0.0032834362958745326 0.0 0.0014836105998760577 0.0 0.0
0.008007032578045251 -0.0025395175277394314 0.0 0.00046969997438629644 0.0 0.0
0.008404680755958653 -0.0026935342228865634 0.0 0.000312055653582219 0.0 0.0
0.014011259494668749 -0.002168386742938606 0.0 1.5506727699639523e-05 0.0 0.0
0.0006822134008266263 -0.0010530032103110841 0.0 -0.0002637294764930791 0.0 0.0
0.0007480438506330075 -0.0009017676847954092 0.0 -0.00020279148559276475 0.0 0.0
0.009508273373071603 -0.0027951395429782213 0.0 -0.0023864752705261005 0.0 0.0
0.009197708451716675 -0.0026392282356267924 0.0 -0.002134494918425527 0.0 0.0
0.004319742437121799 -0.0006625616901268052 0.0 -0.0013485798074867016 0.0 0.0
0.004443393870384141 -0.0007641425954446884 0.0 -0.001424657282945232 0.0 0.0
0.004276806192975614 -0.000600335999279793 0.0 0.00117059483095196 0.0 0.0
0.004145863314454041 -0.0005519371635702049 0.0 0.0012058833200487295 0.0 0.0
0.009380977856833887 -0.0027424614776312777 0.0 0.002229032716476139 0.0 0.0
0.009282479839001009 -0.002703770447535338 0.0 0.002170344405943397 0.0 0.0
0.002569287145283317 0.00042850347755376205 0.0 0.0006322334413319435 0.0 0.0
0.008762300609965943 -0.0022783078769631057 0.0 -0.0010460198847036804 0.0 0.0
0.00886100234570789 -0.0022358443245028194 0.0 -0.0008709466101024441 0.0 0.0
0.002477959420779728 0.0003840360755731366 0.0 -0.0006247246468777121 0.0 0.0
0.0024785758048462324 0.00036523471217241716 0.0 -0.0007691764191907357 0.0 0.0
0.009635107643248469 -0.001957784289159942 0.0 0.0003682009860455528 0.0 0.0
0.01051123737567713 -0.0032833956465283913 0.0 0.0012231630896725064 0.0 0.0
0.010670982434472792 -0.0033224815424294962 0.0 -0.0008236832925398759 0.0 0.0
0.009683209419597777 -0.0030169924552419084 0.0 -9.779688519553781e-05 0.0 0.0
0.009297251457530608 -0.0029173842197617304 0.0 -5.7289534807899585e-06 0.0 0.0
0.011009874741379821 -0.003371141923881189 0.0 0.00045214071285158843 0.0 0.0
0.010663512819929959 -0.003280184192855065 0.0 -0.00029578612499960954 0.0 0.0
0.01027586874062628 -0.0033232720797677345 0.0 -0.0027217834531771726 0.0 0.0
0.010251934691401166 -0.003338266089731823 0.0 -0.0026094584916011394 0.0 0.0
0.006506204370456613 -0.0020406336483809627 0.0 0.0016883106589817554 0.0 0.0
0.006155361362323999 -0.0019312533090620454 0.0 -0.0021225027381715626 0.0 0.0
0.010262394299393657 -0.00334954569758167 0.0 0.002591761003974622 0.0 0.0
0.010150429701474822 -0.003237806295876258 0.0 0.0025742478753569475 0.0 0.0
0.010132696714076064 -0.003185626741326016 0.0 0.00037379485564146105 0.0 0.0
0.01078934149903736 -0.003282955710796739 0.0 -4.889307914461296e-05 0.0 0.0
0.0061175266889983565 -0.0022004964211074147 0.0 0.0032516400266673125 0.0 0.0
0.006064638343263566 -0.0021462299412098396 0.0 0.0030086840019452146 0.0 0.0
0.010614580248919208 -0.0034890458052569944 0.0 0.0025055476436504414 0.0 0.0
0.010758879579617736 -0.003445202577270494 0.0 0.002461115562338344 0.0 0.0
0.010493711308844206 -0.0033372835668991395 0.0 -0.0028432993774529488 0.0 0.0
0.010671133748281603 -0.00354002223821723 0.0 -0.002432671607803782 0.0 0.0
0.005691244987489774 -0.0018316697505153913 0.0 -0.002887534239240263 0.0 0.0
0.005955027111689006 -0.0022207218622124344 0.0 -0.003358320271157415 0.0 0.0
0.011328276077019184 -0.003431488681327352 0.0 -0.00018283169876996135 0.0 0.0
0.010449988960962034 -0.0032030554457286365 0.0 -0.00010677707866846791 0.0 0.0
0.009780741040703407 -0.002982776766874822 0.0 -0.0015994332615238084 0.0 0.0
0.006062812097300765 -0.001585405172712593 0.0 -0.0007509102971180999 0.0 0.0
0.006029574089746253 -0.0015710700820442465 0.0 -0.0006528689237428857 0.0 0.0
0.005919929285094815 -0.0014961684822541949 0.0 0.0006265757277617356 0.0 0.0
0.009835377103048356 -0.0029860781521591612 0.0 0.0013599313943876922 0.0 0.0
0.009812041153809186 -0.0029774162728060834 0.0 0.0013884034798958152 0.0 0.0
0.010699312492486646 -0.003299143507470006 0.0 0.0003512093169626524 0.0 0.0
0.01070025941461036 -0.003290983599985235 0.0 -0.0002856559123651932 0.0 0.0
0.010671760663388033 -0.0032851154447369633 0.0 0.000325058629737314 0.0 0.0
0.010256531719859565 -0.0031724181949314323 0.0 0.00016461872325497135 0.0 0.0
0.010366943148115787 -0.002427045596368284 0.0 -0.0027050635596602246 0.0 0.0
0.010155378862274057 -0.002440980229095294 0.0 -0.0025487420477200134 0.0 0.0
0.00301285232227034 -0.000500272976136542 0.0 -0.0027958964221095873 0.0 0.0
0.003228126816531041 -0.0004868656914847366 0.0 -0.0026371281069817285 0.0 0.0
0.010287229569808572 -0.0031791304700615045 0.0 -0.002930750426110461 0.0 0.0
0.00575406412763412 -0.0017178035554983378 0.0 0.0021435824464923377 0.0 0.0
0.005781790697437024 -0.0017804452590251595 0.0 0.002471150496168194 0.0 0.0
0.01029591711567681 -0.0032552355440731862 0.0 0.0028803364772036306 0.0 0.0
0.011301629590244708 -0.0034398127436533693 0.0 0.00020714032360110522 0.0 0.0
0.002809384191138202 -0.00021122619897808766 0.0 0.0023196726942660375 0.0 0.0
0.002936781210445498 -0.00031923666994289297 0.0 0.002344410043916786 0.0 0.0
0.010137744842890057 -0.0023097566725332006 0.0 0.0023483611196426554 0.0 0.0
0.010065541151840017 -0.0023359206760130754 0.0 0.002446975102303591 0.0 0.0
0.00959281612637394 -0.0030059861586704388 0.0 2.845709152475035e-05 0.0 0.0
0.010188799061350954 -0.003126996218173996 0.0 4.727205813839552e-05 0.0 0.0
0.0029598571974878704 -0.0019338240853720712 0.0 0.003998466972274794 0.0 0.0
0.0033978943463353413 -0.002001590951512338 0.0 0.004287519190584418 0.0 0.0
0.012351031969766483 -0.0030168274739601516 0.0 -0.0004357736127643867 0.0 0.0
0.012420119086962717 -0.0030279740662152096 0.0 -0.0008368316978998651 0.0 0.0
0.012526378528964932 -0.00284603118750422 0.0 0.001009994652033654 0.0 0.0
0.012334064013550496 -0.00300492535219644 0.0 0.00031471182374558635 0.0 0.0
0.0027927621062782755 -0.0016313847625537591 0.0 -0.004017479453741517 0.0 0.0
0.002716696273019773 -0.0016782525758429845 0.0 -0.003918593704987584 0.0 0.0
0.010282245681242724 -0.0033617380110393218 0.0 -0.0011293759106269007 0.0 0.0
0.007254500145168424 -0.0030375745774960305 0.0 -0.003161034781968408 0.0 0.0
0.01063397594600295 -0.0039011097003013055 0.0 -0.001040287259015929 0.0 0.0
0.007405414415616186 -0.003099836156479816 0.0 -0.0031752615280643726 0.0 0.0
0.009863606224224341 -0.0033247412717219665 0.0 -0.0006597430042014464 0.0 0.0
0.008711328495657826 -0.003692633128564747 0.0 -0.0024371840513052996 0.0 0.0
0.00870856494151506 -0.0037006832134631536 0.0 -0.0024444949413087187 0.0 0.0
0.009894532303517228 -0.0039328920149373685 0.0 0.0008327711668864209 0.0 0.0
0.008561655503315248 -0.002809618681819139 0.0 -0.0003216123241309003 0.0 0.0
0.010417912364672929 -0.00334587147707266 0.0 -0.001229841722729123 0.0 0.0
0.009940970161310035 -0.003976191892199042 0.0 -0.0009243740839416343 0.0 0.0
0.009886211774489551 -0.003973781612793525 0.0 0.0010811045541545706 0.0 0.0
0.009971508716563503 -0.003998530662429919 0.0 -0.0009361957744636987 0.0 0.0
0.008583181029709872 -0.0036454990704147244 0.0 0.0026007873555340334 0.0 0.0
0.008872462512387727 -0.0037333922444330943 0.0 -0.0031003360081344015 0.0 0.0
0.009312804225492792 -0.0038262323223130423 0.0 0.0026733066472975986 0.0 0.0
0.008922483434540785 -0.0037155537728607484 0.0 -0.003042469370970144 0.0 0.0
0.010125339985442218 -0.0033770890417716935 0.0 -0.0010388776943339318 0.0 0.0
0.008254066883570917 -0.003517237725740373 0.0 0.0028952842798929466 0.0 0.0
0.0015440019331884743 -0.0013050615026602202 0.0 0.0026682297967938703 0.0 0.0
0.0022968558854454457 -0.0012612355741690568 0.0 0.003539449228515712 0.0 0.0
0.01309495135848858 -0.002222299801663667 0.0 0.00011037071429647626 0.0 0.0
0.012517444286542114 -0.0023764631159199153 0.0 0.0005299178922475668 0.0 0.0
0.01315878781897573 -0.0023960529851723357 0.0 -5.828932070873672e-05 0.0 0.0
0.01334793766921669 -0.002337758976290627 0.0 0.00034993295511167064 0.0 0.0
0.001419932166348548 -0.0012944615545953798 0.0 -0.002253880733056929 0.0 0.0
0.001345285468219476 -0.001333629241928277 0.0 -0.002238359155023935 0.0 0.0
0.009235148183145683 -0.0031494282893950996 0.0 -3.0281554646937818e-05 0.0 0.0
0.008962212446610576 -0.0036979218242476873 0.0 0.003087988140773248 0.0 0.0
0.006011280493329586 -0.0024954325510365295 0.0 -0.003959283374636965 0.0 0.0
0.007307071984677304 -0.0025141954709904817 0.0 -0.0016045177805767358 0.0 0.0
0.011106849483483113 -0.003490527082564092 0.0 -0.001644184523958875 0.0 0.0
0.005409722331900777 -0.002227388137671453 0.0 -0.004142646334125203 0.0 0.0
0.010532012631580897 -0.0033145214436773743 0.0 -0.0012582494802044176 0.0 0.0
0.00948672064975278 -0.003413565056071434 0.0 -0.00017308601883472984 0.0 0.0
0.009787950726920748 -0.0036935165310182415 0.0 -0.0003352205584877713 0.0 0.0
0.008292411097785748 -0.0028461216200475754 0.0 -0.000773567058405436 0.0 0.0
0.010324759809134809 -0.0035478092515874864 0.0 -0.0022115039178725432 0.0 0.0
0.009084142959502288 -0.0029713373663466528 0.0 6.799426489698838e-05 0.0 0.0
0.0073626099523881735 -0.0025360261383222753 0.0 -0.001626785155312477 0.0 0.0
0.009047762225552577 -0.00346100426955479 0.0 0.0007582563251478688 0.0 0.0
0.008282091241228563 -0.002686224110869176 0.0 -0.0004129429562828319 0.0 0.0
0.010698571634098007 -0.0038148715820386578 0.0 -0.0010471899153143853 0.0 0.0
0.010046878778328461 -0.003407709958530985 0.0 0.0009713004927066107 0.0 0.0
0.0091667194539574 -0.0031051345862178753 0.0 -5.3177633873853637e-05 0.0 0.0
0.006880155312550296 -0.002902630710040206 0.0 0.003503427643420462 0.0 0.0
0.010734766959713706 -0.003801918505308768 0.0 0.0011446620244598825 0.0 0.0
0.010403268691376871 -0.0033339487505709463 0.0 0.0009579721298148347 0.0 0.0
0.009230040911841715 -0.003518098794684513 0.0 -0.00045496849823768693 0.0 0.0
0.010300700134705763 -0.003400633419711683 0.0 -0.001706702706574503 0.0 0.0
0.0066799464460062415 -0.0027636260520032207 0.0 0.0035548349403445303 0.0 0.0
0.009661475140872742 -0.003656365734375602 0.0 -0.00017280909106722506 0.0 0.0
0.009911786982873918 -0.0037143294469408534 0.0 0.0005928047162438298 0.0 0.0
0.008375226009791606 -0.0028983148930079574 0.0 -0.0007306763118734668 0.0 0.0
0.010784604501147134 -0.0037961605086313435 0.0 0.000983613807683551 0.0 0.0
0.010235894427223068 -0.003462189743161857 0.0 -0.001611528722605447 0.0 0.0
0.00889854569012082 -0.00340499706030011 0.0 0.0009499492011077128 0.0 0.0
0.009953079646972422 -0.0037290114620237933 0.0 0.0006477712579405245 0.0 0.0
0.008428154659898822 -0.002816175785183258 0.0 0.0004941852827608316 0.0 0.0
0.009292104755866233 -0.00353267517442778 0.0 -0.0004078321624907687 0.0 0.0
0.006826885198478383 -0.0019260742996329203 0.0 0.00047991441277825565 0.0 0.0
0.00975162116437566 -0.0035100248686283984 0.0 0.0005751027597185531 0.0 0.0
0.010287992653032854 -0.0034035361420276223 0.0 0.0015209251499555877 0.0 0.0
0.009296692503380489 -0.003359243848493404 0.0 3.5137860057491364e-05 0.0 0.0
0.00963166443401585 -0.003290735957963417 0.0 0.00038296550918039135 0.0 0.0
0.008802982691211 -0.002884538844622889 0.0 0.0002030593779852244 0.0 0.0
0.009707353690322225 -0.003488630727032179 0.0 0.0004984590889841654 0.0 0.0
0.004631193982586079 -0.0015794162491528964 0.0 -0.00518098549362791 0.0 0.0
0.008702567972362577 -0.0018701514801218193 0.0 0.007076028521639541 0.0 0.0
0.004642467322040334 -0.001571988538190742 0.0 -0.005193877016325268 0.0 0.0
0.0031295334204906535 2.727567801058398e-07 0.0 0.001231319600538642 0.0 0.0
0.0028849602620415558 0.0001854169631832485 0.0 0.0009468051474814271 0.0 0.0
0.009167703543418079 -0.0025161209607491926 0.0 0.0019138792363384534 0.0 0.0
0.008966046352135762 -0.0025274684908663824 0.0 0.0018668449403882056 0.0 0.0
0.010155415227606454 -0.0036895145265443503 0.0 -0.0013162884076453967 0.0 0.0
0.010026474496354925 -0.0032648694130555708 0.0 -0.0006108186630127221 0.0 0.0
0.01031921813228737 -0.003172342601115232 0.0 0.001253069051704001 0.0 0.0
0.008402626375217189 -0.003124305738656911 0.0 -0.0011789734883839544 0.0 0.0
0.010370275807529129 -0.0033491143005847756 0.0 0.0012327252555665129 0.0 0.0
0.009057532091073687 -0.0030166370933063257 0.0 -5.01894061182593e-05 0.0 0.0
0.009005826360148041 -0.0030949843430691055 0.0 0.0001720315857266067 0.0 0.0
0.008312701610205179 -0.003090816673136546 0.0 -0.0012648258191225294 0.0 0.0
0.010079809432775632 -0.003872962059344096 0.0 -0.000511502560263132 0.0 0.0
0.010243047439415242 -0.0037457600360907414 0.0 -0.0014606356407870925 0.0 0.0
0.008788667948252345 -0.002789729874289438 0.0 -0.00010693871998230748 0.0 0.0
0.011289383927651884 -0.0035418600991974007 0.0 -0.0007036434009522616 0.0 0.0
0.010283720939172925 -0.003503210466501551 0.0 -0.0020452527631278704 0.0 0.0
0.008548576606487241 -0.0034275062846693414 0.0 -0.0017288752754511213 0.0 0.0
0.007303885307691759 -0.002196468709780047 0.0 -0.000522703865876057 0.0 0.0
0.009655617448985816 -0.0032995860603617262 0.0 -0.000462678124045518 0.0 0.0
0.004823018779755776 -0.0023558291975178535 0.0 -0.004720900989857297 0.0 0.0
0.011588164261593021 -0.003419552880788332 0.0 0.00036063856993224814 0.0 0.0
0.004796862080152391 -0.002236658130694421 0.0 -0.004672166908101603 0.0 0.0
0.008464362497066955 -0.003396643798143255 0.0 -0.001803506640047649 0.0 0.0
0.010080953195395401 -0.0034240180583298297 0.0 0.0011115928391719407 0.0 0.0
0.009786233920139142 -0.003214746494920482 0.0 0.00037815790297742244 0.0 0.0
0.009683536348981527 -0.0033235961384089577 0.0 0.0004791302243797659 0.0 0.0
0.010279378611142606 -0.0032948595208563925 0.0 -0.0006982383552101447 0.0 0.0
0.005274117647010952 -0.002390375633818443 0.0 0.004559090923673682 0.0 0.0
0.011345128674131082 -0.003502564788149962 0.0 0.0006849847582333965 0.0 0.0
0.01135571614219843 -0.0035659568543004267 0.0 0.00017892421950621053 0.0 0.0
0.005271553957407434 -0.0023803286324227406 0.0 0.004510945092616599 0.0 0.0
0.008206201876363322 -0.002745438992561763 0.0 0.0006736467715312539 0.0 0.0
0.008709864029627118 -0.0027738852443204972 0.0 0.00015960975715169104 0.0 0.0
0.01027368525270646 -0.003416515196491431 0.0 0.0016787434736960179 0.0 0.0
0.007831654373678418 -0.0024068624841626163 0.0 -0.0002879733708145774 0.0 0.0
0.0021137476657569244 0.00039637088869189763 0.0 0.0005570743915446224 0.0 0.0
0.010617248127810185 -0.003288474766321435 0.0 0.0010424201407340915 0.0 0.0
0.008912334021951348 -0.002396947016981053 0.0 -0.0017040551894826692 0.0 0.0
0.009016769199397038 -0.0024878371105880918 0.0 -0.0018577524967317094 0.0 0.0
0.003383441503989061 -0.0001055350833255901 0.0 -0.0011149766795890627 0.0 0.0
0.0033062671822121103 -6.875465754550589e-05 0.0 -0.0010941827205735689 0.0 0.0
0.008799498668614437 -0.0027909236088579825 0.0 -7.921761019448008e-05 0.0 0.0
0.0070396438784031175 -0.002066847477944556 0.0 0.0005322055015469765 0.0 0.0
0.00961292824675533 -0.0025664938434005686 0.0 -0.002542983462733494 0.0 0.0
0.005349674524638957 -0.0012665436679956754 0.0 0.0012441978711523445 0.0 0.0
0.00807557512660402 -0.003038037166173086 0.0 0.001583903254166623 0.0 0.0
0.003572701312894855 -0.00038605685473041813 0.0 0.0019961865231762086 0.0 0.0
0.003467050469533146 -0.00029574325681218296 0.0 0.001627063165477798 0.0 0.0
0.009816783536369089 -0.0026814184588361545 0.0 0.002712486166766236 0.0 0.0
0.009637830212937553 -0.002620532039947626 0.0 0.0025701660485844494 0.0 0.0
0.009767769866683037 -0.002997445126259768 0.0 0.0022724330161744298 0.0 0.0
0.010276077250727666 -0.003175434149460175 0.0 0.001333902800358807 0.0 0.0
0.010271258219117103 -0.0037118420119828135 0.0 0.0016043101259658442 0.0 0.0
0.009783570569235766 -0.0031865150171229775 0.0 0.00035804798956867625 0.0 0.0
0.009075338697110953 -0.0028729886123149643 0.0 6.69178746920041e-05 0.0 0.0
0.010672127403780336 -0.00332722776338349 0.0 0.000729411358212065 0.0 0.0
0.011271570380413704 -0.003425671975098436 0.0 0.0001838775457317189 0.0 0.0
0.010173400650121608 -0.0032454211037478194 0.0 -0.002140715048056924 0.0 0.0
0.009361498354153973 -0.0028086979074796008 0.0 -0.0015152020650246892 0.0 0.0
0.005044506261587583 -0.0010256035566752835 0.0 -0.0007678962751006399 0.0 0.0
0.010191898204299034 -0.0039032383253304022 0.0 -0.0005407109053961529 0.0 0.0
0.006694060858429252 -0.001966533792595361 0.0 -0.0009361012989215205 0.0 0.0
0.010173892117699848 -0.003209001118627836 0.0 -0.002023690410423615 0.0 0.0
0.007878324722277674 -0.002958842152278433 0.0 0.001766398042801163 0.0 0.0
0.010809688856406999 -0.003329734014101286 0.0 0.000734508732497099 0.0 0.0
0.008776966744970045 -0.0025581828581722594 0.0 -0.001402538702506791 0.0 0.0
0.008792649779566519 -0.002610779121997742 0.0 -0.0013246825700974473 0.0 0.0
0.003945298208303625 -0.0004062992908766537 0.0 -0.0006919250117326488 0.0 0.0
0.003960089659945196 -0.0003894436529575979 0.0 -0.0007390862868558193 0.0 0.0
0.004046887104876815 -0.00041091522892181925 0.0 0.0005199402740288677 0.0 0.0
0.008655612390245553 -0.0025647906128235167 0.0 0.0011756936278364796 0.0 0.0
0.008718576686352593 -0.002570340237167887 0.0 0.0012957236121799167 0.0 0.0
0.009388789719656027 -0.0020887402708440264 0.0 -0.0010974887919509807 0.0 0.0
0.00206151498053661 0.00031603115919388657 0.0 -0.000917578049878496 0.0 0.0
0.010318634044294546 -0.0037079943296670567 0.0 0.001721629780215624 0.0 0.0
0.010255153785212679 -0.0038785088343179152 0.0 0.0007383434812215793 0.0 0.0
0.007695049244232805 -0.002629783537092145 0.0 0.0012351753716996201 0.0 0.0
0.010830505336609349 -0.003328631324776148 0.0 -0.00046051623510014953 0.0 0.0
0.00835381570744478 -0.0033945390175645594 0.0 0.0020660011598281703 0.0 0.0
0.003429326944991807 -0.001023860086404551 0.0 -0.0035849876399454104 0.0 0.0
0.010300816295796912 -0.003887166913513908 0.0 0.0007810080879375497 0.0 0.0
0.0073913082240271094 -0.002310852964565804 0.0 0.0008188371927891813 0.0 0.0
0.01029216388174894 -0.003477084663595542 0.0 0.002072707292030961 0.0 0.0
0.009489765918768331 -0.0028418602077762358 0.0 -0.0021588418618464036 0.0 0.0
0.008211621126165799 -0.003360900799875397 0.0 0.002208369560581716 0.0 0.0
0.010747064571438014 -0.0017136148207307176 0.0 -0.0008871482116258998 0.0 0.0
0.010879719288309851 -0.0017348427523328253 0.0 -0.0010166017207238081 0.0 0.0
0.0015395626077159223 2.1186750840016338e-05 0.0 -0.001256201090079486 0.0 0.0
0.001628300276500028 0.00018397165650199982 0.0 -0.0008745169824963047 0.0 0.0
0.0017327473330422743 -4.4338645754069976e-05 0.0 0.001559237557559491 0.0 0.0
0.001842532569824688 -7.718486862254168e-05 0.0 0.0018180592078523873 0.0 0.0
0.010526180748359475 -0.0019558630904149255 0.0 0.0017739322950477115 0.0 0.0
0.010580938768981927 -0.0017767888425676854 0.0 0.0012078592939364149 0.0 0.0
0.010291376545697757 -0.0033145920123063737 0.0 0.0019081567321471216 0.0 0.0
0.01020916203547768 -0.003328473313947172 0.0 -0.002429471815211846 0.0 0.0
0.007497976276245754 -0.0025541640891782865 0.0 0.0014038309823659883 0.0 0.0
0.006667870854144378 -0.0020380011972573084 0.0 -0.0013802412843577016 0.0 0.0
0.010405675718576667 -0.0032769806271394563 0.0 -0.000552265061454451 0.0 0.0
0.009379147981882406 -0.003005557321903999 0.0 -9.02065253921971e-05 0.0 0.0
0.010288529560700728 -0.00346923285428304 0.0 0.00216239021615079 0.0 0.0
0.0048805894013492414 -0.0009340522344832053 0.0 -0.0008110064373320374 0.0 0.0
0.016570414332512926 -0.0032822909752752397 0.0 0.0015737718326301771 0.0 0.0
0.017588371110440634 -0.003640374767480083 0.0 0.002392836372796335 0.0 0.0
0.0009696025558201147 -0.0030325181892135703 0.0 -0.0004993833917099034 0.0 0.0
0.0009959429069834348 -0.0030856101324708736 0.0 -0.0005092663752071792 0.0 0.0
0.000933111963311083 -0.0028092157928105766 0.0 0.00018457980691577217 0.0 0.0
0.0008877881318910445 -0.002576109556572048 0.0 0.00047603287426837524 0.0 0.0
0.017563274165840727 -0.0036918623515534645 0.0 -0.002413898475023381 0.0 0.0
0.017382861704003695 -0.0037111866704632964 0.0 -0.0020632619819807296 0.0 0.0
0.0063708766684654715 -0.0018996121052446185 0.0 -0.0014662349003260696 0.0 0.0
0.010278105608645194 -0.0031638515025668697 0.0 -0.0012485970233629732 0.0 0.0
0.008066629472599934 -0.0022780195104352583 0.0 -0.0007986035454330867 0.0 0.0
0.008067909971401171 -0.002292561679161984 0.0 -0.0007666018403829459 0.0 0.0
0.0027602998102425062 0.0003338023765757944 0.0 -0.000399927234310099 0.0 0.0
0.002759207099701652 0.0003281415211356899 0.0 -0.00041031017545500024 0.0 0.0
0.009861021999470624 -0.0026917107888566496 0.0 -0.0027417865766658266 0.0 0.0
0.00405622901051879 -0.0006937873971098461 0.0 -0.0020488385910864765 0.0 0.0
0.0036510255836919294 -0.0005094992935189719 0.0 -0.0021060678913587955 0.0 0.0
0.01071066389516962 -0.00327516559656919 0.0 0.0008533176672773238 0.0 0.0
0.008064614148003635 -0.002498077844178524 0.0 0.00026184425565017243 0.0 0.0
0.010005889736291438 -0.0031063872218062252 0.0 -0.0001298384908167177 0.0 0.0
0.010651900239596048 -0.0032652409421217972 0.0 -0.0009275962819872044 0.0 0.0
0.00965596191035923 -0.003064288088867244 0.0 -0.00014029164844602131 0.0 0.0
0.011183743132984817 -0.0034107297515618097 0.0 0.00013405244137875682 0.0 0.0
0.011867065668794363 -0.0028560263851928887 0.0 -0.0012912089536502775 0.0 0.0
0.011822172194673804 -0.002539263627597982 0.0 -0.0016142159526361783 0.0 0.0
0.0024200954873255924 -0.0008993026074949436 0.0 -0.003333563322698329 0.0 0.0
0.003266593373156816 -0.001479722386714319 0.0 -0.0040643802782782835 0.0 0.0
0.0031210081479492867 -0.00131882523520381 0.0 0.003924515473914302 0.0 0.0
0.011564616561164504 -0.0026186769702603446 0.0 0.0019341613086145655 0.0 0.0
0.010728189871728015 -0.0032836269453131125 0.0 0.0007854943347804427 0.0 0.0
0.002720078417140134 0.0003621165544948535 0.0 0.00044363235463889465 0.0 0.0
0.007851945874546898 -0.002230998430852564 0.0 0.0007005193693390865 0.0 0.0
0.010424499033841766 -0.0035576692567956007 0.0 -0.0023352105988596514 0.0 0.0
0.009975141094618346 -0.0031774330673237637 0.0 -0.0003692486187858034 0.0 0.0
0.010124509803154139 -0.0031431208965165772 0.0 -0.0001919289930581592 0.0 0.0
0.010339700129857073 -0.003254771524872699 0.0 0.0005254831136863122 0.0 0.0
0.004742589536357136 -0.0017724848871187003 0.0 -0.0039393188228505 0.0 0.0
0.010977697008254317 -0.002872046125796823 0.0 -0.002519194944157257 0.0 0.0
0.0038992459461118195 -0.0012599820825133278 0.0 -0.0036879508278978485 0.0 0.0
0.010118841891626639 -0.0031752567682876874 0.0 0.0021089149183506953 0.0 0.0
0.010224438561786934 -0.003218005442305108 0.0 -0.00038501879041660694 0.0 0.0
0.01006790966664395 -0.0031474638117391547 0.0 0.0021078822346262548 0.0 0.0
0.006297284040018425 -0.001779491884339759 0.0 0.0011618712170390966 0.0 0.0
0.00492676064963813 -0.0011466061734987315 0.0 0.0018394657727386463 0.0 0.0
0.006607334256550423 -0.002279319062854407 0.0 0.002333381064020522 0.0 0.0
0.009806952798275325 -0.0028902545684122696 0.0 -0.0027346547663142182 0.0 0.0
0.010401343847159267 -0.0034193902047480506 0.0 0.00263275761967638 0.0 0.0
0.006872063175840756 -0.0024370703554367434 0.0 0.0021653245326786375 0.0 0.0
0.007272280900346228 -0.0022888600648008875 0.0 0.001005992133464598 0.0 0.0
0.010417646363216656 -0.0035294815336974657 0.0 0.0023874581175902373 0.0 0.0
0.009923897627118983 -0.0029637993377925895 0.0 0.0028270103902012034 0.0 0.0
0.010239831679059725 -0.003285808898348118 0.0 0.002045557895180466 0.0 0.0
0.004839680548726527 -0.0011258763887339739 0.0 0.00208251236070064 0.0 0.0
0.010944861693511545 -0.0033520784831072366 0.0 -0.0006566860555629232 0.0 0.0
0.010003281934366821 -0.003041901950720889 0.0 0.0028443755865495374 0.0 0.0
0.00652062148109608 -0.001997751941905768 0.0 0.001661165118782545 0.0 0.0
0.006661026972960633 -0.002365679910808475 0.0 -0.002502665655542068 0.0 0.0
0.01048295705688535 -0.0035446552576463217 0.0 -0.0025489649795898198 0.0 0.0
0.011927812670217619 -0.0016470004972796012 0.0 -0.0006687685540715475 0.0 0.0
0.0010628770835946584 -0.0003856603971631488 0.0 -0.0013386261042535295 0.0 0.0
0.011064126716523607 -0.003383683130943151 0.0 -0.0005129908992943855 0.0 0.0
0.010390946863468725 -0.0032688326607260387 0.0 0.0006253153317165701 0.0 0.0
0.011085995317720759 -0.003393888760440165 0.0 0.00033533642644078485 0.0 0.0
0.004998358409467403 -0.0010814350330224628 0.0 0.0011095431379591957 0.0 0.0
0.00978027783056095 -0.0029837363973643973 0.0 0.0022683152362095176 0.0 0.0
0.0012651537693481472 -0.0004992794481597803 0.0 0.0015190023805463232 0.0 0.0
0.0010471043856824047 -0.00010120621744466192 0.0 0.00022028166357867005 0.0 0.0
0.011495573741543039 -0.0016022247658525252 0.0 0.00047351581609060404 0.0 0.0
0.011404965154389239 -0.0015585135180812395 0.0 6.711778814375062e-05 0.0 0.0
0.00610729663605193 -0.0020048624393608793 0.0 -0.00246665178532679 0.0 0.0
0.006892122376111382 -0.0019168631806453884 0.0 -0.00588298810506108 0.0 0.0
0.007232932589860536 -0.002260676579248647 0.0 0.005562038992752864 0.0 0.0
0.006858536143582882 -0.0018996726793498843 0.0 -0.006019568375309889 0.0 0.0
0.006816959421262571 -0.0018603460628579202 0.0 0.005780360989183143 0.0 0.0
0.0028073215672787017 -8.780644438494532e-06 0.0 -0.0016669363932691323 0.0 0.0
0.00922544428252763 -0.0020955649658603364 0.0 -0.0003423606406227884 0.0 0.0
0.009237584595060789 -0.0020763010227843647 0.0 -2.5016578768681085e-05 0.0 0.0
0.0020445900628299858 0.00046680582017747947 0.0 -0.0001428387832802438 0.0 0.0
0.0020375843178090007 0.0004096579701652691 0.0 -0.00038731981492869366 0.0 0.0
0.008364622108385747 -0.0024174800162537363 0.0 -0.001170875850898769 0.0 0.0
0.0032595708926511638 3.350086368630303e-05 0.0 -0.00047459899061483377 0.0 0.0
0.00820188817770857 -0.002389654275105988 0.0 0.0009909041339523797 0.0 0.0
0.003215858280104018 6.948458478672944e-05 0.0 -0.0004694110933349631 0.0 0.0
0.0081726271389762 -0.00233882489769328 0.0 -0.001046607668860388 0.0 0.0
0.010887791599167057 -0.0033354179912484334 0.0 -0.0004111585476926947 0.0 0.0
0.011000615476046966 -0.0033535048862508928 0.0 -0.0005841469897597023 0.0 0.0
0.0015497606177599947 -0.0025336354676216534 0.0 -0.0014996095855327283 0.0 0.0
0.00357646485144243 -0.0021081052728714727 0.0 -0.004061631570038115 0.0 0.0
0.0024014151297872465 0.0005311089214000746 0.0 -0.00011934649365265989 0.0 0.0
0.0024314235594722106 0.0005555391836648706 0.0 -7.825099917412054e-05 0.0 0.0
0.007886582587027166 -0.002193656187766165 0.0 -0.00011497907741847824 0.0 0.0
0.008252434628662266 -0.002236863128653103 0.0 -0.0002749808750433955 0.0 0.0
0.015059790435834709 -0.00312486029584446 0.0 0.00544197063455897 0.0 0.0
0.001519930677186303 -0.002512228073823018 0.0 -0.0015542874380084948 0.0 0.0
0.015037023173212394 -0.0030819787089377527 0.0 -0.004356027399173084 0.0 0.0
0.001461079002583578 -0.0025376052559960365 0.0 0.0014711784376423068 0.0 0.0
0.001547800786756403 -0.002144011210051455 0.0 0.0018797297344980894 0.0 0.0
0.011713715229594607 -0.0027210716005623163 0.0 0.0054817952453008415 0.0 0.0
0.015236004026081922 -0.003183363220229388 0.0 -0.005195266436600391 0.0 0.0
0.003311142266913898 -0.0020375053024486393 0.0 -0.0037977567368604535 0.0 0.0
0.002942025786115546 -0.0006993339501518267 0.0 0.0031629698271030803 0.0 0.0
0.01513995944518247 -0.003101252010503387 0.0 0.005029520255170408 0.0 0.0
0.01070753424113372 -0.0023840302088791337 0.0 0.0024856720272823096 0.0 0.0
0.0035971032161127613 -0.00106268363819069 0.0 0.0035798041769319264 0.0 0.0
0.010803756923385982 -0.0026742376197502952 0.0 0.0026621699277258044 0.0 0.0
0.0033860717433903077 -6.74071908833938e-05 0.0 0.0007064861898376939 0.0 0.0
0.0050242417275911605 -0.002543116123273635 0.0 0.00473568247895511 0.0 0.0
0.009225488156145203 -0.003291686120836008 0.0 -0.0038942819907614133 0.0 0.0
0.011256508648803822 -0.0033020109558220276 0.0 -0.0026212730955007947 0.0 0.0
0.009145900523098348 -0.003262825454861846 0.0 -0.003959589263307752 0.0 0.0
0.011289877548248672 -0.0033211118534462003 0.0 0.0026010012367487768 0.0 0.0
0.010770153182014571 -0.0033009542794580063 0.0 -0.002623351402871698 0.0 0.0
0.011257361789929927 -0.0032796310166582324 0.0 -0.002844970829430544 0.0 0.0
0.005132784886176229 -0.0017502825840799072 0.0 -0.003556101433972028 0.0 0.0
0.004748601652687016 -0.002391961314441325 0.0 0.004800351077371964 0.0 0.0
0.010654557983237936 -0.0033032701243444207 0.0 0.0007487181325408441 0.0 0.0
0.008248805204762965 -0.0032875112999738673 0.0 0.0046559181033906626 0.0 0.0
0.009259292242032318 -0.00326324654950109 0.0 0.004037060775538986 0.0 0.0
0.003973267558191347 -0.0008843965203879397 0.0 0.002815618200592277 0.0 0.0
0.009551211922833886 -0.0030049790450297903 0.0 4.3177761276323796e-05 0.0 0.0
0.0022339875518730375 0.00019134969570277447 0.0 0.0013111261090937908 0.0 0.0
0.010935211375804096 -0.0024880523155232236 0.0 -0.002462916293311135 0.0 0.0
0.007099949552664104 -0.0028962755663086287 0.0 0.0048089817311722195 0.0 0.0
0.0024862656487872736 -0.0007054447065488674 0.0 0.0031274850829810393 0.0 0.0
0.009819387695007 -0.0021062168552797417 0.0 0.0015813299759714838 0.0 0.0
0.005026191514582885 -0.001286170041498945 0.0 -0.002249535352450224 0.0 0.0
0.01116036160267736 -0.002206739593353795 0.0 0.0019767277228801123 0.0 0.0
0.010091991577782487 -0.0030497375961596428 0.0 -0.002922685091389208 0.0 0.0
0.011264051858198405 -0.001984545221444528 0.0 0.0015880012990131494 0.0 0.0
0.008565985986685228 -0.002681336770883839 0.0 8.471682922065786e-05 0.0 0.0
0.010337811026064118 -0.0020254870144927654 0.0 -0.0019653025378279483 0.0 0.0
0.00215167033953462 -6.259608170035986e-05 0.0 -0.0020120661864474454 0.0 0.0
0.0019751795674196335 -0.0006063111444247584 0.0 0.002877454286522119 0.0 0.0
0.010800289300163362 -0.0032759604349326403 0.0 7.05589912234858e-05 0.0 0.0
0.0021389838574971524 -6.976092219716349e-06 0.0 -0.0018397071128074239 0.0 0.0
0.0020628752089968164 0.00029334684394165364 0.0 0.0009298491507510763 0.0 0.0
0.0024410200932053682 0.0005090739106193847 0.0 0.000293508838736605 0.0 0.0
0.009636437784471881 -0.001975823558938347 0.0 0.0010823383533595985 0.0 0.0
0.011520922915356616 -0.0019829434441394587 0.0 -0.0014460426724604977 0.0 0.0
0.009193509167875891 -0.002753166950835694 0.0 -0.0012700289531180063 0.0 0.0
0.010966423523510736 -0.003431543491533097 0.0 -0.002146150204790408 0.0 0.0
0.004976899244470482 -0.001883324919849593 0.0 0.003987410924896012 0.0 0.0
0.010695578765160033 -0.0033206777462619656 0.0 -0.0009111485482371723 0.0 0.0
0.0021393593535580053 -0.0005443379013941982 0.0 -0.0027291322268933067 0.0 0.0
0.01121423686962349 -0.0020877218353971853 0.0 -0.0018132061552734477 0.0 0.0
0.01022773171609884 -0.0031254876551055624 0.0 -4.5133934412079995e-05 0.0 0.0
0.010966575845924947 -0.003265162391501962 0.0 0.002405455028746195 0.0 0.0
0.010339855807910744 -0.002683948225269904 0.0 0.002921792013470093 0.0 0.0
0.002559226752925003 0.0004670240600268123 0.0 0.0002638630928977056 0.0 0.0
0.007933266365989287 -0.002241406927190651 0.0 0.0005426836960286744 0.0 0.0
0.009278315149974257 -0.0027729183095806563 0.0 0.0013934582190355776 0.0 0.0
0.010648714600163221 -0.0032956976166724364 0.0 -0.0009570143924380151 0.0 0.0
0.010053303246137435 -0.0031651990466784055 0.0 0.0002821462413833809 0.0 0.0
0.009968082597776302 -0.0033595503526846733 0.0 0.0033661171829766083 0.0 0.0
0.0035829022676787453 -0.0014643070819073047 0.0 0.004066798012161882 0.0 0.0
0.009654920190748692 -0.0022451771412427797 0.0 -0.002046309569873486 0.0 0.0
0.002533348434203714 8.002591165973942e-05 0.0 -0.00153242139601874 0.0 0.0
0.010578549194491527 -0.0020457493672148075 0.0 -0.001971774052395952 0.0 0.0
0.006686580154012538 -0.0028952825257562436 0.0 -0.004768728693968994 0.0 0.0
0.006919904458134825 -0.00298392325860018 0.0 -0.004701699210312085 0.0 0.0
0.011531865614927065 -0.0028263660081546817 0.0 0.0016315763955524008 0.0 0.0
0.009244240765159966 -0.002746561435484443 0.0 0.0013623282408742328 0.0 0.0
0.004879456559653201 -0.0009163773471115046 0.0 0.0006219247620922664 0.0 0.0
0.006800027674638647 -0.0019476214643612128 0.0 -0.0004334641082415598 0.0 0.0
0.004701589131111725 -0.0016393695564105735 0.0 0.003784055405524533 0.0 0.0
0.011282976198568986 -0.003020855927263078 0.0 -0.001985558646399699 0.0 0.0
0.007183850947929393 -0.0021875729025493413 0.0 -0.0007050733407176212 0.0 0.0
0.00796339952638472 -0.002485299596528905 0.0 -0.0002864514346580271 0.0 0.0
0.01081722404196448 -0.002925561651211085 0.0 0.002733245224398213 0.0 0.0
0.010963234847530635 -0.0033253373456914887 0.0 0.0006318956033750322 0.0 0.0
0.0025878978288133864 0.00023272131203717209 0.0 0.0011030844854776247 0.0 0.0
0.009191893191083407 -0.002263562776802764 0.0 0.0017437581885593064 0.0 0.0
0.01015661744322348 -0.0017460650809915028 0.0 -8.933672011908556e-05 0.0 0.0
0.01017937010462858 -0.0016720074841603842 0.0 0.0004217602528594204 0.0 0.0
0.0016498118754450961 0.0002489425444527731 0.0 5.078084050936148e-05 0.0 0.0
0.0017281489075849535 0.00030628251277706555 0.0 0.00018881999865266594 0.0 0.0
0.008723497693231018 -0.002728096751968858 0.0 0.00011397102317505207 0.0 0.0
0.008571428945735123 -0.0023499695319559527 0.0 0.0013039152053868001 0.0 0.0
0.010996148395096467 -0.003360436942314563 0.0 0.000592269916038882 0.0 0.0
0.009198614723292947 -0.0021737091875701957 0.0 0.001139903429217361 0.0 0.0
0.008648325342078603 -0.0023476796038367225 0.0 0.0011301418266896346 0.0 0.0
0.0024618230635675637 0.000282502650999508 0.0 0.0009570141544454858 0.0 0.0
0.002329384428651501 0.0005004168124353217 0.0 0.0002118412123371147 0.0 0.0
0.0027283802872207358 0.0003163255785437262 0.0 0.0006878010433071832 0.0 0.0
0.008628817972135164 -0.0022384347314933356 0.0 0.00025380418125847904 0.0 0.0
0.0022489360308457244 0.00048536526218282544 0.0 0.00036830305438520565 0.0 0.0
0.008617041088966985 -0.0022866602115258518 0.0 0.00062763077579167 0.0 0.0
0.011226042139780179 -0.003260205374924373 0.0 0.0017873099463253193 0.0 0.0
0.011338566033600473 -0.003428268738321208 0.0 -8.86439629044222e-05 0.0 0.0
0.010749573967504887 -0.003276956122270996 0.0 0.00012595087981657157 0.0 0.0
0.0032507446151991788 4.2634864693018846e-05 0.0 0.0005961306124617042 0.0 0.0
0.008414622676608908 -0.002441199695056745 0.0 0.0011761619858043537 0.0 0.0
0.005724452966619914 -0.0013434847605437706 0.0 0.0005976954524274244 0.0 0.0
0.010275170488721824 -0.0033723857869811615 0.0 -0.0021139812241204453 0.0 0.0
0.004477806363677751 -0.0006814616251095721 0.0 0.0006032716217805714 0.0 0.0
0.002491095028767318 -0.0004317828187936016 0.0 -0.0028013775091496646 0.0 0.0
0.0111466282453299 -0.0033896596891316586 0.0 -0.00045798631971979373 0.0 0.0
0.009893480595786888 -0.0030140488913782 0.0 -0.0014305180671640818 0.0 0.0
0.009191143702266346 -0.0018735662298294275 0.0 -0.006797629808157082 0.0 0.0
0.009391870406245 -0.0022503574547773665 0.0 -0.001683784238507453 0.0 0.0
0.0042509093261789595 -0.0015946649494076647 0.0 0.0048782446901471255 0.0 0.0
0.0092580674006576 -0.0018584987435159436 0.0 0.006825572196744103 0.0 0.0
0.00603730537046441 -0.0016350595808346095 0.0 0.0011703595325834638 0.0 0.0
0.008907817651203501 -0.002881648543774121 0.0 -9.242734262943263e-05 0.0 0.0
0.0014957106477650123 -0.0002829909789865234 0.0 -0.0017053226374894362 0.0 0.0
0.01223524765376228 -0.0025041695414588757 0.0 -0.006551498657372128 0.0 0.0
0.010321965095942008 -0.003173962366132836 0.0 -0.001216302614355525 0.0 0.0
0.0123227980313922 -0.002547924070480532 0.0 -0.006525246160185861 0.0 0.0
0.009574630076840373 -0.0023339480669666013 0.0 0.0021451740208075208 0.0 0.0
0.002781395185597891 4.119063362852602e-05 0.0 0.0016785154410076698 0.0 0.0
0.01207443380099732 -0.0018189238927450448 0.0 0.0009576522772010417 0.0 0.0
0.009209442669233877 -0.0018449096914676122 0.0 -0.006930361456494642 0.0 0.0
0.011446279953698728 -0.0034548178302764468 0.0 5.8867008387845205e-05 0.0 0.0
0.005820970895474757 -0.0027798677054456113 0.0 -0.005057346393233899 0.0 0.0
0.012268131566993894 -0.002552238936913439 0.0 0.006379247573925823 0.0 0.0
0.003917145719878772 -0.0006860990783367549 0.0 0.0023244121308509977 0.0 0.0
0.009957670266635842 -0.0019429267768595177 0.0 -0.0014720737704231191 0.0 0.0
0.0025131314100604045 -0.0019107747124103023 0.0 0.003058767460973867 0.0 0.0
0.00520150638706922 -0.0014248514732163426 0.0 -0.002149680255709237 0.0 0.0
0.00755836038667246 -0.002444409338307063 0.0 -0.0009719438668999394 0.0 0.0
0.007024971263211155 -0.002019738076432283 0.0 -0.0003992774852781614 0.0 0.0
0.013800294944858274 -0.0020041600778381375 0.0 -9.980250377635257e-05 0.0 0.0
0.0006701399891234641 -0.0008748220245640435 0.0 0.0012840464408724204 0.0 0.0
0.011207473670949937 -0.003411550235934372 0.0 0.0003772234181561474 0.0 0.0
0.007658947193873617 -0.0021958333568888257 0.0 0.0001903019970994223 0.0 0.0
0.0012117925282028041 1.6700932341889727e-05 0.0 9.542749772367714e-05 0.0 0.0
0.007838066515504283 -0.002411725670415834 0.0 0.0002963632336621621 0.0 0.0
0.010690435476753935 -0.003591781936779154 0.0 -0.002293586619287155 0.0 0.0
0.006268571978988851 -0.0023873377826307547 0.0 -0.00323895138972285 0.0 0.0
0.009163094110477702 -0.002136937404370257 0.0 0.0008269173607292247 0.0 0.0
0.005265961294415078 -0.002054099882272799 0.0 0.004820369116017208 0.0 0.0
0.012534050950032617 -0.0017949061062223256 0.0 -0.0004000498284241629 0.0 0.0
0.011495685477871996 -0.00346291363506905 0.0 -3.7135244293091686e-05 0.0 0.0
0.010107954482664532 -0.0028387658213248727 0.0 -0.0029799640714689986 0.0 0.0
0.0012419884265677565 -0.0008387736167384542 0.0 0.001851146152655303 0.0 0.0
0.0026582800777922603 -0.0020334558456364354 0.0 0.003094417033692419 0.0 0.0
0.014034638290076607 -0.002331238855298989 0.0 -0.00029490762865588035 0.0 0.0
0.0029170387003902044 2.3079834692199538e-05 0.0 -0.0014572630007245284 0.0 0.0
0.006932890614647662 -0.0030487525630645156 0.0 0.004051225147266702 0.0 0.0
0.002169149463945981 0.0005070131377131983 0.0 -0.00026149978847867227 0.0 0.0
0.011446214126078769 -0.0034525457719637147 0.0 7.385224266240147e-05 0.0 0.0
0.010123163263240744 -0.0031242951458516736 0.0 8.200756661518717e-05 0.0 0.0
0.011605749527492585 -0.003490400702842229 0.0 -1.966922866108886e-05 0.0 0.0
SCALARS Stress float 6
LOOKUP_TABLE default
1174.5176353929883 -0.9102512577006794 0.0 3.00875716865096 0.0 0.0
1181.6299643525776 -5.861400405621966 0.0 -5.126745285088527 0.0 0.0
1171.0967080568216 0.8876812537257879 0.0 4.203448962450542 0.0 0.0
1174.0472217312235 -1.2234392333015196 0.0 -3.733490517317467 0.0 0.0
2232.9912729046296 185.00188889167845 0.0 -3.057376256821822 0.0 0.0
2206.986981620648 164.23428941411055 0.0 -3.4261227717894016 0.0 0.0
1177.8043236361 -2.4578499628190875 0.0 0.04757388956246446 0.0 0.0
1168.4175659422922 -3.0564509059464626 0.0 -3.615229671312174 0.0 0.0
1147.596259531447 -3.0773589839562883 0.0 -9.126872231399723 0.0 0.0
1136.3423187925634 -4.411548130901357 0.0 -13.389901839713229 0.0 0.0
1108.5814213157341 -5.284895632465369 0.0 -18.460233076625762 0.0 0.0
1061.277998709725 -4.742133489999162 0.0 -27.026880439234738 0.0 0.0
1010.0611004920539 -2.925783470248234 0.0 -32.933543695609345 0.0 0.0
944.0308226349846 -1.2771941648176157 0.0 -35.21496721330239 0.0 0.0
875.0382372418235 1.5055217287041578 0.0 -34.09244336416923 0.0 0.0
797.599009812794 4.622307407028891 0.0 -26.112717119840738 0.0 0.0
755.8917193788494 10.060158810602431 0.0 -21.50294524167358 0.0 0.0
730.7731650808284 6.140501363512633 0.0 -5.161877781158418 0.0 0.0
724.0628623331783 7.048240459926397 0.0 10.32884694223252 0.0 0.0
750.506297360261 7.607800875145804 0.0 19.990066783554063 0.0 0.0
808.203005352485 5.071499381636216 0.0 31.811524279341207 0.0 0.0
863.3428323892758 2.0961813979037824 0.0 29.508361146282105 0.0 0.0
942.7886541958665 1.9137446368384303 0.0 33.014267190689594 0.0 0.0
1003.6650064851233 -3.0112317266643154 0.0 33.739947997942664 0.0 0.0
1066.3685558003097 -5.349255396289362 0.0 26.11057749009087 0.0 0.0
1110.8130944856725 -5.858409578951657 0.0 17.113799995807806 0.0 0.0
1141.3092980919666 -3.6528517314227256 0.0 10.362389990728953 0.0 0.0
1153.5335867179813 -4.214440340668149 0.0 9.562476771439618 0.0 0.0
1162.0659666369377 -1.61794598182136 0.0 2.657796922608093 0.0 0.0
1176.811751030351 -0.8910889220717311 0.0 -1.0070351413948204 0.0 0.0
1110.419239012129 -0.9088346259276437 0.0 5.33470641419142 0.0 0.0
1045.669444476647 -7.05190957088784 0.0 4.395138842971803 0.0 0.0
976.8517560078028 -11.714718762197682 0.0 3.9712176463628315 0.0 0.0
908.467837751142 -14.250438391135601 0.0 2.8627032220493103 0.0 0.0
831.472032129453 -10.027216221736241 0.0 0.7605923836587101 0.0 0.0
740.9302072213754 3.908841204092412 0.0 -4.882199871521336 0.0 0.0
645.8959543278778 22.549143243211393 0.0 -8.159308603929174 0.0 0.0
562.724763015863 44.25196018809865 0.0 -10.605136202912238 0.0 0.0
478.26925858376103 76.30870237391807 0.0 -10.737064620896767 0.0 0.0
394.20999361006284 110.4614744687931 0.0 -7.880387057155282 0.0 0.0
329.13019565288175 125.4018202290103 0.0 -5.90657914680938 0.0 0.0
295.32339434870875 140.27468170210489 0.0 -3.960276165475608 0.0 0.0
295.90542330895676 140.98330751745667 0.0 2.8336003636790084 0.0 0.0
340.48202280894435 125.7437753595986 0.0 7.498231801577888 0.0 0.0
408.54995099436655 97.6674181862343 0.0 11.309263507590671 0.0 0.0
466.8361918069568 79.5422975304396 0.0 9.689234360224836 0.0 0.0
533.6857705877062 53.997450446353696 0.0 10.596621576774444 0.0 0.0
638.6473062683224 24.286090843691014 0.0 6.223259380800938 0.0 0.0
732.5715685305146 2.0618205959989013 0.0 2.4914957984333577 0.0 0.0
816.8776728833964 -9.594073522661388 0.0 -1.1765509045569262 0.0 0.0
907.7209817138348 -12.924957871084747 0.0 -3.7488058622708005 0.0 0.0
995.3471175637055 -12.38830509908788 0.0 -3.7304433545783384 0.0 0.0
1041.1371150418174 -5.063192162353006 0.0 -5.253656125009577 0.0 0.0
1110.9258756438649 0.8352164640955096 0.0 -5.2353432851241815 0.0 0.0
1180.8704137318534 -5.565766483750585 0.0 2.5633717431471092 0.0 0.0
1166.8687737350488 -3.114124460894819 0.0 -4.6336911259617235 0.0 0.0
1149.981141751091 -3.282329451310006 0.0 -9.899699125783878 0.0 0.0
1138.7935206732873 -3.0475866648510532 0.0 -11.236248075259997 0.0 0.0
1106.0762532260733 -4.523543525251323 0.0 -17.488113874878447 0.0 0.0
1062.781522185399 -4.436245077166215 0.0 -24.061457142916527 0.0 0.0
1008.0741102855133 -2.786203876709162 0.0 -32.72194636843523 0.0 0.0
933.3617543220917 0.6935286965103271 0.0 -35.926044811901036 0.0 0.0
872.8538225062048 3.5794927837827504 0.0 -32.72076942985067 0.0 0.0
808.5246618739242 3.6566110907013574 0.0 -28.205497934054804 0.0 0.0
757.8541537239868 5.038666603355761 0.0 -19.059062108459408 0.0 0.0
736.7768983561901 6.164557411758745 0.0 -6.4046078404392315 0.0 0.0
716.3802184965039 9.16026120772741 0.0 5.605570687998246 0.0 0.0
746.2210087683236 6.246389715813159 0.0 16.0249949929924 0.0 0.0
803.0502828506982 5.082137134012376 0.0 24.083384322721834 0.0 0.0
871.0900441904239 2.473617715299763 0.0 30.74144740712159 0.0 0.0
942.6185302869646 0.3704066058888127 0.0 32.569309890446895 0.0 0.0
1005.3023603421398 -2.812426191797803 0.0 32.01559359512633 0.0 0.0
1068.6815907013731 -5.25165329463141 0.0 25.083597640248318 0.0 0.0
1109.1226310142802 -5.072243444491525 0.0 17.237319892659116 0.0 0.0
1126.719906840643 -2.618554885000195 0.0 16.23140779753587 0.0 0.0
1155.125230972897 -2.512467456330513 0.0 8.192506158946191 0.0 0.0
1164.6990409808755 -3.326001261375022 0.0 6.281829495118132 0.0 0.0
1175.8992745176836 -3.441576656481744 0.0 -0.6226762586125066 0.0 0.0
1115.5760906646633 -1.4608644375963424 0.0 2.5904065611269558 0.0 0.0
1051.839849562298 -4.277414347274772 0.0 2.5477762959516417 0.0 0.0
979.0313620506016 -11.713579190038558 0.0 3.7376581357954435 0.0 0.0
905.9946870445137 -13.670410281560581 0.0 3.4065095268134282 0.0 0.0
829.4366914503357 -8.619551561960806 0.0 -0.07885913735205119 0.0 0.0
748.7610646580556 6.286542569591982 0.0 -2.865305152439004 0.0 0.0
654.7157008651668 19.945209083122403 0.0 -6.403907613231377 0.0 0.0
558.5084961839502 47.12526914102728 0.0 -9.291785536375656 0.0 0.0
468.3030865321275 76.79923668528978 0.0 -9.263797386950923 0.0 0.0
394.17502533598906 107.21504138632436 0.0 -7.743968946797895 0.0 0.0
329.6932675200249 122.35517785997365 0.0 -7.023017943508783 0.0 0.0
297.06000229885393 140.1576706352705 0.0 -2.6730860421928697 0.0 0.0
291.93687958684086 144.0411087986062 0.0 1.6346929617359827 0.0 0.0
324.1584649132545 129.7093190229909 0.0 6.042549903834941 0.0 0.0
387.9814096417532 100.30647953904331 0.0 8.229100621231701 0.0 0.0
476.12264558602203 81.2673547308295 0.0 8.297729733318793 0.0 0.0
558.130388007731 48.96683340196252 0.0 8.166092840559584 0.0 0.0
655.1848849691944 22.24788903251324 0.0 6.328571629378063 0.0 0.0
746.3176352451226 0.16840021974317732 0.0 2.5349227698488574 0.0 0.0
832.4107564187613 -9.401455207289683 0.0 0.8373620216918853 0.0 0.0
903.619008622381 -9.490937646271089 0.0 -2.4023063128563193 0.0 0.0
981.0278203909011 -9.579845836193545 0.0 -6.801394442023264 0.0 0.0
1051.3189294862723 -8.108686109193096 0.0 -3.9820869134299595 0.0 0.0
1116.4304599703123 -1.6219270976444402 0.0 -4.072630070549991 0.0 0.0
2018.5117653210505 198.9494949235644 0.0 297.66820870525265 0.0 0.0
1586.6720672926083 196.55343890151897 0.0 416.72902017713386 0.0 0.0
1068.4820937241157 160.72279299312564 0.0 351.5528132893255 0.0 0.0
653.0680366208901 93.86893675393343 0.0 266.6978296272296 0.0 0.0
272.582506088879 -74.02177522089848 0.0 114.26194184239063 0.0 0.0
80.49434488551655 -271.0098252984629 0.0 10.013625297497569 0.0 0.0
6.135637682782233 -423.76409590986964 0.0 -16.997026712166075 0.0 0.0
-9.374856454218865 -496.76095549750806 0.0 -4.552309492062779 0.0 0.0
4.300351355294467 -439.14498740184354 0.0 38.59740568808191 0.0 0.0
94.34514815682374 -264.4265241398408 0.0 -0.6322999956260587 0.0 0.0
292.1584307946186 -57.41986913649164 0.0 -150.407069191305 0.0 0.0
623.6506372055036 98.32483307412141 0.0 -270.88808324255655 0.0 0.0
1099.2971305166727 195.0020668457428 0.0 -363.82273874105755 0.0 0.0
1601.7705949560964 202.5915112885978 0.0 -375.7387858662275 0.0 0.0
2045.6176760038134 179.5476884854423 0.0 -264.36809889661953 0.0 0.0
2014.0121405079522 197.4483302757007 0.0 243.24098138640773 0.0 0.0
1610.8367493714761 198.76872756233482 0.0 381.52610154062415 0.0 0.0
1097.1579789573652 191.04297814587457 0.0 362.3826336013721 0.0 0.0
605.6846943403048 102.92899545619873 0.0 268.68161141437383 0.0 0.0
226.94001982715923 -72.23574486024586 0.0 141.15149140253456 0.0 0.0
78.78839665878213 -264.69990616842784 0.0 30.994571621455407 0.0 0.0
5.469298476768623 -419.20316683052 0.0 -19.592747667511382 0.0 0.0
-12.536544628667363 -511.4985805419399 0.0 -3.045298356242018 0.0 0.0
5.378625280345908 -440.8087164348691 0.0 35.16336460280816 0.0 0.0
99.09452664568784 -268.0125110862488 0.0 -5.991313037275195 0.0 0.0
295.4387344986134 -57.172801032520375 0.0 -154.24317071061176 0.0 0.0
625.2496135216118 96.97724391211703 0.0 -271.6216829107234 0.0 0.0
1095.1871542259455 193.97255689986795 0.0 -365.5720209968219 0.0 0.0
1600.4985970368584 193.25521380797517 0.0 -390.6186152145232 0.0 0.0
2028.7695146803367 176.48841611931624 0.0 -281.8044678131862 0.0 0.0
1029.07693749129 -70.04411102709395 0.0 -67.54933876875978 0.0 0.0
1024.8539214921368 -68.68581366744812 0.0 -70.22203873764327 0.0 0.0
704.5908724847121 -62.98695219917898 0.0 -93.48306351462304 0.0 0.0
729.9900378745482 -71.24513459514563 0.0 -88.59299697640276 0.0 0.0
686.7785663480694 -75.24838244058981 0.0 105.35102710254972 0.0 0.0
705.4943956054441 -75.05861516395534 0.0 100.39295540973686 0.0 0.0
1030.6024677003898 -66.59615524417997 0.0 71.99313777399861 0.0 0.0
1037.6603236048343 -60.63356360096229 0.0 74.89984699240408 0.0 0.0
990.6773417688855 -11.069893790405969 0.0 -92.2589732126078 0.0 0.0
994.869804995062 -10.265004638770641 0.0 -99.21469162440528 0.0 0.0
527.9015169866793 39.750766542015974 0.0 -60.69076015501122 0.0 0.0
580.739014038362 24.68125795923363 0.0 -52.08861188503661 0.0 0.0
580.5817746786427 14.991588977227357 0.0 66.84107978510951 0.0 0.0
1004.0466414480331 -18.079652241510864 0.0 102.07124618954782 0.0 0.0
1050.2605789936536 19.882768982386175 0.0 -115.0669583657308 0.0 0.0
1065.9679240961045 19.3830407721823 0.0 -108.9633698686583 0.0 0.0
461.618715684155 5.644301931548599 0.0 -117.67669400389967 0.0 0.0
438.4769358064211 11.046698114551193 0.0 -118.40621621364616 0.0 0.0
523.0414427867987 -5.535236964025641 0.0 110.12299508268714 0.0 0.0
462.3123331336562 16.336933269156244 0.0 111.76990517333897 0.0 0.0
1037.3851375876177 8.160082783796204 0.0 115.5001129490282 0.0 0.0
1038.9168622698207 16.495034412831416 0.0 111.3674242987517 0.0 0.0
1016.5813756596751 115.6370101973966 0.0 -35.98297230463079 0.0 0.0
216.3966959884805 85.61200379219521 0.0 -40.5895120204518 0.0 0.0
995.716956734028 -32.31299317836725 0.0 26.06495521086597 0.0 0.0
938.5796080808462 -31.427381228017587 0.0 -8.335502267205282 0.0 0.0
1004.5616132926339 -29.21846936744146 0.0 30.961247121168938 0.0 0.0
966.6330465434955 -28.39492121697956 0.0 -13.156804556052574 0.0 0.0
1131.373143617198 -2.9753134673915502 0.0 -7.067326543139535 0.0 0.0
1130.0418757836612 -2.652915577991451 0.0 -1.9644840924239317 0.0 0.0
889.8856940493131 -56.35129700425472 0.0 -10.427284050084843 0.0 0.0
989.6542352350461 -56.09171305067328 0.0 -45.14228230588676 0.0 0.0
854.3066534479001 -54.9581504328516 0.0 24.358715976653464 0.0 0.0
970.5826497110542 -59.25202661151368 0.0 -32.208511984241376 0.0 0.0
896.0028908704753 -59.42263320483289 0.0 -7.958906369932263 0.0 0.0
347.0021196592309 -46.09038250008825 0.0 -162.8062652673395 0.0 0.0
1031.626282905907 -15.891534602765766 0.0 -62.61820047422068 0.0 0.0
1028.3459282841159 -24.053859887796232 0.0 -64.46208763084641 0.0 0.0
750.324151455832 -17.473579936986482 0.0 -32.429289339445354 0.0 0.0
1013.9805768398523 -27.675269425822428 0.0 91.370455486062 0.0 0.0
1043.9326121104596 -74.81111748788577 0.0 17.00448862453538 0.0 0.0
1030.450675149802 -76.86664887360882 0.0 50.529035311147965 0.0 0.0
682.693571674698 -116.72522200832093 0.0 161.7718219769652 0.0 0.0
661.2799086018758 -110.58634377443528 0.0 168.46707640783595 0.0 0.0
670.8670943025081 -112.29639779812275 0.0 -151.0654936807272 0.0 0.0
677.7177287088641 -114.50711673837975 0.0 -157.13610526506415 0.0 0.0
1030.7415487045866 -75.23970135537472 0.0 -46.830606021103264 0.0 0.0
1027.8425691207137 -74.79992040563943 0.0 -51.79363174090431 0.0 0.0
993.9272104756299 -58.477203090184005 0.0 50.32575219106313 0.0 0.0
831.5081201026607 -54.92682693694136 0.0 32.28147465601235 0.0 0.0
906.4593000497421 -105.53303445747378 0.0 37.08941499777369 0.0 0.0
896.4877738098246 -105.82579887296691 0.0 40.492400201892124 0.0 0.0
921.9811325390092 -102.5997991711012 0.0 -26.905354710096123 0.0 0.0
925.6090599432933 -103.52919080142613 0.0 -26.47450164449959 0.0 0.0
939.546728353221 -19.775732327101476 0.0 5.905433002785144 0.0 0.0
996.470072198436 -58.51813760048542 0.0 54.54357713236865 0.0 0.0
924.7842228694108 -23.869968680864865 0.0 2.0487904497642 0.0 0.0
1045.0436329903198 -18.743031483828165 0.0 -31.20591366891282 0.0 0.0
1033.547271939718 -18.2794480055378 0.0 57.06194614907911 0.0 0.0
796.1733318377383 -15.099753222621564 0.0 18.065383630242177 0.0 0.0
834.7934603398553 -18.915384186699654 0.0 12.002140522393034 0.0 0.0
1468.2135683282606 223.62539620461752 0.0 0.5964126038322888 0.0 0.0
40.254114036626504 -93.22408682012048 0.0 -10.143441403579967 0.0 0.0
52.47401595542689 -74.43456369291287 0.0 -7.799672522798643 0.0 0.0
952.7177483712242 6.3013702135450655 0.0 -91.78751040485001 0.0 0.0
923.7296682449056 13.196076910792472 0.0 -82.0959584009818 0.0 0.0
452.85427803118216 69.60011439667413 0.0 -51.868454134103914 0.0 0.0
463.0935265660149 62.51379842533563 0.0 -54.79451088250892 0.0 0.0
450.1874058452391 75.02262182559244 0.0 45.022878113536926 0.0 0.0
437.39364454758027 76.02437700725355 0.0 46.380127694181894 0.0 0.0
940.4658696202748 7.89361312295467 0.0 85.73202755677457 0.0 0.0
930.917440081364 8.898187270875306 0.0 83.47478484397672 0.0 0.0
296.4657350054336 131.79006825700628 0.0 24.316670820459365 0.0 0.0
887.7811260304408 38.50355011282165 0.0 -40.231534027064626 0.0 0.0
900.0273679513232 46.423777935114856 0.0 -33.497946542401685 0.0 0.0
284.963763016667 123.89273646231372 0.0 -24.02787103375816 0.0 0.0
284.4116723624129 121.8469729259656 0.0 -29.583708430412912 0.0 0.0
994.2606985165369 102.49978063896688 0.0 14.161576386367415 0.0 0.0
1046.8372177712763 -14.288399321456204 0.0 47.044734218173325 0.0 0.0
1063.1030738180157 -13.317232097545036 0.0 -31.680126636149083 0.0 0.0
964.627657475297 -12.31094828160169 0.0 -3.7614186613668386 0.0 0.0
925.4984825936365 -14.088877198082109 0.0 -0.22034436464576768 0.0 0.0
1098.7397982654356 -7.492252908488103 0.0 17.390027417368785 0.0 0.0
1063.6766551729056 -8.915422733634898 0.0 -11.376389423061907 0.0 0.0
1019.6579249116438 -26.429830503280275 0.0 -104.68397896835276 0.0 0.0
1016.5335015913867 -28.86655849576629 0.0 -100.36378813850537 0.0 0.0
647.6938764771785 -9.7552018949427 0.0 64.93502534545213 0.0 0.0
612.7456450115808 -9.301637402730236 0.0 -81.63472069890626 0.0 0.0
1017.311053859248 -29.761253600392635 0.0 99.68311553748545 0.0 0.0
1008.6909684298843 -21.173339058660545 0.0 99.0095336675749 0.0 0.0
1008.4624935910177 -16.023926055296307 0.0 14.37672521697927 0.0 0.0
1077.4126138239933 -5.071786932475886 0.0 -1.880503044023575 0.0 0.0
599.7118420512234 -40.136089495374485 0.0 125.06307794874283 0.0 0.0
595.6889407583091 -35.916311893491205 0.0 115.7186154594313 0.0 0.0
1051.4139019057268 -33.480409953981436 0.0 96.36721706347856 0.0 0.0
1068.716352355669 -23.905352020348708 0.0 94.6582908591671 0.0 0.0
1043.1347515136774 -20.787931235810802 0.0 -109.35766836357494 0.0 0.0
1055.9480304193876 -37.217814695906505 0.0 -93.56429260783781 0.0 0.0
565.0268200368303 -13.65892904049002 0.0 -111.05900920154858 0.0 0.0
581.1879728599205 -47.71579436326731 0.0 -129.16616427528515 0.0 0.0
1131.739502485822 -3.6270173869887463 0.0 -7.031988414229282 0.0 0.0
1042.7552007959825 -7.478984334068831 0.0 -4.1068107180179965 0.0 0.0
976.4734077627426 -5.33565435865936 0.0 -61.51666390476186 0.0 0.0
613.9769830205481 25.652577634905143 0.0 -28.88116527377307 0.0 0.0
610.797040124503 26.13210383292627 0.0 -25.110343220880218 0.0 0.0
601.2174440020394 30.74838497519234 0.0 24.099066452374444 0.0 0.0
982.3685337802867 -3.8972550818300635 0.0 52.30505363029586 0.0 0.0
980.0897002161935 -3.7147172157501984 0.0 53.400133842146744 0.0 0.0
1066.985652774247 -9.818654914726505 0.0 13.508050652409713 0.0 0.0
1067.3587180895374 -8.89074457166232 0.0 -10.986765860199737 0.0 0.0
1064.4204428535104 -9.185411617643298 0.0 12.502254989896695 0.0 0.0
1022.5061825692459 -10.489964722369463 0.0 6.331489355960437 0.0 0.0
1059.2120295830005 75.05904923807175 0.0 -104.04090614077782 0.0 0.0
1035.5038234665353 66.55312413043104 0.0 -98.02854029692358 0.0 0.0
314.5901570801513 44.34974951039119 0.0 -107.53447777344564 0.0 0.0
338.6886933061121 52.92003884335999 0.0 -101.42800411468187 0.0 0.0
1025.6582888780354 -10.215560342739895 0.0 -112.72117023501772 0.0 0.0
575.6838528554526 0.9248003068019854 0.0 82.44547871124375 0.0 0.0
576.6656175526898 -5.044840636709029 0.0 95.04424985262284 0.0 0.0
1024.1040057642697 -18.292352678037695 0.0 110.78217220013961 0.0 0.0
1128.5368974888675 -5.4202051186767 0.0 7.966935523119431 0.0 0.0
301.7600364225029 69.40539102894206 0.0 89.21818054869378 0.0 0.0
312.1989241167727 61.736010240742495 0.0 90.16961707372256 0.0 0.0
1037.8920704538564 80.39195388283686 0.0 90.32158152471747 0.0 0.0
1029.0950493446257 75.13644720208018 0.0 94.11442701167655 0.0 0.0
955.0571734915175 -14.081463819588615 0.0 1.094503520182706 0.0 0.0
1016.5604610877756 -7.7314834910669 0.0 1.8181560822459817 0.0 0.0
261.50659031607125 -114.93043144238572 0.0 153.78719124133823 0.0 0.0
307.4084682287516 -107.93655468260829 0.0 164.9045842532468 0.0 0.0
1257.800409624004 75.65737549118607 0.0 -16.760523567861014 0.0 0.0
1265.0249304503466 76.71007251358303 0.0 -32.18583453461019 0.0 0.0
1282.699909089414 100.20685397640217 0.0 38.84594815514053 0.0 0.0
1256.3281766913806 76.40591778777028 0.0 12.104300913291787 0.0 0.0
253.1150195068294 -87.2039704033271 0.0 -154.51844052851987 0.0 0.0
243.21104398537113 -94.8619443886871 0.0 -150.71514249952247 0.0 0.0
1019.0905799924094 -30.44662710620937 0.0 -43.43753502411157 0.0 0.0
697.0579969142434 -94.64005867533001 0.0 -121.57826084493877 0.0 0.0
1039.9607731772044 -78.12273807696923 0.0 -40.01104842368958 0.0 0.0
711.5894031507955 -96.50679470274295 0.0 -122.12544338709125 0.0 0.0
974.3059167810718 -40.182352137875185 0.0 -25.374730930824857 0.0 0.0
835.5536875921321 -118.59720657883516 0.0 -93.73784812712695 0.0 0.0
834.9846129094633 -119.5729374734763 0.0 -94.01903620418148 0.0 0.0
957.6554614325297 -105.9925630639781 0.0 32.02966026486234 0.0 0.0
848.2164723922534 -26.496926464237944 0.0 -12.369704774265399 0.0 0.0
1034.5220792913328 -24.230523919866044 0.0 -47.30160472035088 0.0 0.0
961.3310542472883 -109.21987294571775 0.0 -35.55284938237054 0.0 0.0
955.3931088628015 -110.76022862051207 0.0 41.580944390560404 0.0 0.0
963.9504964653324 -110.66791730339224 0.0 -36.0075297870653 0.0 0.0
823.0254185258743 -117.64228148371019 0.0 100.03028290515513 0.0 0.0
851.9170152810768 -117.76411985898632 0.0 -119.2436926205539 0.0 0.0
897.2455526152612 -113.44956644672591 0.0 102.81948643452304 0.0 0.0
858.0019013936878 -114.1548068679685 0.0 -117.0180527296209 0.0 0.0
1001.3421179022757 -37.30626880648656 0.0 -39.95683439745891 0.0 0.0
791.08742481855 -114.39754512847232 0.0 111.35708768819023 0.0 0.0
126.64653652641847 -92.51218930809647 0.0 102.6242229536104 0.0 0.0
210.82255090051964 -62.87679214674978 0.0 136.13266263521967 0.0 0.0
1365.7430129658771 187.49292372339636 0.0 4.2450274729413975 0.0 0.0
1297.1983903039713 151.51320549919993 0.0 20.38145739413718 0.0 0.0
1367.0298816949482 170.50366599125093 0.0 -2.2418969503360318 0.0 0.0
1389.737360036208 183.1453103817998 0.0 13.458959811987327 0.0 0.0
113.36194505164113 -95.43757194404554 0.0 -86.68772050218959 0.0 0.0
103.8677687517574 -102.20259356730044 0.0 -86.0907367316898 0.0 0.0
911.0241424535329 -41.635586203450124 0.0 -1.1646751787283771 0.0 0.0
862.9489999270626 -110.90748244665002 0.0 118.76877464512495 0.0 0.0
578.3132668152338 -76.04927505908283 0.0 -152.28012979372943 0.0 0.0
720.0893783934242 -35.39273358102093 0.0 -61.71222232987445 0.0 0.0
1105.460588869658 -17.41453159551176 0.0 -63.237866306110575 0.0 0.0
521.044603362565 -66.42543275837583 0.0 -159.3325513125078 0.0 0.0
1048.0940877448008 -17.023918044297314 0.0 -48.39421077709299 0.0 0.0
929.9616629594893 -62.36800671929666 0.0 -6.657154570566532 0.0 0.0
953.8346997379427 -83.20124318044145 0.0 -12.89309840337582 0.0 0.0
817.4257815133491 -39.38442755075287 0.0 -29.752579169439844 0.0 0.0
1017.628245456985 -49.49245152165316 0.0 -85.05784299509781 0.0 0.0
900.3012911646476 -27.043349285270928 0.0 2.615164034499555 0.0 0.0
725.4727594386254 -35.96078600063995 0.0 -62.56865981971064 0.0 0.0
880.1605433721035 -82.05226394384798 0.0 29.16370481337957 0.0 0.0
821.5630777986604 -22.153487747319467 0.0 -15.88242139549353 0.0 0.0
1049.9022153281767 -66.51649360541282 0.0 -40.27653520439945 0.0 0.0
991.7105264581501 -43.25783791565345 0.0 37.35771125794656 0.0 0.0
904.9647338562679 -39.02403846490713 0.0 -2.0452936105328314 0.0 0.0
660.3699010481577 -92.15210068957323 0.0 134.74721705463313 0.0 0.0
1054.306748145173 -63.899826087324826 0.0 44.025462479226235 0.0 0.0
1033.3059413412734 -23.403092654712616 0.0 36.845081915955184 0.0 0.0
898.3089311468528 -82.3172001243955 0.0 -17.498788393757188 0.0 0.0
1019.8362756914569 -34.1124592637312 0.0 -65.64241179132702 0.0 0.0
642.9514978467333 -83.47715584630198 0.0 136.72442078248187 0.0 0.0
941.1610352263805 -83.28826286964608 0.0 -6.646503502585577 0.0 0.0
966.7569394276555 -81.40586286578869 0.0 22.800181393993462 0.0 0.0
824.8056639438701 -42.3897901176347 0.0 -28.10293507205641 0.0 0.0
1059.9732251162338 -61.62408332826424 0.0 37.831300295521196 0.0 0.0
1010.6854400301662 -43.01334230713586 0.0 -61.98187394636334 0.0 0.0
865.6095134099768 -80.81685200701787 0.0 36.53650773491202 0.0 0.0
970.8105723478333 -81.65797449802929 0.0 24.914279151558635 0.0 0.0
833.3298817960266 -31.618613979517768 0.0 19.007126260031985 0.0 0.0
904.6485937953737 -81.87293930416584 0.0 -15.6858524034911 0.0 0.0
686.7102097350005 13.405632957208132 0.0 18.458246645317526 0.0 0.0
955.8916158007846 -64.23500212260446 0.0 22.119336912252045 0.0 0.0
1018.3441549917109 -34.85036770524889 0.0 58.49712115213799 0.0 0.0
910.8702581134579 -62.66330741530303 0.0 1.3514561560573588 0.0 0.0
949.9388622666838 -44.091937116336524 0.0 14.729442660784287 0.0 0.0
872.2660481125424 -26.774070028526125 0.0 7.8099760763547845 0.0 0.0
951.7323595837992 -63.343364828078165 0.0 19.17150342246791 0.0 0.0
456.85374811430887 -20.885500480996967 0.0 -199.2686728318427 0.0 0.0
894.6728053105529 81.38669358098399 0.0 272.1549431399822 0.0 0.0
458.33744621792414 -19.697619953696957 0.0 -199.764500627895 0.0 0.0
343.91376346425113 103.20140471728593 0.0 47.358446174563156 0.0 0.0
323.1412473622561 115.48407052700168 0.0 36.415582595439496 0.0 0.0
924.4909071641013 25.73517607431115 0.0 73.61073985917129 0.0 0.0
901.9566818544887 17.840155469708332 0.0 71.80172847646945 0.0 0.0
994.347348312434 -70.64724816070482 0.0 -50.62647721713064 0.0 0.0
994.1773266415665 -28.23374331308725 0.0 -23.493025500489306 0.0 0.0
1029.3972914233848 -8.415072684507813 0.0 48.19496352707696 0.0 0.0
820.3664454527599 -66.32064022986313 0.0 -45.34513416861364 0.0 0.0
1029.1803865223842 -26.157314101762374 0.0 47.412509829481245 0.0 0.0
895.8836223166802 -32.898622635628485 0.0 -1.9303617737792031 0.0 0.0
887.6187974975063 -43.2127950576585 0.0 6.616599451023333 0.0 0.0
811.5886382707927 -65.60507583241674 0.0 -48.64714688932805 0.0 0.0
979.9912983486156 -93.29881642982488 0.0 -19.67317539473585 0.0 0.0
1002.1230141305515 -73.93909936990883 0.0 -56.17829387642664 0.0 0.0
873.8185698863202 -16.827416463047783 0.0 -4.113027691627211 0.0 0.0
1123.8270217464467 -17.03790339580599 0.0 -27.063207728933143 0.0 0.0
1014.5887691453253 -45.9444159065575 0.0 -78.66356781261038 0.0 0.0
826.4093100094988 -94.82783546408456 0.0 -66.4952029019662 0.0 0.0
730.213702720631 -0.5827601618153722 0.0 -20.103994841386804 0.0 0.0
952.2793000964064 -44.27481600725076 0.0 -17.79531246328915 0.0 0.0
452.3373648901561 -99.88171028473855 0.0 -181.57311499451131 0.0 0.0
1160.6921315776397 6.252351394458575 0.0 13.870714228163388 0.0 0.0
453.3917187850617 -87.64829743392346 0.0 -179.698727234677 0.0 0.0
818.1724568817558 -94.21264274979885 0.0 -69.36564000183265 0.0 0.0
994.9173382303788 -43.92660436386912 0.0 42.75357073738235 0.0 0.0
969.4296672157143 -30.645749327333938 0.0 14.544534729900864 0.0 0.0
954.5557700504222 -45.992882825769186 0.0 18.428085553067923 0.0 0.0
1020.9803027346909 -23.19186126523196 0.0 -26.855321354236327 0.0 0.0
500.7697754797164 -88.80663073792937 0.0 175.34965091052624 0.0 0.0
1131.2482678775928 -10.88199845171842 0.0 26.345567624361408 0.0 0.0
1130.321877572341 -17.499122158340352 0.0 6.881700750238867 0.0 0.0
500.81927117369366 -87.78708189016595 0.0 173.49788817756152 0.0 0.0
811.2714481972301 -31.16246479700727 0.0 25.90949121274053 0.0 0.0
865.6811490473596 -17.68417971784188 0.0 6.138836813526579 0.0 0.0
1016.3440322812121 -36.74830996477949 0.0 64.56705668061608 0.0 0.0
781.2742448823774 -6.303974951548398 0.0 -11.075898877483745 0.0 0.0
245.34713542466963 113.24122949659068 0.0 21.425938136331638 0.0 0.0
1058.31930746305 -11.351684393228437 0.0 40.093082335926596 0.0 0.0
900.3571337205531 30.412438418060557 0.0 -65.54058421087188 0.0 0.0
908.8371501341329 23.867433981430683 0.0 -71.45201910506573 0.0 0.0
368.3275801089434 99.94476570012395 0.0 -42.88371844573318 0.0 0.0
361.05942691741313 101.44236232067337 0.0 -42.08395079129111 0.0 0.0
874.9694050502244 -16.601539370730894 0.0 -3.046831161326158 0.0 0.0
705.4494104417308 4.95007533806363 0.0 20.4694423671914 0.0 0.0
971.7560542566107 34.87743193692648 0.0 -97.80705625898052 0.0 0.0
546.1221345318959 37.18227356000123 0.0 47.85376427509015 0.0 0.0
787.2707666760546 -67.62248661449227 0.0 60.919355929485484 0.0 0.0
379.8773908215087 75.3575317734108 0.0 76.77640473754649 0.0 0.0
371.2447793944495 81.7991081371166 0.0 62.57935251837685 0.0 0.0
990.3690108481584 28.9688573708321 0.0 104.32639102947061 0.0 0.0
972.7110550498098 29.760112520180282 0.0 98.85254033017114 0.0 0.0
974.5644317368251 -7.3751831049292615 0.0 87.40126985286267 0.0 0.0
1024.5546160318256 -10.177030136469837 0.0 51.30395385995412 0.0 0.0
1006.3412764310178 -69.28181826897591 0.0 61.70423561407094 0.0 0.0
970.0676993515245 -27.6311919068405 0.0 13.771076521872164 0.0 0.0
902.5760564193918 -16.526044305678845 0.0 2.573764411230927 0.0 0.0
1063.0724257983834 -13.801048598833974 0.0 28.054283008156332 0.0 0.0
1125.6998668004585 -4.857237469705932 0.0 7.0722132973738 0.0 0.0
1010.96421087882 -21.252847111136024 0.0 -82.33519415603553 0.0 0.0
936.1416463637462 -0.027296838836216808 0.0 -58.277002500949585 0.0 0.0
520.5302411631865 53.59871668142763 0.0 -29.534472119255376 0.0 0.0
991.3106271098804 -92.93064440007608 0.0 -20.79657328446742 0.0 0.0
670.7802989725983 4.580710432243371 0.0 -36.00389611236618 0.0 0.0
1012.2188771551098 -17.23444871625064 0.0 -77.8342465547544 0.0 0.0
768.2057227026537 -65.42249841704717 0.0 67.93838626158316 0.0 0.0
1078.1064452941332 -9.541467821888737 0.0 28.25033586527305 0.0 0.0
880.166141485535 8.231556628434504 0.0 -53.94379625026117 0.0 0.0
880.1556091172741 2.968770535408045 0.0 -50.949329619132584 0.0 0.0
420.15477154292626 85.41650237521249 0.0 -26.612500451255727 0.0 0.0
422.33588616021063 87.7564005523034 0.0 -28.426395648300733 0.0 0.0
431.16621276926026 88.2583409385962 0.0 19.997702847264136 0.0 0.0
866.612660043791 3.5047367307856008 0.0 45.21898568601845 0.0 0.0
873.3488588134314 4.970633927240746 0.0 49.83552354538141 0.0 0.0
962.8755646596508 79.98864231349252 0.0 -42.21110738273003 0.0 0.0
236.9587173950304 102.6907311378978 0.0 -35.29146345686523 0.0 0.0
1011.6742577356513 -67.29715564601031 0.0 66.21653000829323 0.0 0.0
999.0770477931106 -88.12776909385832 0.0 28.397826200829975 0.0 0.0
758.9136464950726 -35.30425976069268 0.0 47.506745065369984 0.0 0.0
1080.430322986429 -8.734035581686076 0.0 -17.712162888467283 0.0 0.0
806.0938463929024 -97.6257478385852 0.0 79.46158307031425 0.0 0.0
343.0954856121365 0.5426370431858456 0.0 -137.8841399979004 0.0 0.0
1003.8094749167847 -87.57384887635538 0.0 30.038772612982676 0.0 0.0
736.0497071052052 -10.270384325018775 0.0 31.493738184199287 0.0 0.0
1016.3778552384923 -42.79510978800643 0.0 79.71951123196008 0.0 0.0
949.1437204874132 0.5570953686003572 0.0 -83.03237930178474 0.0 0.0
791.5770204618876 -98.61697384897334 0.0 84.93729079160448 0.0 0.0
1124.5033104636043 165.9895110660095 0.0 -34.12108506253462 0.0 0.0
1138.3809299571433 168.03000375386048 0.0 -39.10006618168493 0.0 0.0
169.88116845801397 53.083025621405824 0.0 -48.31542654151869 0.0 0.0
184.99909598358548 73.8968944452756 0.0 -33.63526855755018 0.0 0.0
188.9500812435224 52.251159797649706 0.0 59.97067529074964 0.0 0.0
199.93155046570607 52.26097827745765 0.0 69.92535414816871 0.0 0.0
1092.24415617967 132.08693781240842 0.0 68.22816519414276 0.0 0.0
1104.1650677155626 153.57063605790023 0.0 46.4561266898621 0.0 0.0
1021.6482353852579 -24.964730615060013 0.0 73.3906435441201 0.0 0.0
1012.1560484937945 -29.20051684657885 0.0 -93.44122366199403 0.0 0.0
739.7502252189307 -33.49134135214942 0.0 53.99349932176879 0.0 0.0
665.5462082381523 -4.136257254285137 0.0 -53.08620324452701 0.0 0.0
1035.4485198280036 -17.063506765544577 0.0 -21.240963902094272 0.0 0.0
931.5912950891436 -21.078343663656778 0.0 -3.4694817458537335 0.0 0.0
1016.237330155584 -42.05208638162864 0.0 83.1688544673381 0.0 0.0
505.5355748356352 58.25544900237001 0.0 -31.192555282001447 0.0 0.0
1712.7172571352037 185.58607961303707 0.0 60.52968587039142 0.0 0.0
1812.775679142484 179.79522699473705 0.0 92.03216818447441 0.0 0.0
6.576604291872918 -301.27883763379515 0.0 -19.207053527303977 0.0 0.0
7.7208645321069005 -306.2447538874553 0.0 -19.587168277199197 0.0 0.0
9.928266534935176 -277.9430993205771 0.0 7.099223342914313 0.0 0.0
12.632446694442864 -253.8212216488719 0.0 18.308956702629818 0.0 0.0
1808.3203802609548 173.3098789229402 0.0 -92.84224903936082 0.0 0.0
1787.8577695455715 165.23866381734183 0.0 -79.35623007618192 0.0 0.0
637.4717622958335 1.2803181642881816 0.0 -56.39365001254113 0.0 0.0
1025.1593580082563 -8.837342854210062 0.0 -48.02296243703742 0.0 0.0
811.3432548867426 15.601025422496935 0.0 -30.71552097819564 0.0 0.0
811.0045568848984 14.045199149271086 0.0 -29.48468616857484 0.0 0.0
314.3341234302467 127.68047468665343 0.0 -15.381816704234575 0.0 0.0
314.0274237409185 127.02237923584455 0.0 -15.781160594423087 0.0 0.0
994.8910728366627 29.296242965333835 0.0 -105.45332987176258 0.0 0.0
422.86733971272906 57.48146220283411 0.0 -78.80148427255678 0.0 0.0
384.4149225973887 64.37454742731943 0.0 -81.0026112061075 0.0 0.0
1069.0235402416329 -6.809497584429108 0.0 32.819910279897066 0.0 0.0
803.8671203022063 -8.64764832719043 0.0 10.070932909622016 0.0 0.0
997.1399527197326 -11.496736364702537 0.0 -4.993788108335295 0.0 0.0
1062.8931820834628 -7.656139587140847 0.0 -35.67678007643093 0.0 0.0
960.0742289779183 -18.406540193348835 0.0 -5.395832632539281 0.0 0.0
1116.541121705085 -6.110638644655427 0.0 5.155863129952184 0.0 0.0
1209.918434421593 77.372891807189 0.0 -49.66188283270299 0.0 0.0
1215.4278138894956 110.70198140705033 0.0 -62.08522894754534 0.0 0.0
236.2972203381438 -19.041094648051214 0.0 -128.2139739499357 0.0 0.0
310.18424803763946 -54.916964260140034 0.0 -156.32231839531863 0.0 0.0
299.4901733393563 -42.03547151857398 0.0 150.94290284285782 0.0 0.0
1184.50697473477 93.48439539439634 0.0 74.39081956209864 0.0 0.0
1070.6705261685802 -7.1615366807372 0.0 30.211320568478563 0.0 0.0
310.84762455918553 129.46594281724097 0.0 17.06278287072672 0.0 0.0
789.3017961858382 13.690695770495072 0.0 26.94305266688794 0.0 0.0
1028.263544703636 -47.2878622684693 0.0 -89.81579226383275 0.0 0.0
991.4188103759582 -20.31766361958893 0.0 -14.20186995330013 0.0 0.0
1008.9641246372713 -11.622852260476407 0.0 -7.381884348390736 0.0 0.0
1028.9306233401387 -16.797965485228158 0.0 20.210888987935075 0.0 0.0
462.730117606761 -38.42945342984175 0.0 -151.51226241732698 0.0 0.0
1111.6574912654144 46.292634799941936 0.0 -96.89211323681754 0.0 0.0
386.9506946547056 -9.912999854921136 0.0 -141.8442626114557 0.0 0.0
1007.2818528725641 -15.341120966999439 0.0 81.11211224425753 0.0 0.0
1017.4765856148795 -16.55756854604694 0.0 -14.808415016023345 0.0 0.0
1002.6011563870551 -13.966034257798789 0.0 81.07239363947137 0.0 0.0
633.3446675512637 12.054211831403162 0.0 44.68735450150371 0.0 0.0
503.60206566906703 36.420002350846985 0.0 70.74868356687098 0.0 0.0
650.9383008455056 -32.65041603178913 0.0 89.74542553925085 0.0 0.0
982.4040030496315 5.695744073662486 0.0 -105.17902947362376 0.0 0.0
1030.2776687620715 -32.85571984618361 0.0 101.25990844909153 0.0 0.0
674.8287988142566 -41.25839589939743 0.0 83.28171279533223 0.0 0.0
723.6948220775784 -11.777559856815165 0.0 38.692005133253765 0.0 0.0
1028.4397695722434 -44.41622249807348 0.0 91.82531221500912 0.0 0.0
992.8305303056273 1.4692253124291415 0.0 108.73116885389241 0.0 0.0
1016.9328581928892 -23.501032376945055 0.0 78.67530366078716 0.0 0.0
494.7162233083883 35.82722811911914 0.0 80.09662925771693 0.0 0.0
1092.2239723713599 -7.540656599315678 0.0 -25.25715598318935 0.0 0.0
998.9792691374236 -4.49641433086176 0.0 109.39906102113603 0.0 0.0
650.6918569806978 -4.5676370963674895 0.0 63.890966107020965 0.0 0.0
653.9915384305597 -40.370529551679695 0.0 -96.25637136700266 0.0 0.0
1035.1165362188412 -43.93056489897965 0.0 -98.03711459960849 0.0 0.0
1256.4519253883225 212.23552788853675 0.0 -25.721867464290295 0.0 0.0
104.08560048853991 -7.3403595697528905 0.0 -51.48561939436652 0.0 0.0
1104.288107389084 -7.081880877589936 0.0 -19.730419203630213 0.0 0.0
1034.0985785990015 -16.653692492903318 0.0 24.050589681406557 0.0 0.0
1106.3548010537047 -7.4824357279051785 0.0 12.897554863107112 0.0 0.0
513.6184505011719 45.94203184810531 0.0 42.67473607535369 0.0 0.0
976.3908693793005 -5.456378922649645 0.0 87.24289370036608 0.0 0.0
122.56812471430915 -13.157507401685288 0.0 58.4231684825509 0.0 0.0
111.72994730208856 23.39836244616038 0.0 8.47237167610269 0.0 0.0
1210.4292650315695 202.9063029242183 0.0 18.212146772715553 0.0 0.0
1201.9133075785567 204.72264046544302 0.0 2.5814533901442633 0.0 0.0
605.0371323344688 -18.97510423574722 0.0 -94.87122251256883 0.0 0.0
694.1827936173369 16.568520020662213 0.0 -226.26877327158002 0.0 0.0
720.299957811642 -9.977670581372056 0.0 213.92457664434096 0.0 0.0
691.0587186569139 17.350347662085724 0.0 -231.5218605888419 0.0 0.0
687.7863299346368 20.301292694599 0.0 222.32157650704397 0.0 0.0
308.2074037304564 91.58415667528749 0.0 -64.11293820265894 0.0 0.0
944.7005266779703 73.85366141735746 0.0 -13.167716947030321 0.0 0.0
946.6697020027998 76.37080832240349 0.0 -0.9621761064877354 0.0 0.0
240.06942954760768 118.70141088203025 0.0 -5.493799356932457 0.0 0.0
237.4155724020419 112.1904687371395 0.0 -14.896915958795908 0.0 0.0
839.4920992867719 10.099628160657964 0.0 -45.03368657302958 0.0 0.0
359.29902766561037 111.13979466831343 0.0 -18.25380733133976 0.0 0.0
822.5265818875573 7.79254705566837 0.0 38.1116974597069 0.0 0.0
355.681720389015 113.65297459537746 0.0 -18.054272820575505 0.0 0.0
820.9867768866171 12.413543296657117 0.0 -40.25414111001492 0.0 0.0
1086.501780416761 -7.591264999814932 0.0 -15.813790295872867 0.0 0.0
1098.3037373815055 -5.859367410637723 0.0 -22.467191913834693 0.0 0.0
86.77692060148331 -227.3304705817204 0.0 -57.67729175125878 0.0 0.0
323.5201395143943 -113.75448543282896 0.0 -156.21659884761982 0.0 0.0
281.4008578249746 137.53114948749985 0.0 -4.590249755871535 0.0 0.0
285.5038807221617 141.2050825831356 0.0 -3.0096538143892513 0.0 0.0
794.3390912854194 18.936108609009295 0.0 -4.422272208403007 0.0 0.0
833.1182076995972 26.249149444568907 0.0 -10.57618750166906 0.0 0.0
1551.9046535254258 153.08536647318164 0.0 209.30656286765264 0.0 0.0
84.20464341092276 -225.96141435902507 0.0 -59.7802860772498 0.0 0.0
1550.8164352231943 157.04705967318316 0.0 -167.5395153528109 0.0 0.0
76.900816020304 -230.6902807935125 0.0 56.58378606316566 0.0 0.0
99.40631030120515 -184.57922791478387 0.0 72.29729748069576 0.0 0.0
1197.5157966402103 87.14757893583132 0.0 210.83827866541702 0.0 0.0
1569.3401164849563 152.46571292254814 0.0 -199.81793986924583 0.0 0.0
296.69128309662705 -114.74314531587585 0.0 -146.0675668023251 0.0 0.0
300.2445715461537 20.139976448663436 0.0 121.65268565781078 0.0 0.0
1561.492729893567 158.32261791773138 0.0 193.44308673732334 0.0 0.0
1098.0577119197783 91.01429268802009 0.0 95.60277028008882 0.0 0.0
360.25254117093994 1.8073985322129837 0.0 137.6847760358433 0.0 0.0
1099.064355764933 62.295544754450326 0.0 102.39115106637712 0.0 0.0
369.87358089288887 104.2213551795273 0.0 27.17254576298823 0.0 0.0
468.2754824845132 -113.82896758200958 0.0 182.1416338059657 0.0 0.0
905.2727824059782 -57.58677736180719 0.0 -149.7800765677466 0.0 0.0
1128.1214683579356 8.235344925177813 0.0 -100.8181959807998 0.0 0.0
897.4783391911857 -57.03904372882886 0.0 -152.29189474260576 0.0 0.0
1131.1586804631665 7.236418794329858 0.0 100.03850910572218 0.0 0.0
1074.7106481513365 -7.682233500399595 0.0 -100.8981308796807 0.0 0.0
1128.9530203222484 10.722804430851209 0.0 -109.42195497809784 0.0 0.0
506.34067153321485 -23.126056948026342 0.0 -136.77313207584726 0.0 0.0
442.96848992907906 -106.30558446540873 0.0 184.62888759122936 0.0 0.0
1061.9315325202867 -11.747552678356104 0.0 28.796851251570928 0.0 0.0
798.0826170077805 -89.32634489505256 0.0 179.07377320733318 0.0 0.0
909.9250854046147 -53.34712932872447 0.0 155.271568289961 0.0 0.0
407.46687934889735 33.80041176587524 0.0 108.29300771508758 0.0 0.0
950.518484541203 -15.342359140618143 0.0 1.660683126012454 0.0 0.0
251.8013692949308 94.6753803587567 0.0 50.42792727283811 0.0 0.0
1119.6478770491349 87.08913156241819 0.0 -94.72754974273596 0.0 0.0
684.7326244803862 -84.20776928674695 0.0 184.9608358143161 0.0 0.0
249.95958646402343 4.443405284320302 0.0 120.28788780696311 0.0 0.0
1009.6178723541843 92.26367617828113 0.0 60.82038369121092 0.0 0.0
509.9275277069453 24.361254162189056 0.0 -86.52059047885476 0.0 0.0
1153.6637060078265 125.42515246696838 0.0 76.02798934154276 0.0 0.0
1008.4692636191861 -2.4329805302084244 0.0 -112.4109650534311 0.0 0.0
1172.3833287653897 153.2604764851641 0.0 61.07697303896727 0.0 0.0
852.9214236725359 -12.257249986623131 0.0 3.258339585409919 0.0 0.0
1069.2488924962954 118.22596629961224 0.0 -75.58855914722875 0.0 0.0
234.38368296972664 64.05549672088203 0.0 -77.38716101720945 0.0 0.0
197.06442022991266 -1.5117883735020334 0.0 110.6713187123892 0.0 0.0
1078.8462823828097 -3.942158778421211 0.0 2.7138073547494543 0.0 0.0
234.82319009134483 69.74934780543181 0.0 -70.75796587720859 0.0 0.0
236.36035848124314 100.2427919385383 0.0 35.7634288750414 0.0 0.0
285.0266226803498 136.41537786604343 0.0 11.288801489869421 0.0 0.0
993.812166680261 100.56129411024367 0.0 41.62839820613839 0.0 0.0
1200.6637233093165 161.904772578849 0.0 -55.617025863865294 0.0 0.0
919.5119871016685 0.5369010469310757 0.0 -48.84726742761561 0.0 0.0
1091.9736786869018 -15.56224554723919 0.0 -82.54423864578496 0.0 0.0
484.82437016654995 -42.885180934994295 0.0 153.3619586498466 0.0 0.0
1065.8654331078512 -12.308144693841168 0.0 -35.04417493219894 0.0 0.0
217.14922891645557 10.710978535516835 0.0 -104.96662411128104 0.0 0.0
1163.5077273631134 140.2801346692155 0.0 -69.73869827974801 0.0 0.0
1020.8885076447443 -6.282213217133007 0.0 -1.735920554310769 0.0 0.0
1097.475508623556 2.7264134368705584 0.0 92.51750110562287 0.0 0.0
1047.76608135492 45.935001879485604 0.0 112.3766159026959 0.0 0.0
296.6301066959393 135.69143801146302 0.0 10.1485804960656 0.0 0.0
797.8949766848452 15.227800286388486 0.0 20.872449847256718 0.0 0.0
928.1801820989075 1.162223671606741 0.0 53.59454688598374 0.0 0.0
1061.5390456221417 -11.108047980601166 0.0 -36.80824586300057 0.0 0.0
1000.411377157573 -16.39649152056855 0.0 10.851778514745416 0.0 0.0
984.6392848319668 -40.56324981887711 0.0 129.46604549910032 0.0 0.0
345.45166407764333 -42.79520896743752 0.0 156.41530816007236 0.0 0.0
986.9634119094351 71.57130944855257 0.0 -78.70421422590331 0.0 0.0
281.02815469248736 92.31103757372016 0.0 -58.93928446225923 0.0 0.0
1095.0356466293501 123.93575726732429 0.0 -75.83746355369045 0.0 0.0
639.3401534379852 -97.7262065442288 0.0 -183.4126420757305 0.0 0.0
662.0579648961289 -99.77493639117927 0.0 -180.83458501200332 0.0 0.0
1174.061078294578 69.58172267290529 0.0 62.75293829047697 0.0 0.0
925.3046521444653 2.935252094895296 0.0 52.39724003362435 0.0 0.0
505.9937753318407 60.16039788840173 0.0 23.920183157394867 0.0 0.0
683.0484873989323 10.152399783558476 0.0 -16.67169647082922 0.0 0.0
462.61299606467594 -25.15305682165458 0.0 145.54059252017439 0.0 0.0
1140.2988374055014 40.004058495342534 0.0 -76.36764024614229 0.0 0.0
717.3163821059992 -3.5623756231343835 0.0 -27.118205412216206 0.0 0.0
793.165895321544 -10.580191056427228 0.0 -11.017362871462582 0.0 0.0
1092.2588512748525 35.121490261347105 0.0 105.1248163230082 0.0 0.0
1095.1245762443066 -3.9963616958569115 0.0 24.30367705288584 0.0 0.0
292.0565079587405 110.88908359133936 0.0 42.42632636452403 0.0 0.0
935.4752041805029 54.286283573874556 0.0 67.06762263689639 0.0 0.0
1058.5492218600034 142.95825845885088 0.0 -3.436027696887906 0.0 0.0
1063.4909735582928 151.84654365144957 0.0 16.221548186900787 0.0 0.0
189.5049053605415 81.74572605343975 0.0 1.9531092503600567 0.0 0.0
200.00369905693114 90.62936099478586 0.0 7.262307640487149 0.0 0.0
868.6888645758638 -12.203015824126682 0.0 4.383500891348157 0.0 0.0
864.4437457305866 24.33617052358069 0.0 50.150584822569236 0.0 0.0
1097.5843200441866 -6.768398218200333 0.0 22.77961215534161 0.0 0.0
939.1760403320759 64.38189334260328 0.0 43.84243958528312 0.0 0.0
872.9693913107236 27.122857009544912 0.0 43.4669933342167 0.0 0.0
279.84328119422156 112.20324945821729 0.0 36.80823670944176 0.0 0.0
272.4735683936371 131.7837517616233 0.0 8.147738936042874 0.0 0.0
310.25032536086314 124.70765546263155 0.0 26.4538862810455 0.0 0.0
874.427203591996 38.484687928265274 0.0 9.76169927917227 0.0 0.0
263.13688016489795 127.47759026775196 0.0 14.165502091738674 0.0 0.0
871.5431896163986 32.796935732334425 0.0 24.13964522275653 0.0 0.0
1126.151706297018 11.824974396668212 0.0 68.7426902432815 0.0 0.0
1132.9764189125394 -2.933948158358931 0.0 -3.4093831886316233 0.0 0.0
1073.2403440465482 -5.723509013135046 0.0 4.844264608329675 0.0 0.0
358.63022797880046 111.85255486294204 0.0 22.92810047929632 0.0 0.0
844.2046997903171 9.141440431420543 0.0 45.236999454013606 0.0 0.0
584.7700591710749 41.08254169694552 0.0 22.988286631824018 0.0 0.0
1017.9620607282939 -31.84996047962801 0.0 -81.30697015847869 0.0 0.0
469.6008655104263 72.73409714217067 0.0 23.202754683868132 0.0 0.0
259.51210803617994 34.67535053149382 0.0 -107.74528881344865 0.0 0.0
1113.1571800648794 -5.018814893702053 0.0 -17.6148584507613 0.0 0.0
987.8314207003763 -5.055462927707143 0.0 -55.01992566015702 0.0 0.0
948.2498717931336 97.11833855499734 0.0 -261.44730031373393 0.0 0.0
957.8860626166797 62.33007330726734 0.0 -64.76093225028661 0.0 0.0
414.5615210282042 -35.09803863230517 0.0 187.62479577488944 0.0 0.0
956.1008546816283 100.9803820528941 0.0 262.522007567081 0.0 0.0
609.5370874960471 19.355168165353177 0.0 45.01382817628707 0.0 0.0
883.8816580298095 -23.000356968469312 0.0 -3.554897793439716 0.0 0.0
155.034434513083 18.211232455272558 0.0 -65.58933221113215 0.0 0.0
1261.9776693763313 128.17634666701196 0.0 -251.98071759123576 0.0 0.0
1029.645756714523 -8.50250959892666 0.0 -46.780869782904794 0.0 0.0
1270.1561329942904 126.25443285023395 0.0 -250.97100616099465 0.0 0.0
975.2138084341095 59.16933583357266 0.0 82.50669310798156 0.0 0.0
307.0057555699395 96.22079003383445 0.0 64.55828619260268 0.0 0.0
1266.8963333158028 198.17651072023645 0.0 36.83277989234777 0.0 0.0
951.2054683289665 100.87067135192868 0.0 -266.5523637113323 0.0 0.0
1143.9378686390987 -2.300422435915107 0.0 2.264115707224815 0.0 0.0
548.0231410814367 -113.57982822013008 0.0 -194.5133228166884 0.0 0.0
1264.0065808703143 123.97808056975043 0.0 245.35567592022392 0.0 0.0
407.8369226788732 53.74116896998646 0.0 89.40046657119224 0.0 0.0
1030.196948744834 114.7664069374983 0.0 -56.618221939350725 0.0 0.0
213.17571388322128 -127.12475707606389 0.0 117.64490234514872 0.0 0.0
524.6209829784964 14.901147571914684 0.0 -82.68000983497069 0.0 0.0
750.0041302395978 -19.439694758827 0.0 -37.38245641922844 0.0 0.0
705.3900923386232 9.64322005835866 0.0 -15.356826356852368 0.0 0.0
1450.444716649103 234.71740721091695 0.0 -3.838557837552025 0.0 0.0
44.80147052244516 -74.04176129967082 0.0 49.38640157201616 0.0 0.0
1119.1218241944646 -5.418476335097809 0.0 14.50859300600567 0.0 0.0
769.2524381106557 11.192395744314041 0.0 7.319307580747009 0.0 0.0
133.71459427531553 41.784471516783626 0.0 3.6702883739875833 0.0 0.0
781.8185510307178 -6.627001732368123 0.0 11.39858591008316 0.0 0.0
1056.3627357934272 -42.26937293988725 0.0 -88.21486997258287 0.0 0.0
610.1506202417168 -55.68859219056046 0.0 -124.57505345087881 0.0 0.0
936.484932875453 67.2517394256103 0.0 31.804513874200953 0.0 0.0
510.9594867838722 -52.1221421921182 0.0 185.39881215450802 0.0 0.0
1318.1955074907605 215.96804162499555 0.0 -15.386531862467807 0.0 0.0
1149.100152456185 -1.5613177700494818 0.0 -1.428278626657373 0.0 0.0
1017.1785424469306 21.276980601591923 0.0 -114.61400274880764 0.0 0.0
108.83036720288135 -51.22825151298103 0.0 71.19792894828089 0.0 0.0
225.08168396717912 -135.82107937348985 0.0 119.01603975740075 0.0 0.0
1465.4139157677923 206.50028920043889 0.0 -11.34260110214924 0.0 0.0
321.31457701075436 98.70235657244625 0.0 -56.048576950943385 0.0 0.0
661.3477852448688 -106.47092073299093 0.0 155.81635181795002 0.0 0.0
255.08279178680672 127.22615130736186 0.0 -10.057684172256625 0.0 0.0
1144.0055378560055 -2.052915839569846 0.0 2.8404708716308265 0.0 0.0
1009.436782361016 -9.598479876862553 0.0 3.1541371775071974 0.0 0.0
1160.2889358944965 -0.953389515874022 0.0 -0.7565087946572644 0.0 0.0
SCALARS Stress_vm float 1
LOOKUP_TABLE default
1175.0263269899879
1184.6688014068477
1170.7751076559216
1174.7426680223016
2163.9979650048153
2141.0171885955556
1179.0454723401608
1169.98142847472
1149.3284823224085
1138.8330223274634
1111.7248937212034
1064.7058620917314
1013.1468951642112
946.6443376640051
876.2867716954682
796.6103373634126
752.3406144963169
728.2207026467005
720.9525641867277
747.6073197550666
807.6677075485472
863.8193880536118
943.5723519547975
1006.90194441636
1070.0292618981325
1114.199601784739
1143.303576931969
1155.872295269351
1162.9074544872692
1177.2729176085077
1111.065344252292
1049.3875331091774
982.9311510934415
915.9216262936022
836.9061895912432
739.4019614683956
635.6280840125928
543.1027130342902
446.6848956964453
353.4669138118861
288.5114227284108
256.24468453038736
256.70124858473696
299.586449251908
370.8776882620981
433.0884392158225
509.74251483260315
627.438872451072
731.9418783977638
822.0121148612047
914.4073512969869
1001.7371303552312
1043.7327331748586
1110.5828952847346
1183.7411969177083
1168.5203063278939
1151.8621764481074
1140.526006540406
1108.786821869558
1065.836813077615
1011.0961158132048
935.1085443302809
872.9250692065073
808.29613719612
756.37077097336
734.3442415367663
712.2525916730202
743.7594346210049
801.6737500274203
871.4879780373433
944.1247654222177
1008.2490537669196
1072.2347075190974
1112.1260416931614
1128.4835485905032
1156.5403407226142
1166.4388115850707
1177.6377468985816
1116.3821533616406
1054.056683007453
985.0438007112275
913.0985994428096
834.0819711124303
745.886331633573
645.5577476186601
537.8589049444706
436.38645840405815
354.0085214294992
289.68636815322475
257.6327804226572
252.88568146420997
283.55122237382903
350.0455965031185
441.9432669238667
536.0864893453429
645.087714110138
746.606270350118
837.2940514860727
908.5225924616213
986.011009568163
1055.5772643050252
1117.391308593636
2007.9664346898403
1665.2905176951238
1172.2372237604823
767.9471508791803
395.6248653320911
335.98635795254955
432.33813985359654
497.9328834713303
452.72056026358314
342.6434728703548
440.41620240664173
749.100220301038
1198.0948346433718
1649.407812991974
2023.1503837968464
1978.1942765632548
1663.298557978876
1195.9114280142755
732.2549875873935
397.0853790108341
331.8383065504655
423.94290225755117
510.4575456074443
454.86504507467623
351.03076641200624
445.68706799734235
751.9102987594848
1196.170881523659
1661.4860522360163
2014.9710987623223
1072.4401853289069
1068.334500868289
757.7612295668681
784.6832316200462
751.0414562927983
766.9825197447233
1072.9070638476621
1077.508129621962
1009.2357354936269
1014.8619227108333
521.2348073620909
576.9745529186596
585.3843247274972
1028.5952102755964
1059.6609733538417
1073.7657786696109
504.5490479556474
481.16538224520866
560.9244820073335
496.1699197404475
1052.7493949146972
1048.9721507028237
967.8350283761581
204.03012086961908
1013.4167840645976
954.8958601621001
1021.1426382709711
981.4931404613446
1133.0193807850453
1131.4699938534545
920.1740783929108
1022.3126985204419
884.5374981272145
1003.3851662579445
927.8918474692923
468.9008810069454
1045.4418582339206
1046.730859932755
761.9823184670935
1040.282951229272
1086.9532074112199
1078.8164712465991
802.8263740755319
784.3907691929744
781.5994940390497
794.5784361673625
1077.7443492543025
1075.2110842525028
1028.396051917638
862.5412506773157
967.0414060341594
958.1192065195374
979.8151441877999
984.0303430762865
949.7470892387892
1031.6111543515249
937.2692604771048
1056.1072629827386
1047.6959902826213
804.5740153594573
844.893837779236
1373.2919739455995
150.65086868265072
140.2193745364406
963.1017906991444
928.412216358387
432.5480272046349
446.63387588015917
425.90582563472344
414.37941721714407
948.5974602028311
938.1657588403546
260.94781526543863
872.5104771533363
881.087157846578
253.0291029773804
253.4374855974201
949.2038522497201
1057.5133636142405
1071.4055333398817
970.9910467585829
932.6982153567839
1103.1410387427086
1068.4432815113223
1049.001328987719
1045.949760496166
662.796111865673
634.0716483453341
1046.941016223028
1033.8760784471478
1017.0020182130891
1080.084359728363
659.0772967581369
647.8236650615625
1082.0010046030745
1093.8931547853538
1070.726983203158
1087.7058148362266
604.5098771828164
648.8582438334015
1133.74669482539
1046.6374585918197
985.7070991629208
604.4763600894719
600.3413755007077
588.5292177179009
989.064379357709
986.818516010671
1072.359082564553
1072.095096751149
1069.3453569551841
1027.9153160033802
1040.0311735242174
1019.0143400432258
351.6198510635069
362.64861132406764
1049.318506190104
593.3466609409744
603.3563606085656
1051.1616914232159
1131.486410531349
316.08590462434563
329.8405972492088
1013.3506425059148
1007.4569950357715
962.2710866500043
1020.5296609856172
435.6297613522187
476.2229132996789
1227.0747623880745
1234.3046337491776
1240.413899660451
1224.4942396911433
410.05827220201155
404.1113505075576
1037.5662867694343
780.4879256222988
1084.6123717282537
795.8588796320176
996.1791046333672
918.0714601385301
918.3010703507995
1018.4636921429832
862.4704950244604
1050.2183950692424
1024.6073528177974
1019.9039839086236
1028.2243636147691
907.11561853459
943.8823646965056
978.2533362663328
946.0629190423253
1023.0255417855894
879.3128356599581
274.153281850116
346.50478271011855
1286.0631244907702
1232.153603230679
1293.8205262138001
1313.0089878448991
247.86638809798472
247.25586515014427
932.7620087392978
948.9269951086117
676.0241297282705
747.3352797360236
1121.4804366398942
625.9556554066438
1060.2072507096518
963.127831142212
999.1137842382274
840.0368936984374
1053.813442582615
914.236518941308
752.9366458895377
926.0184169399193
833.520575298937
1088.9650531328355
1016.3309979169164
925.4953542258088
751.2814858868977
1092.23628270212
1047.361779148096
943.6074993529447
1043.7411921459982
731.2435990733187
986.2090625608948
1011.3845297891846
848.936902938999
1095.7691687777765
1038.706706220035
911.6767063918344
1015.781751087764
850.4589054943228
949.5461321335788
681.3850089555385
990.8051688713239
1041.3900033565326
944.1396348322166
973.3812084757503
886.1668160682202
985.9386063220281
589.5268732311644
989.9098394101355
591.2140755044123
317.7490894892181
291.4697484236227
921.3695109618786
902.3220981930078
1035.6475186442867
1009.4948793741928
1037.4895229014621
860.0588526507378
1045.9168861378816
913.0944932742971
910.3182465788274
851.6936526271684
1031.4221716847237
1045.9978906678346
882.5819493699295
1135.3852760117438
1047.5555142254207
886.8874426048377
731.5430251674848
975.8409823170882
604.6534327014016
1161.7010643579358
595.3692651643934
879.2926650090806
1020.5486664951445
985.72257906597
979.248138191861
1033.9238191528939
632.990021977111
1139.5335939829258
1141.4091586231098
632.4498178120708
828.7576437788395
874.7940303171831
1041.4055270950303
784.9095455921754
216.85679386400358
1066.4427567273824
893.2283394189164
906.3464167881689
340.2710279411182
332.37450079415555
883.7466846302685
704.3653002387786
970.0634750185841
535.9120738451403
830.7496298764182
374.6189321283812
357.1336706315048
993.0722645226311
973.7466571827633
990.2009007935267
1034.0852957854886
1048.508125758839
984.615370330032
911.0148638472712
1071.3617241478842
1128.2538378454808
1031.919080089001
942.3077523066314
499.58035301746054
1042.9163722226676
671.7860176833713
1029.9744448923118
812.2846761325761
1084.2303994007052
881.8502400065238
883.5905479153002
388.5603214848772
390.5002674093281
396.66710215878356
868.8901215513546
875.813074232749
930.1341172724839
216.92438049236114
1053.5833149835175
1048.3519268888708
782.1704081226067
1085.4200449291777
871.7728431115438
420.0536465852585
1052.846948829359
743.7649277047648
1047.828916713717
959.9192364470991
859.4477719279158
1055.266328372441
1067.975976390809
177.8186232429615
172.96034721753978
205.0545155031731
221.25760081203595
1040.4806788898347
1040.915726314152
1042.2945506291135
1039.8335096145618
763.5405757762654
674.4550359822258
1044.8262485848202
942.3955623626937
1048.1429990669326
483.3461356356804
1639.0026477189767
1743.997390239701
320.0983966044658
323.185154229648
296.6294203784011
278.81990418671126
1743.5325311122713
1724.9067267874223
645.3223342615272
1033.6141529290353
806.093429496824
806.1658884821384
276.0881927016184
276.22685847573524
997.6892223271656
421.92476400544547
385.34977264264785
1074.2936389830763
808.5899286808778
1003.0561266523489
1068.9086411610642
969.522683173996
1119.7257793393235
1179.3640760472795
1170.445080313307
335.312795057063
440.33918107331874
420.3718662135541
1149.417130966445
1075.734196769783
272.9097629876269
784.3263419153349
1064.436313769344
1002.1178840043112
1014.9996575523348
1038.2145459673884
551.9740122148156
1103.1658117572047
464.8756222337564
1024.8909041989307
1026.218931734595
1019.5438351562085
632.5525787930126
503.5306058927492
686.7137965392715
996.4373192933884
1062.0158316400973
712.1358077307924
733.1195051581522
1063.5718756641509
1009.9402878962406
1038.0687171652787
498.9890550636944
1097.0498320118536
1019.0966711682813
663.1507788761306
696.2219495643905
1071.420656026104
1167.5398057763498
147.85401112973938
1108.5283811471757
1043.5175000746224
1110.4780601072553
498.301386753123
990.9812313099341
171.39303656751096
126.05227623461892
1125.2975319495195
1115.4449579001907
638.2951678070478
803.3869736235949
826.3183524572909
804.7445913372344
791.8410136907988
297.7492742531424
912.0615494066208
911.972781894817
209.47227143250558
210.66736192564466
838.5615724172056
320.8391011946663
821.9094907676688
316.9717337925519
818.4409222481227
1090.805696040017
1102.0840279923807
338.4089708011052
491.9323675415271
244.4306904595531
247.50649245297726
785.6857910140441
821.6144861479686
1544.4263801503312
336.0564529445458
1523.4170719525325
322.8294335418129
310.9723496352202
1237.3893062194916
1554.3700247491417
462.7312969156393
360.959675527916
1539.5076523328703
1069.0323208147277
433.414750976203
1084.555652109772
335.14154809146146
625.8518788586945
974.6903651829759
1146.2744841182034
968.369173524792
1149.9818159669412
1093.0688869561636
1147.6024443661377
570.949196953182
602.1114517887385
1069.0476447184838
905.6532090717121
979.9094678373588
436.3805497040957
958.5203972391464
239.71495320605928
1092.2190084819854
803.1378169563277
328.6227516440873
973.7188855388965
521.8465930943667
1105.6482691230003
1028.370262802432
1110.652539797386
859.2944419515004
1024.5386559014798
251.45621226339316
278.2540600632497
1080.9330019298263
244.87496119694285
218.84321435572178
248.10150882245128
951.8922784713706
1134.241485030741
923.5238380974918
1109.873580006078
575.4489531473986
1073.8854843265754
283.5598202835962
1108.9534025388123
1024.1815812172783
1108.7519069007062
1044.125722283147
258.4772628762323
791.9726543769054
932.956317023429
1069.3784756720634
1009.058679445771
1040.5360579880055
461.24071339648265
963.5089259312847
270.9350911583658
1047.8527789647965
769.3100102465922
787.3427130732495
1148.1244172085542
929.0277244203268
481.38492030083614
679.0411014299942
541.3813969420535
1130.2592322247317
720.9792189427307
799.2347304205405
1090.94805932107
1098.0570270912324
267.22876734692613
917.6891410818006
996.6054397615078
998.9721000751638
172.798287741372
181.20267813813277
874.9579371929647
857.510355942002
1101.871132139041
913.4158737796082
863.9411386555921
253.53043228094964
237.76863842660015
275.07320405467567
857.0172966817146
230.33062434787632
857.561813235683
1127.8182465648624
1134.4753342664799
1076.2905625573762
321.8287840567162
844.0550932029712
567.3951250485883
1043.8750024356336
440.6391353866284
308.8729882439742
1116.203893427443
995.5600818687941
1028.7056572039437
936.0956263658563
552.6535968276804
1034.190597834667
605.9445618507852
895.7464899147226
194.26354782646
1297.552446022464
1037.5755850881799
1308.6072729692278
958.2296237722056
294.78194583741566
1183.6692272993428
1033.1832639039767
1145.1944029136484
704.9633423974292
1300.0820123502936
415.5055343623079
984.1448993516746
378.2628920568634
538.1586180347906
763.1373552515931
701.411730853879
1350.517455542799
145.1982823936508
1122.2270430963208
764.3015843414342
138.10733821820364
785.755082989199
1089.3575050414381
677.3313679725327
907.8639513876171
633.5678847700348
1226.9444992906917
1149.960339702255
1026.2186744553837
199.71401026803943
390.6892408070043
1375.8975709616798
302.72376941566984
769.3983041489748
222.7313252205962
1145.1589667622075
1014.4634542775625
1160.8815258819006
CELL_DATA 1232
SCALARS Stress float 6
LOOKUP_TABLE default
1004.8927958054311 -32.60740754482998 0.0 99.79242390205393 0.0 0.0
1182.29553984089 -2.6197362786213603 0.0 -12.589431825891632 0.0 0.0
1039.1981307592694 -11.526473104179217 0.0 -5.597364289446143 0.0 0.0
979.837206471604 -10.812759693394355 0.0 7.755743126027416 0.0 0.0
1023.7660341386023 -8.105963107454613 0.0 -113.00871087662115 0.0 0.0
567.2331229227472 -10.566319541522233 0.0 76.90383720756739 0.0 0.0
1021.4877637912019 -14.612794868314154 0.0 109.92822807336601 0.0 0.0
1186.9592930577298 -0.6839087246890472 0.0 12.139579966085558 0.0 0.0
1117.918278382587 -3.4008767116820877 0.0 -2.1908439794033128 0.0 0.0
947.5923660274375 -13.977282150186056 0.0 9.747992237435 0.0 0.0
1017.6046856995907 -8.05394637479327 0.0 7.809347186345917 0.0 0.0
971.8970344247763 -13.109509045136349 0.0 -6.344365016394588 0.0 0.0
1132.9259818351259 -10.073784207271956 0.0 -5.907801528163168 0.0 0.0
1064.0941932904145 -4.113240260953546 0.0 -14.301989366957935 0.0 0.0
1098.752957924512 -7.67449362495023 0.0 26.082007433261946 0.0 0.0
1062.291786224147 -15.615163462803594 0.0 -118.66737489802414 0.0 0.0
584.1201102288303 11.513026311933118 0.0 106.9734901130186 0.0 0.0
1039.3468955566248 -20.9453037833988 0.0 107.27605091540153 0.0 0.0
1019.4369457281201 -9.499811617678745 0.0 0.9193448016132094 0.0 0.0
967.0060154602428 -14.82568249969006 0.0 -13.349708900316285 0.0 0.0
1160.4981214783732 -3.4526169326204013 0.0 14.628782490156324 0.0 0.0
930.1546804569558 -6.545400684912238 0.0 -10.780112425363088 0.0 0.0
613.7531785762541 33.48661041566666 0.0 3.3905473981125653 0.0 0.0
608.1919376592043 35.35105579119062 0.0 0.16068235387589033 0.0 0.0
976.6964322213666 2.0497733901472657 0.0 -34.914334763237235 0.0 0.0
976.6057608226761 -1.1019097825312087 0.0 33.216760081548024 0.0 0.0
979.3036360817106 1.5977141834251256 0.0 34.640861466907204 0.0 0.0
603.295128204069 36.07453414656146 0.0 -1.9978750482787382 0.0 0.0
1043.076099324365 1.400088779473208 0.0 -4.909947960573009 0.0 0.0
1117.0663591230025 -5.569990221399394 0.0 0.5425884085991322 0.0 0.0
1080.6076483614283 -4.245860340979675 0.0 -10.986577719746544 0.0 0.0
700.1289224982601 -50.36689302987594 0.0 -104.19989796438854 0.0 0.0
985.4299670909545 -29.08279189354596 0.0 -39.70456207542935 0.0 0.0
707.5022130747717 -144.1983109964124 0.0 -152.69994973460493 0.0 0.0
708.24669331209 -147.85009369957484 0.0 -154.79895471511765 0.0 0.0
1022.8516467163869 -80.79341598608602 0.0 -18.06552232967397 0.0 0.0
961.1426968972884 -106.97777693597163 0.0 -45.011063768050114 0.0 0.0
965.3755752892657 -105.75278013846139 0.0 -44.46394652177108 0.0 0.0
948.40338816778 -117.94449128911987 0.0 56.57464302495334 0.0 0.0
847.3808204552448 -96.38939674562323 0.0 -107.30231832998426 0.0 0.0
996.4674787494592 -109.52618310262221 0.0 63.493513765488295 0.0 0.0
851.9623456048422 -98.41940835762875 0.0 -108.84229749087292 0.0 0.0
1030.4799839570323 -40.680677747630114 0.0 -45.223942215310196 0.0 0.0
938.7873305256858 -116.3151273257584 0.0 61.211484215018395 0.0 0.0
970.5122188797 -41.165200265027465 0.0 -17.34405163400393 0.0 0.0
1015.0609076341062 -106.40843581384627 0.0 72.97282619111076 0.0 0.0
578.8971946153878 -99.551951360347 0.0 -154.59530023182967 0.0 0.0
661.8279239745854 -73.18736338503007 0.0 -121.12678106584883 0.0 0.0
1069.4697868252852 -82.55290088933572 0.0 -20.035066101905443 0.0 0.0
677.75108574849 -74.19254530752275 0.0 -133.3470691490774 0.0 0.0
1050.092889641675 -28.755314696105074 0.0 -47.339952842520724 0.0 0.0
980.3833105646789 -61.21004149513254 0.0 -29.92374281227272 0.0 0.0
940.0494104072263 -68.85623195226049 0.0 -18.31656239376593 0.0 0.0
906.147131642666 -31.909272386611292 0.0 -2.0501703583295083 0.0 0.0
866.8900804883393 -68.71803273851435 0.0 17.9339832214155 0.0 0.0
984.3305306092238 -94.11347985694789 0.0 5.849420260292657 0.0 0.0
904.3625780511908 -24.13738251344398 0.0 6.908847532268106 0.0 0.0
675.3719985544955 -131.8967495418939 0.0 155.32031185009347 0.0 0.0
984.4693307630428 -93.92170658951471 0.0 -3.072207743310532 0.0 0.0
998.684065162888 -27.895851077977284 0.0 28.608868462981864 0.0 0.0
1013.0494662932315 -56.23563233649082 0.0 -52.58953777731963 0.0 0.0
900.9972838969019 -99.04422747211214 0.0 -12.359869492189533 0.0 0.0
749.306495538662 -44.73803503519002 0.0 -54.99400230693954 0.0 0.0
821.1817366428337 -21.516920681189845 0.0 -12.161452669188641 0.0 0.0
986.4151803251052 -96.67080461584311 0.0 -9.667617167739586 0.0 0.0
1027.988862406019 -40.78822880327641 0.0 -57.479892523270074 0.0 0.0
877.4027721774875 -90.7651258376543 0.0 22.240722961005996 0.0 0.0
841.6180459686371 -45.2593767234024 0.0 17.94551629689911 0.0 0.0
905.7864497765971 -101.78258558643347 0.0 -12.466422017768194 0.0 0.0
957.4562233195687 -76.01230227694242 0.0 30.044428084478294 0.0 0.0
995.1723283992392 -43.05068344459045 0.0 44.48971446398219 0.0 0.0
925.6179184156009 -65.36414709615917 0.0 -13.64122894128967 0.0 0.0
991.387737751878 -41.02363327002121 0.0 34.526409596980585 0.0 0.0
993.3487704391845 -55.03026533854336 0.0 44.663858872575 0.0 0.0
890.4710797179879 -77.60521948989134 0.0 -10.480047065585731 0.0 0.0
1007.1601816456924 -58.365470393341866 0.0 -72.15518002963093 0.0 0.0
984.048534921851 -81.43724924554493 0.0 -32.5192588090604 0.0 0.0
1002.8131431686658 -19.07235022373709 0.0 -34.02765784652569 0.0 0.0
729.0305323863594 -72.88739663026118 0.0 -76.284251886809 0.0 0.0
904.8224477292775 -58.04932839931405 0.0 -13.011281143583979 0.0 0.0
888.7454626299328 -33.18375389863678 0.0 -3.2511170927865436 0.0 0.0
895.2781398383672 -52.68483943641371 0.0 -10.47178493514874 0.0 0.0
899.8017081045033 -55.207148953807405 0.0 10.957035729062875 0.0 0.0
880.9256004341892 -34.951606298631646 0.0 4.813048676450303 0.0 0.0
714.8049831659418 -74.3043081286354 0.0 -83.61566914554345 0.0 0.0
898.0388660125024 -59.37837884831225 0.0 -14.946777732213524 0.0 0.0
1006.3502881174259 -73.23407339654023 0.0 -55.673719439169226 0.0 0.0
967.7512170548138 -104.92061518929944 0.0 6.126230691315137 0.0 0.0
1000.1401422637103 -70.57951141468385 0.0 -48.83020877714592 0.0 0.0
944.0180949326381 -18.06966383895201 0.0 8.46409189518475 0.0 0.0
1016.4602903089648 -35.03799721894757 0.0 -73.09432022918716 0.0 0.0
992.0670597165557 -71.63978504365161 0.0 -53.53704207608661 0.0 0.0
727.0337940268 -109.74546516187907 0.0 -109.37807247465726 0.0 0.0
924.8237963317197 -82.40936584275022 0.0 -25.76746938108934 0.0 0.0
961.0159583754703 -62.45241130531872 0.0 -18.485909795982117 0.0 0.0
966.0378030820526 -38.013706181087855 0.0 -31.697517051023926 0.0 0.0
514.3307704983521 -126.75688721097066 0.0 -203.75568853820653 0.0 0.0
1106.2441552834125 -26.866362696852207 0.0 -47.36811985288812 0.0 0.0
329.0275216612891 -76.89426454692646 0.0 -202.67094633499678 0.0 0.0
596.3293682650052 -107.6979217772038 0.0 -181.8856402958028 0.0 0.0
698.6562998287778 -112.00848075434673 0.0 -115.44074650360817 0.0 0.0
921.0500315653658 -84.9006193811079 0.0 -27.294098305682564 0.0 0.0
997.3537742427584 -51.47917103526419 0.0 49.6812059605862 0.0 0.0
1006.0669135318044 -35.24874329675879 0.0 33.527277338863755 0.0 0.0
928.061317115271 -38.51470526112621 0.0 -6.967840383336188 0.0 0.0
954.8371297943401 -49.26263179122151 0.0 21.91757035205889 0.0 0.0
903.1803075374223 -58.91066011970014 0.0 -7.417509702221082 0.0 0.0
1025.3118721875808 -11.44627059128129 0.0 -31.174741946161074 0.0 0.0
802.8227359134984 -30.19100500576343 0.0 20.108976494827825 0.0 0.0
867.3031789549856 -16.02390962292168 0.0 8.054266709948324 0.0 0.0
1028.62577956006 -28.68959611333713 0.0 53.0157830656644 0.0 0.0
1034.8216655307626 -20.543961457502576 0.0 56.80361602640807 0.0 0.0
876.171147804936 -72.12252402230251 0.0 36.72972916815319 0.0 0.0
394.3057436021509 97.68430760957715 0.0 46.58990020946258 0.0 0.0
921.2471933953075 20.91359077359084 0.0 86.02831723690542 0.0 0.0
1026.8632054120876 26.100333052084693 0.0 112.74909936093671 0.0 0.0
928.8479937297376 33.262695398932806 0.0 96.93341248163011 0.0 0.0
1006.6879566793655 -70.05908573906152 0.0 54.28554333696197 0.0 0.0
960.6662753488375 -17.360032277382118 0.0 18.25837304289915 0.0 0.0
966.2472554986957 -39.861143397252135 0.0 8.154032645290451 0.0 0.0
908.55328354031 -13.212106795890634 0.0 5.969032116559312 0.0 0.0
898.402947788009 -20.575828991915387 0.0 1.8223568727671298 0.0 0.0
1028.9931650747542 -18.83974868920535 0.0 46.459204300261966 0.0 0.0
1016.3079588751956 -17.464243200802002 0.0 -74.143365112082 0.0 0.0
968.4881464447402 -4.281537997667442 0.0 -81.29940279534127 0.0 0.0
536.382211849215 51.09258556192551 0.0 -52.82119231298983 0.0 0.0
582.1029971580076 39.04618641547805 0.0 -25.109340783136876 0.0 0.0
985.031805339769 -101.40432359480673 0.0 0.48844115530400495 0.0 0.0
916.0519116269041 -109.1349219258222 0.0 20.20600578783193 0.0 0.0
603.219138725418 9.72966511870331 0.0 -44.888952755517714 0.0 0.0
854.0810777779029 -70.80424932867334 0.0 48.082662002103284 0.0 0.0
1048.667414859563 -20.941119003254983 0.0 48.763203726260905 0.0 0.0
912.3458033464 10.860911212136159 0.0 -80.92036406223717 0.0 0.0
450.9250798321495 63.26883478500893 0.0 -35.07658859021523 0.0 0.0
1010.0318162263246 -67.24655023445553 0.0 57.82071522361273 0.0 0.0
998.1403258582906 -93.6598040683308 0.0 11.730394406708008 0.0 0.0
926.732912479743 -107.8016653154022 0.0 -13.13276947596088 0.0 0.0
849.2921612606586 -32.38845616683051 0.0 26.557755049115 0.0 0.0
905.1369155396084 -87.08764919824739 0.0 42.7518846439015 0.0 0.0
800.0309864171892 -121.34913345183645 0.0 81.29432061015552 0.0 0.0
342.43059198555403 19.805168005500477 0.0 -121.6635069032637 0.0 0.0
1002.922760114417 -92.65529409518774 0.0 14.580125122620279 0.0 0.0
930.2570244547381 -112.41332503249691 0.0 -13.992342646753182 0.0 0.0
832.3268782050694 -13.52414417977542 0.0 17.279414725052845 0.0 0.0
1016.3198604789319 -50.06805364506158 0.0 70.7685035642988 0.0 0.0
956.1582481917012 -14.27682964018345 0.0 -85.93942254641608 0.0 0.0
941.9399760881757 11.144338981655835 0.0 -81.04580576862524 0.0 0.0
895.7666836866038 -90.2477889256474 0.0 52.02639709617821 0.0 0.0
783.110034596839 -129.14218226800818 0.0 90.32275552299251 0.0 0.0
1040.4731827202215 -15.010613944994361 0.0 58.581779291856925 0.0 0.0
1021.7459121810219 -25.720389002524314 0.0 69.8726202500564 0.0 0.0
1020.0234305210057 -35.98527149331943 0.0 -99.0547406249038 0.0 0.0
824.3138846022224 -35.225990206691506 0.0 35.340680948768565 0.0 0.0
725.9593763904804 -10.629767782279686 0.0 -39.685432974937264 0.0 0.0
675.7602208348675 -17.44192236011139 0.0 -73.67606308880002 0.0 0.0
1038.6394046264718 -26.636855612193983 0.0 -24.78910265485172 0.0 0.0
934.3838257731544 -25.554330629486344 0.0 -3.4199972212782748 0.0 0.0
1017.1342220819984 -49.302477911206154 0.0 74.79399561307737 0.0 0.0
531.7287527123993 73.5765867794244 0.0 -59.71804714889524 0.0 0.0
525.9358700471967 34.83901695570145 0.0 -33.283204506286104 0.0 0.0
443.80400478260316 62.35008244858062 0.0 -33.121878353051486 0.0 0.0
2400.6332802961592 218.54192121102267 0.0 140.38290405823483 0.0 0.0
2426.9866297047956 229.0355061475393 0.0 202.29928308095654 0.0 0.0
1460.5342954873088 244.61643156983118 0.0 72.09689954686448 0.0 0.0
11.855785811186223 -613.5189143378126 0.0 49.12043449207399 0.0 0.0
-25.79004687796954 -96.35562743259182 0.0 -47.93447821765926 0.0 0.0
5.985256672262011 -621.8060970210023 0.0 48.081789804940364 0.0 0.0
-26.83075762848398 -103.27854723809281 0.0 -33.88878108733658 0.0 0.0
-2.9879631997815466 -601.7942142420446 0.0 -20.014585350857285 0.0 0.0
8.739279108807665 -574.6199684528623 0.0 -27.858174847100532 0.0 0.0
2448.949781412095 207.18877837263608 0.0 -201.68992583991198 0.0 0.0
1442.7618406537804 249.2163113893238 0.0 -49.06849725535835 0.0 0.0
2483.0822273860267 209.01389595155217 0.0 -176.16138529259896 0.0 0.0
1028.0834056946696 -20.389553960039336 0.0 58.36830439677209 0.0 0.0
795.801415108736 1.9983424926290354 0.0 12.60322561945493 0.0 0.0
932.238823642066 -9.614783635603146 0.0 -4.963224760207063 0.0 0.0
962.8014665156956 -26.67253872846311 0.0 -7.861778907097641 0.0 0.0
262.17680978092926 -37.580628384806914 0.0 -133.78849642560314 0.0 0.0
1099.9544106320873 -11.114211196082351 0.0 20.598519824269744 0.0 0.0
1031.003879777944 -10.626763455268701 0.0 49.58803430320476 0.0 0.0
1007.7623096919847 -69.13232685344099 0.0 -69.04207579458004 0.0 0.0
988.6050720698098 -31.523790828568167 0.0 -18.288587463775926 0.0 0.0
934.8662479713857 -23.94671077077038 0.0 -8.055707221239738 0.0 0.0
1011.1883872060561 -7.723146857528775 0.0 -14.91261352718866 0.0 0.0
1044.826029397166 -14.007368980499734 0.0 2.675908583413227 0.0 0.0
963.1998904560393 -12.905226006827945 0.0 0.965575759707996 0.0 0.0
1005.6715047762427 -21.09001506465671 0.0 34.22398431541953 0.0 0.0
1027.1436091281046 -21.745989204217665 0.0 17.580429416994697 0.0 0.0
591.8435918591651 -30.26894942709211 0.0 -135.84244847605362 0.0 0.0
1007.9945919426858 -18.878367145620643 0.0 92.79774055490823 0.0 0.0
1019.3056434980762 -10.589838951299384 0.0 68.66892991813741 0.0 0.0
1020.0886742973695 -28.616165693276116 0.0 -21.967311852505166 0.0 0.0
965.4251457403794 -18.204508432264618 0.0 -9.753941871176119 0.0 0.0
1017.632094212326 -7.434604808411393 0.0 68.7096865468681 0.0 0.0
622.1810232744207 13.613530152251116 0.0 25.99202892114278 0.0 0.0
670.3545275293606 -66.58719555685764 0.0 91.15412544117343 0.0 0.0
989.3731980706658 -10.20587191633473 0.0 -107.88304602685906 0.0 0.0
709.6370115256842 -14.68596872568142 0.0 24.50685774359556 0.0 0.0
807.4541263721873 -11.67388861865561 0.0 26.40377884660604 0.0 0.0
1008.3724418389824 -64.0088347488873 0.0 72.5620133827021 0.0 0.0
994.9334242542633 -18.309691799168434 0.0 110.7018568851466 0.0 0.0
1034.4696850575222 -12.189950284143265 0.0 62.37168499136868 0.0 0.0
1018.0626884265685 -29.132237590116404 0.0 73.89534081446688 0.0 0.0
575.5354894271719 27.64615449627223 0.0 74.0891840622634 0.0 0.0
642.4303234110138 -28.979494560128273 0.0 -79.20519674363894 0.0 0.0
628.6996028487616 -25.203805324503634 0.0 -107.44065973190136 0.0 0.0
737.519603657281 -43.53371035407662 0.0 -78.63470598515084 0.0 0.0
1017.6815797825833 -41.41166660352519 0.0 -97.64209156539864 0.0 0.0
1043.9976320619762 -28.360419003000118 0.0 -110.48569439265547 0.0 0.0
1035.9018202678035 -62.90085006749888 0.0 -89.28538064911918 0.0 0.0
1037.136526901145 -9.884341438326544 0.0 28.169032003943613 0.0 0.0
989.7633418191689 -7.855926719393096 0.0 72.84913664791183 0.0 0.0
994.2134737149931 -15.690602250574102 0.0 96.64847480190792 0.0 0.0
1737.2454371797567 65.1470510797568 0.0 25.50011291899595 0.0 0.0
1823.0374075969964 118.78138215485995 0.0 -9.781486011509989 0.0 0.0
1842.4867470800593 184.39039241029687 0.0 3.5382342621225664 0.0 0.0
-40.60692735848255 -310.89543036277246 0.0 -37.20309952280914 0.0 0.0
46.03779713458363 -268.1282287446935 0.0 7.77394286418301 0.0 0.0
-48.71963428265048 -302.143983701849 0.0 -34.91918812116179 0.0 0.0
39.67381015930346 -254.97372552340804 0.0 10.77394900387973 0.0 0.0
996.2647682770227 5.187115149858073 0.0 -102.04980870735538 0.0 0.0
933.2509722407234 1.3089482191132333 0.0 -92.67637855025625 0.0 0.0
547.9328727516655 24.73176098547458 0.0 76.56139848457786 0.0 0.0
489.2006693330752 51.42968872285568 0.0 49.44202066773158 0.0 0.0
956.7187436455409 -2.8318889459346224 0.0 101.39060295705322 0.0 0.0
1032.7784121740526 -18.65875943976323 0.0 -58.7261983350426 0.0 0.0
992.1871485667401 -18.9930398239311 0.0 25.618122909584006 0.0 0.0
1015.5167438927837 -25.25711637781319 0.0 12.265484435084163 0.0 0.0
565.8337144147041 17.203050805181988 0.0 46.785432771635136 0.0 0.0
613.7662091793418 29.648285788662207 0.0 46.262689888451156 0.0 0.0
988.8316255222421 -8.326527660809234 0.0 73.4176607729647 0.0 0.0
435.9691996313459 45.45170485135429 0.0 -70.06288579025379 0.0 0.0
577.8247901810622 -0.24892974572063054 0.0 -106.74861379627755 0.0 0.0
1032.6061994407276 -23.028326053256876 0.0 104.2989760151018 0.0 0.0
974.8236421851624 -23.801841796234726 0.0 -19.963572713203078 0.0 0.0
1015.2943911329281 -42.36182056591804 0.0 -35.586664092963126 0.0 0.0
1034.6394117042316 -34.59656994704608 0.0 -62.87305391691488 0.0 0.0
1025.364893608085 -14.797932553915018 0.0 -54.229751410275405 0.0 0.0
823.8235445364647 -123.2147018536823 0.0 -75.36472162540163 0.0 0.0
835.3354274936765 -88.52735252596784 0.0 -81.40688956935246 0.0 0.0
916.1086048175166 -103.56395369143371 0.0 11.026810724842546 0.0 0.0
1013.8180362903305 -107.77631967563315 0.0 -1.6105966960978935 0.0 0.0
824.488753693022 -126.1617941132269 0.0 -76.73695442223601 0.0 0.0
831.7798642637863 -89.24196286576955 0.0 -79.26315135646885 0.0 0.0
921.3145308446356 -55.10452667179527 0.0 1.534482025284855 0.0 0.0
919.3919708330046 -43.47241681139235 0.0 -9.725792257076941 0.0 0.0
1020.6639896418388 -99.59372731446524 0.0 -59.65363756357325 0.0 0.0
833.5558979457487 -150.24568880334783 0.0 -99.10216657447948 0.0 0.0
1018.9725540569243 -100.99513392548096 0.0 -59.237792069394295 0.0 0.0
832.6359704433704 -152.0415972782016 0.0 -101.54889187951086 0.0 0.0
838.2112570198642 -138.62457942207675 0.0 145.02967185702065 0.0 0.0
857.899671495797 -117.98037860233512 0.0 76.12227190959665 0.0 0.0
896.3532799280429 -37.362520953529724 0.0 -1.1295204281182223 0.0 0.0
843.9764306944213 -45.142572487176324 0.0 -25.382932824148796 0.0 0.0
1001.5782776648202 -59.76865745165793 0.0 -47.09108754424873 0.0 0.0
1012.3260026822076 -21.370905310108412 0.0 -53.04365273845565 0.0 0.0
1032.0158676079866 -63.140174868494114 0.0 67.3338989401026 0.0 0.0
1041.4214977560666 -96.77867271560473 0.0 6.6547488311510685 0.0 0.0
1031.0725234999077 -66.56955379902973 0.0 -63.478206074027526 0.0 0.0
1032.3574055099482 -102.45033065257684 0.0 1.6422426453609515 0.0 0.0
861.0451727541973 -106.9216521480547 0.0 120.26249357869376 0.0 0.0
836.1545096288459 -134.50971218475922 0.0 92.24052843381277 0.0 0.0
1023.7806971779113 -62.642578674042966 0.0 62.169412222993195 0.0 0.0
1050.0466742225894 -96.13386282986943 0.0 12.865411562777174 0.0 0.0
698.8476804652163 -120.5663400156044 0.0 122.88134480563615 0.0 0.0
817.146455632736 -93.23195028659677 0.0 94.4893999332218 0.0 0.0
947.7117750330104 -29.094677235609538 0.0 -16.01757116618471 0.0 0.0
994.817496858875 -44.931315924697856 0.0 -28.657148989189228 0.0 0.0
685.3861808975399 -118.74667347794427 0.0 122.41590443455014 0.0 0.0
797.2151587768382 -87.92091216637476 0.0 97.76825777625727 0.0 0.0
826.8320283044686 -30.830165080077506 0.0 15.60363089437599 0.0 0.0
907.1609565525532 -32.902724362471986 0.0 2.65196485485615 0.0 0.0
467.5734504123787 -52.82327819729625 0.0 -160.42970018417418 0.0 0.0
462.6682553620251 -69.54018934574117 0.0 -167.95047889911206 0.0 0.0
815.8288463857588 -67.62137687801021 0.0 -41.935263257775745 0.0 0.0
810.6896961943047 -35.70168915585435 0.0 -34.69778719348461 0.0 0.0
884.1007932072007 -96.27768728501007 0.0 21.221194764495817 0.0 0.0
951.7406746190491 -76.8467906466849 0.0 -1.44529520698395 0.0 0.0
1021.4047440920543 -92.78182223901831 0.0 -53.16176325911491 0.0 0.0
961.9453725906989 -85.24291418920262 0.0 -30.476159962158942 0.0 0.0
822.6794735044318 -36.43717735304841 0.0 -22.975153752077773 0.0 0.0
985.1974058065283 -48.47598838931344 0.0 -49.81606976384341 0.0 0.0
1013.7583236889246 -65.30684430998599 0.0 -71.36057705094343 0.0 0.0
957.9811617175297 -14.386767836278352 0.0 -8.996540542990807 0.0 0.0
900.4632161844929 -19.369566162086244 0.0 5.524980850425194 0.0 0.0
819.713277007546 -72.06351626628981 0.0 -39.448736452244425 0.0 0.0
818.3027638517129 -33.51517528243244 0.0 -35.500965751698836 0.0 0.0
818.4773917291765 -72.25851430689761 0.0 77.5618161396751 0.0 0.0
796.9236485734868 -91.26089977232851 0.0 57.79073228929531 0.0 0.0
950.9517697113284 -47.634213474264016 0.0 18.52128578300124 0.0 0.0
951.5640693207021 -54.937203121234575 0.0 17.121905276387924 0.0 0.0
1036.1389819980811 -22.448180355430793 0.0 42.042306903294126 0.0 0.0
1020.1061876750078 -37.609391241553794 0.0 54.73551087477177 0.0 0.0
964.5665533532052 -43.589163241934216 0.0 12.16788304270389 0.0 0.0
953.8544898112572 -30.076389454466323 0.0 21.717194142359194 0.0 0.0
819.6472322855692 -56.523475227903134 0.0 -59.66315345428253 0.0 0.0
810.5222055806794 -100.1012267557852 0.0 -57.024230552668406 0.0 0.0
955.2843482059121 -71.97975874537156 0.0 28.089724882632357 0.0 0.0
968.7741201076784 -72.87352879916409 0.0 17.112292785796626 0.0 0.0
1021.9293494638672 -25.925570736537907 0.0 -95.53746080172384 0.0 0.0
1013.1956333590324 -46.54238032518566 0.0 -76.92444230218304 0.0 0.0
1015.1568189334263 -92.12362070963462 0.0 -46.922713744232034 0.0 0.0
960.7628248781797 -78.17431591640803 0.0 -30.985063905073606 0.0 0.0
848.2953798493214 -66.2243994119712 0.0 23.248791527115532 0.0 0.0
931.3829439103491 -79.06812393281052 0.0 8.899576987589096 0.0 0.0
1025.494081238791 -86.56752522462602 0.0 59.8576820589277 0.0 0.0
970.6576018177834 -80.81877237069199 0.0 37.943002444051324 0.0 0.0
801.2558417553088 -77.85286165051491 0.0 82.36953408416859 0.0 0.0
786.7282230581956 -87.79142460535053 0.0 64.72089583548 0.0 0.0
1039.8069671881617 -77.79438812521812 0.0 64.46530767098663 0.0 0.0
976.0427263428904 -83.80364450131702 0.0 40.14472174527196 0.0 0.0
897.1109032262216 -80.88714169894206 0.0 -8.66396084548474 0.0 0.0
972.6234583072023 -68.44747029383961 0.0 19.362106751136707 0.0 0.0
742.7492204847717 -34.80681736454875 0.0 34.0044757398928 0.0 0.0
827.6051443404402 -61.74668079716582 0.0 -54.25748199318855 0.0 0.0
822.7245074012229 -99.66174400371557 0.0 -53.568087784157036 0.0 0.0
994.9279338916908 -34.79715670787601 0.0 41.80870431276971 0.0 0.0
955.9682059146161 -59.32129563941692 0.0 20.374671170736896 0.0 0.0
1014.6745919318606 -39.81988146539959 0.0 87.10699932370271 0.0 0.0
1020.5816592179823 -30.20550854233238 0.0 69.07407085642463 0.0 0.0
944.985127203527 -43.493171605039436 0.0 -9.044199207203336 0.0 0.0
899.1076400255018 -47.66361379175112 0.0 -2.869528570151568 0.0 0.0
941.5845713229583 -35.90522956583089 0.0 -2.194361499819029 0.0 0.0
944.2042014791314 -28.41058999883353 0.0 20.524807598194243 0.0 0.0
817.8788992937921 -47.392896892016324 0.0 26.546115613179307 0.0 0.0
883.0138099235256 -30.568332804704994 0.0 9.29712446480242 0.0 0.0
929.4509424659797 -21.139883507072966 0.0 -1.1272442915443308 0.0 0.0
865.1471376759004 -23.35523580964866 0.0 8.0064373333781 0.0 0.0
1039.1394576640869 -15.663239748119565 0.0 -24.10385969682756 0.0 0.0
992.4770680925634 -18.14347005371684 0.0 -19.178084882408562 0.0 0.0
1021.6239490870494 -21.4381336544929 0.0 82.81971528461253 0.0 0.0
1010.7901171734098 -17.593857080616488 0.0 72.88867625806716 0.0 0.0
996.829832752977 -47.63458827050039 0.0 50.43530539057406 0.0 0.0
1018.3573690484276 -35.078671233398325 0.0 60.69426025076337 0.0 0.0
1058.217426388495 -18.543163820372058 0.0 33.97491799492588 0.0 0.0
1014.4618255952273 -42.26252563556665 0.0 -90.86562807700824 0.0 0.0
1029.4184564283034 -54.25823647945555 0.0 -82.02251338947333 0.0 0.0
732.1452330781536 -31.922675254211725 0.0 37.76027090825903 0.0 0.0
1019.0543018172399 -30.652288670118423 0.0 74.56765494915034 0.0 0.0
917.4179672420019 34.68762796948562 0.0 -82.03729048298322 0.0 0.0
339.7766674522166 -25.065434743129714 0.0 -158.88728436842186 0.0 0.0
713.9150227461117 8.579970035208532 0.0 38.76399942654688 0.0 0.0
683.6242375646484 -71.31121253921117 0.0 86.71291162587731 0.0 0.0
1000.6202551920045 -22.093717313791842 0.0 78.3182639537654 0.0 0.0
1060.0368421798348 -7.486781634386887 0.0 9.733715528664113 0.0 0.0
1064.983761200464 -16.82042214508226 0.0 31.218487622925537 0.0 0.0
999.9642234515255 -9.76965268699945 0.0 -4.327826141317899 0.0 0.0
993.4607930063748 -22.85911762935916 0.0 -11.257154314231093 0.0 0.0
1015.0318228737211 -4.577885463352857 0.0 -13.385001473781939 0.0 0.0
1010.5744932533721 -18.900633994172722 0.0 -12.2532910841043 0.0 0.0
870.5328705585613 -12.13163518168875 0.0 11.474268866672412 0.0 0.0
899.8588245475415 -14.902313512806927 0.0 -11.00273252366713 0.0 0.0
992.0768564207507 6.180828563155046 0.0 108.28723879373109 0.0 0.0
992.0159981633343 9.612703024012376 0.0 110.8894293771046 0.0 0.0
505.44390016909733 13.499111448188529 0.0 85.78201644913071 0.0 0.0
445.6495829433091 62.55217490909993 0.0 82.53935174295528 0.0 0.0
1032.541414343002 3.544898583247857 0.0 125.09732759100534 0.0 0.0
987.8782465201999 24.149919193420033 0.0 110.93959976025168 0.0 0.0
980.6672020713528 2.844310586908989 0.0 100.8305466585641 0.0 0.0
492.902029857801 0.3111511994986813 0.0 112.20087181026388 0.0 0.0
977.4392132672683 14.737373750211532 0.0 -104.27842080952036 0.0 0.0
1010.7432320355355 -18.720934111250642 0.0 -99.88036683583205 0.0 0.0
995.8686479022576 -26.83398736670034 0.0 -93.03669861688418 0.0 0.0
592.8598121709585 3.184332441720386 0.0 -60.04987392049051 0.0 0.0
668.324318434227 19.300131617837508 0.0 -42.73162510202681 0.0 0.0
664.8273133602265 -15.094060188592493 0.0 -49.28802113638034 0.0 0.0
282.53254385287454 -82.80320803528953 0.0 131.4127151926441 0.0 0.0
1348.619774741994 116.96964626666846 0.0 17.469548189986384 0.0 0.0
1324.1412800816431 106.2390256546476 0.0 -44.18578245703416 0.0 0.0
1328.2662279226668 104.2977214924768 0.0 39.011219818333 0.0 0.0
238.29037292092053 -77.59475094828294 0.0 -150.5661828637979 0.0 0.0
249.9298989437614 -75.82227915094096 0.0 -117.6075912405103 0.0 0.0
1141.0068407422486 -5.098307903676755 0.0 -12.061167494881389 0.0 0.0
1060.1004542031064 -4.495591126017985 0.0 -33.8173411570913 0.0 0.0
873.780388440501 -11.510205024799461 0.0 11.133823923096523 0.0 0.0
875.4391607537551 -26.438299095135164 0.0 -16.855141796958772 0.0 0.0
1097.7974621193123 -11.839608153421807 0.0 24.38488965735569 0.0 0.0
1057.2204073687253 1.268611371911902 0.0 37.91694759979459 0.0 0.0
804.316621674907 -5.25734155957997 0.0 -5.527374624942275 0.0 0.0
794.0215231513389 -20.022089855336276 0.0 16.715196367020347 0.0 0.0
1097.0432965472776 -7.0214187284756235 0.0 -22.021480658704082 0.0 0.0
1080.1786223886927 -1.4509039436015883 0.0 -18.381693471049854 0.0 0.0
1044.7096316980392 -4.460862531697444 0.0 -51.24853155801693 0.0 0.0
1073.6572456136646 -15.037237411002252 0.0 -40.85663377773866 0.0 0.0
812.6030514057514 -10.432618379656446 0.0 -0.90719334863876 0.0 0.0
314.4018312490427 130.66216355674797 0.0 28.95357320803866 0.0 0.0
693.9462460324421 19.21831237654868 0.0 9.743444688626024 0.0 0.0
318.3850177856591 140.10312501197953 0.0 -1.5153948840472014 0.0 0.0
743.850136867242 0.026382372906567753 0.0 -30.94647193878767 0.0 0.0
314.26645044745806 138.48791376894812 0.0 -1.2297926968158004 0.0 0.0
312.8944437041348 137.19289917858427 0.0 -1.4329183687869296 0.0 0.0
701.3718931604276 1.113765688850549 0.0 -3.566667893380411 0.0 0.0
705.1563993128179 4.1727279816065845 0.0 -1.2342458682477004 0.0 0.0
308.84025085552884 113.79777990741168 0.0 -36.93311168434815 0.0 0.0
306.065336237528 113.65815605611083 0.0 -34.38220270705747 0.0 0.0
885.1755906515154 15.538579334604833 0.0 -51.41993059888219 0.0 0.0
898.3268798773594 12.861211692632537 0.0 -61.56069279519377 0.0 0.0
432.1724001981186 97.40830045093327 0.0 -0.7511805047429204 0.0 0.0
435.4782918386524 92.1128948902563 0.0 -48.257422576961005 0.0 0.0
426.16161864681357 94.71469031841632 0.0 -1.4000706603111615 0.0 0.0
430.21797867981394 85.09493276078229 0.0 -46.21235207173775 0.0 0.0
808.8259352849772 1.8790679739183247 0.0 28.72899797641411 0.0 0.0
817.5861996989366 5.197355967524516 0.0 28.031897147713433 0.0 0.0
910.0963679539178 -1.852305616296519 0.0 63.1048839621001 0.0 0.0
813.5108043906525 0.7252350412858277 0.0 -27.196888276632034 0.0 0.0
818.1907312887148 5.39900549208329 0.0 -30.36744333517432 0.0 0.0
923.6222166042952 -0.911124409169247 0.0 -71.51886539853533 0.0 0.0
439.1677641069393 94.4531888401752 0.0 1.218310672070269 0.0 0.0
551.1357825865828 36.66688665533238 0.0 -32.739697671242936 0.0 0.0
940.1579309375696 30.17821920589671 0.0 -101.06711497150833 0.0 0.0
1049.7130502016155 35.2727682563617 0.0 -123.56818506455083 0.0 0.0
381.5887237700954 74.4224799663238 0.0 -54.93073662501837 0.0 0.0
369.6383168374576 30.710637415318303 0.0 -122.92085412837825 0.0 0.0
422.55145434974816 81.52726514322893 0.0 -50.22710730658127 0.0 0.0
430.28772255799146 48.20382306752808 0.0 -111.75823869914085 0.0 0.0
453.0782109202435 -39.244588703427354 0.0 -148.9782886455633 0.0 0.0
464.76104809741287 -0.6114082772117797 0.0 -137.6177592755571 0.0 0.0
336.4561489893405 -38.08830662828184 0.0 -158.25489902350148 0.0 0.0
1061.888529177578 55.48851676421822 0.0 -100.4774906591778 0.0 0.0
370.02048381002425 27.68766035239223 0.0 -111.40368890392479 0.0 0.0
661.975116376702 19.38211119322864 0.0 28.287841925110794 0.0 0.0
989.7686667846397 -4.923226553456743 0.0 37.41289431798761 0.0 0.0
998.1178553220078 -0.443686671563853 0.0 32.985051821797185 0.0 0.0
1000.0145645669882 -59.43373587454374 0.0 64.48581252188319 0.0 0.0
1133.2942396185895 -1.3496630146156576 0.0 4.54622162845892 0.0 0.0
744.6777709882208 -54.70627682848831 0.0 49.513562115844486 0.0 0.0
644.2083906108015 -36.00019064717105 0.0 75.29424959423889 0.0 0.0
752.1368951069317 -34.792982532398185 0.0 71.78953809072918 0.0 0.0
1120.7121229368886 -5.1505039779843855 0.0 2.8008970034654053 0.0 0.0
1186.4257069480075 -4.143591081451632 0.0 3.905011515803429 0.0 0.0
1118.3418351426203 -10.191242554077746 0.0 1.0030371921875523 0.0 0.0
1062.6307284824015 -8.25268349860886 0.0 17.469528549805176 0.0 0.0
1182.5639001502063 -3.0011881393393196 0.0 -8.063114919130495 0.0 0.0
770.5539543201935 -56.15598627426465 0.0 45.45083009905309 0.0 0.0
777.874220063885 -42.62578277194899 0.0 61.27011625485889 0.0 0.0
996.7499986511442 -60.675371628475546 0.0 59.65716802592843 0.0 0.0
1020.7169554322336 -25.63255731876899 0.0 94.33539836503252 0.0 0.0
1015.5163425972529 -39.60307601389371 0.0 91.1744340524793 0.0 0.0
1030.0855783600396 -53.56131990211304 0.0 85.92000443585401 0.0 0.0
1168.7075693987751 -0.5294184178969203 0.0 -6.158097326176363 0.0 0.0
997.2722515229513 -31.537221674350633 0.0 -99.51936100031514 0.0 0.0
1006.3843297694284 -2.6512566441584795 0.0 -86.88780058886461 0.0 0.0
1029.696000078015 -4.277237894520056 0.0 -66.09985344904696 0.0 0.0
991.9639530832484 -20.372019302397405 0.0 -77.2340758380331 0.0 0.0
1042.3093859298701 -6.979661034718106 0.0 -27.336748112012106 0.0 0.0
1048.9918840790485 0.6923445316950847 0.0 -22.826142658033387 0.0 0.0
1005.2165127053028 -3.428723985556644 0.0 -35.91475623005634 0.0 0.0
1065.250789093833 -22.364421447671873 0.0 -34.23664052178157 0.0 0.0
1078.6473511276313 -2.086618321690196 0.0 -21.713764559940042 0.0 0.0
1068.6269300131628 -18.48557019620563 0.0 -13.287946815768564 0.0 0.0
1025.1124475112706 -10.560647497009711 0.0 -18.202996998803957 0.0 0.0
1030.0785766899355 -33.791298322654484 0.0 33.41734243949294 0.0 0.0
1065.6149224666817 -13.409356754716896 0.0 7.405353933646755 0.0 0.0
1113.3500972518304 -16.53772307244202 0.0 10.672744817927452 0.0 0.0
1100.1345405281859 1.3459757958603973 0.0 10.965828042520704 0.0 0.0
552.9971805220428 43.08398809306058 0.0 -34.64088018323417 0.0 0.0
1070.3355850105343 -34.51198731668484 0.0 103.52939622222353 0.0 0.0
1014.9574898082033 -62.28760661816909 0.0 80.89536550866997 0.0 0.0
1022.4402249721816 -22.208188837043224 0.0 101.5835555513304 0.0 0.0
1029.1919822813388 -53.2170085223583 0.0 89.48725737933479 0.0 0.0
649.3305327092656 -6.945202744142364 0.0 72.82939499688771 0.0 0.0
662.5936065040885 -50.88062444126203 0.0 112.39293509536428 0.0 0.0
597.0679344091094 -14.336974175906334 0.0 102.13477471599286 0.0 0.0
580.8762190489805 -19.009742124786243 0.0 102.62296084036946 0.0 0.0
1023.9414116701187 -36.350432256156296 0.0 103.18509329449536 0.0 0.0
1032.3731249704056 -23.080791944436328 0.0 108.50447644142271 0.0 0.0
1060.3497179966614 -49.89288012295418 0.0 89.60585168310119 0.0 0.0
1127.572934593264 -58.58144940942111 0.0 14.325771891776986 0.0 0.0
1039.4208788393605 -65.93125727069639 0.0 63.439753337147 0.0 0.0
507.8497403107911 64.00582367216496 0.0 43.66897360328537 0.0 0.0
960.2050954653205 4.964965150724254 0.0 102.25892930848256 0.0 0.0
1000.757799179623 -8.379049840557855 0.0 102.55875291990417 0.0 0.0
614.3026750540484 -62.174557076370206 0.0 118.42263645749205 0.0 0.0
1129.0572500266833 -59.38596923565251 0.0 10.883415876442116 0.0 0.0
1026.7802298195265 -69.37136125593815 0.0 70.60624280515935 0.0 0.0
630.4779171464675 34.63571403298235 0.0 -54.41453369587231 0.0 0.0
1025.238047236284 -36.50151132492164 0.0 -102.8877799368584 0.0 0.0
1032.700181045043 -29.828364636154674 0.0 -107.84342115632712 0.0 0.0
1060.0004482249708 -51.74420868127618 0.0 -86.23333522874945 0.0 0.0
1120.26774969209 -63.75232804071351 0.0 -6.499719881424592 0.0 0.0
1025.1446619475316 -69.99264356270447 0.0 -65.83131348732694 0.0 0.0
569.0309373292786 -36.810479772385946 0.0 97.86999670219704 0.0 0.0
691.2484318354715 -49.93356434527598 0.0 102.75661981986703 0.0 0.0
681.4808070572566 -95.75907828705976 0.0 147.43820480134386 0.0 0.0
635.2742364327071 -61.22344461278746 0.0 112.05208465762864 0.0 0.0
980.7511964103018 -18.72175444981451 0.0 4.708680487939804 0.0 0.0
1063.3597420462752 -14.463191269209062 0.0 -13.132992833831075 0.0 0.0
894.8434776800614 -2.184976114342362 0.0 -34.21195205756744 0.0 0.0
912.080502756693 1.3025358083715446 0.0 -37.6979346997659 0.0 0.0
528.846568801802 60.737938117772934 0.0 0.7636067086303381 0.0 0.0
473.78880675136196 70.77986855304793 0.0 -32.2236200665777 0.0 0.0
700.2844103268118 11.287021757749613 0.0 -7.304251988697865 0.0 0.0
734.3518737336485 -5.524479538940113 0.0 20.43639492318671 0.0 0.0
1041.922716589019 -5.708182809961329 0.0 29.16608820893315 0.0 0.0
1059.3854886925972 1.5000247745150546 0.0 24.780754603983752 0.0 0.0
1041.1834648817344 -6.891682121298345 0.0 29.844968882033793 0.0 0.0
1064.9068965902975 2.250933433486466 0.0 24.807304214441384 0.0 0.0
679.0118898365656 8.80160250333185 0.0 -5.4839443327485204 0.0 0.0
508.7751294535537 64.80520891435458 0.0 3.3749761759946373 0.0 0.0
469.97251149601493 70.87781082309839 0.0 -29.766297676536244 0.0 0.0
359.9353165157674 80.84647416452994 0.0 -78.88724972418689 0.0 0.0
333.5822495125776 72.64197278253346 0.0 -75.1753019465428 0.0 0.0
864.8942068099658 7.620041948360438 0.0 -40.20704846948774 0.0 0.0
827.53794026787 21.677320350082 0.0 -43.84669774218637 0.0 0.0
393.25654951190614 106.70980566066623 0.0 -20.5959278689502 0.0 0.0
369.5372638198007 126.36484103983308 0.0 -22.458497249061676 0.0 0.0
357.5159661404053 92.75169223973109 0.0 -28.578476076947485 0.0 0.0
846.9698001038146 0.6871908326703533 0.0 29.765589081442055 0.0 0.0
861.0150286653851 15.253690074006272 0.0 70.17672787891291 0.0 0.0
391.89367878780007 109.46551850016846 0.0 -22.737555050037685 0.0 0.0
363.6337270929068 127.57882142423051 0.0 -19.531857207957643 0.0 0.0
349.7570595531809 93.50298613440555 0.0 -31.51200710126986 0.0 0.0
838.3017888099063 -0.4857711701797598 0.0 -28.00970291773275 0.0 0.0
827.6575306922499 3.3219563658996094 0.0 -34.83794568744719 0.0 0.0
876.455806107199 33.223782837365036 0.0 -75.14846708812162 0.0 0.0
1134.088127070821 -0.11312138339280864 0.0 -0.9813240903654471 0.0 0.0
1105.025441505984 -8.665707995196101 0.0 -21.30495258992658 0.0 0.0
1142.285262999577 -6.051414548794185 0.0 -15.744475487508685 0.0 0.0
1098.0341239793374 -6.653811426012965 0.0 -18.267132705454628 0.0 0.0
349.10596035151417 -107.87891619046837 0.0 -145.5933927888685 0.0 0.0
286.6096390070743 134.55473466050492 0.0 -9.99707340890913 0.0 0.0
290.92397139585455 137.7286413748433 0.0 -7.012830999434747 0.0 0.0
797.8794288533169 4.729277251381177 0.0 -25.350128360684092 0.0 0.0
803.7257048218283 6.61722395288399 0.0 -28.848864500739392 0.0 0.0
1239.6617499979334 61.597197371503455 0.0 83.65879361548143 0.0 0.0
367.09915387859263 -91.07837453113837 0.0 -143.9100090414159 0.0 0.0
350.12432574942505 34.901664491406194 0.0 109.0386124367581 0.0 0.0
1038.7188449793882 65.70398436423756 0.0 98.46416402195148 0.0 0.0
502.8705742590546 -126.2015593545944 0.0 209.7220283771858 0.0 0.0
872.9646530067048 -110.5700783267817 0.0 -120.81630210834142 0.0 0.0
1049.0666723876234 -44.89280454704169 0.0 -4.698644033612459 0.0 0.0
864.6059967773626 -110.67863671220994 0.0 -124.06068214609797 0.0 0.0
1056.490253150972 -45.78032118691283 0.0 2.204651896903454 0.0 0.0
1089.3817400536643 20.130157921466946 0.0 -123.52207713264814 0.0 0.0
1104.312975261046 -7.148810714244348 0.0 -83.80464718619174 0.0 0.0
1046.9586407770475 -9.135884404991316 0.0 -105.32850261022595 0.0 0.0
1049.085956762017 -38.700930682014075 0.0 -25.68192242002193 0.0 0.0
433.26290211239893 -28.573650773335004 0.0 -152.64145755216086 0.0 0.0
514.2843691458861 -12.176496979773304 0.0 -144.27517940059047 0.0 0.0
509.2855087468345 -2.8949225450619736 0.0 -111.46540972276028 0.0 0.0
491.38972081693896 -103.92339419900185 0.0 216.19924376820367 0.0 0.0
1087.841855501885 -16.285873334261055 0.0 31.247376941294707 0.0 0.0
1037.7382200999002 -5.672165935834585 0.0 27.887104987989982 0.0 0.0
1060.4179115758234 -9.56852879704644 0.0 33.591687060104356 0.0 0.0
1061.7281429035365 -15.463642646282324 0.0 22.461236016894627 0.0 0.0
760.2918163140656 -131.96557592480463 0.0 134.51168706651407 0.0 0.0
880.5406150591994 -105.41839198188688 0.0 115.53224977579181 0.0 0.0
289.97101750765876 38.72460782753497 0.0 106.80701840024365 0.0 0.0
388.71382782377333 68.20981473049926 0.0 103.3218950206748 0.0 0.0
1068.3270234081779 77.2877017161992 0.0 -125.2212719064607 0.0 0.0
684.1149432084903 -127.28545592538906 0.0 166.00296799709955 0.0 0.0
501.50289640582895 40.53880080770672 0.0 -54.52719206700899 0.0 0.0
472.68395570014764 53.647194540792526 0.0 -83.15393312286004 0.0 0.0
974.9252979866088 -0.15283846778947918 0.0 -108.28535649227604 0.0 0.0
996.7670949077295 2.114591737863691 0.0 -107.6339587092019 0.0 0.0
846.998024382763 -10.764550888529186 0.0 -12.04805205159021 0.0 0.0
908.3266034720226 -12.897491300229092 0.0 4.43350538626398 0.0 0.0
1073.7872171929325 128.1094070401061 0.0 -77.29843401270425 0.0 0.0
191.46660424890527 56.101102007258504 0.0 -70.49986009295179 0.0 0.0
1079.2787609193626 -6.203876221498206 0.0 -1.552390255747573 0.0 0.0
1082.2755951366019 -3.958324534928977 0.0 6.3302311775224664 0.0 0.0
301.5745117414625 137.96236304941243 0.0 14.178023523934508 0.0 0.0
906.9227466365774 2.6746930341132042 0.0 -34.889677227556774 0.0 0.0
893.6148940122285 -8.658213746940248 0.0 -63.544659758432495 0.0 0.0
1053.8027176375663 -19.520616113361143 0.0 -91.98405236268037 0.0 0.0
474.27019903017134 -24.45187552854881 0.0 130.4672631250904 0.0 0.0
1044.811097079041 -6.803335691503548 0.0 -33.248819305494386 0.0 0.0
1063.5540733012365 -18.485195233881257 0.0 -38.202824950801514 0.0 0.0
1053.1258004088436 -6.339298510891865 0.0 10.610291713723528 0.0 0.0
992.9820650078005 0.6886712656603322 0.0 -9.564171096402903 0.0 0.0
1017.2228254737856 -5.737326147592739 0.0 3.5801718997031617 0.0 0.0
1020.2233396885453 -13.74089947570775 0.0 -11.569974734266859 0.0 0.0
1043.5494899027917 -0.18561255921315478 0.0 110.66357947579557 0.0 0.0
1036.818003785116 33.265618263901786 0.0 127.13122309625449 0.0 0.0
1044.9246639452242 83.81098721745704 0.0 111.71807211064679 0.0 0.0
1024.7152593139197 33.22510365105421 0.0 99.88946349387432 0.0 0.0
954.289884439277 -0.5104246110280428 0.0 31.560293071512493 0.0 0.0
956.1287167805139 -2.8817437551647913 0.0 74.5501502408681 0.0 0.0
1032.454436552186 -14.143136323476313 0.0 -54.58566566115682 0.0 0.0
966.2737635362502 -22.313084647287724 0.0 21.69384862196848 0.0 0.0
981.0848689301876 99.71986650340754 0.0 -77.11158414270736 0.0 0.0
951.0265058140955 -1.5560149079328198 0.0 32.21527455349622 0.0 0.0
953.9756728821463 -1.6456435473161264 0.0 74.00442539465658 0.0 0.0
558.8510212468053 44.52148458091543 0.0 24.331907711857834 0.0 0.0
547.2361657308967 41.250363989535174 0.0 21.717805315962845 0.0 0.0
681.9124114110302 14.54003439325075 0.0 3.7751888141691143 0.0 0.0
741.2856252217579 4.943481306743479 0.0 -10.551568446998209 0.0 0.0
798.8879496344484 -26.793321070009938 0.0 -32.76257377434653 0.0 0.0
748.25605175693 -3.5693371745499576 0.0 -7.167070575537515 0.0 0.0
1083.2990260432134 4.742715608079379 0.0 122.04853448782593 0.0 0.0
1071.8884720229482 4.7034121097776165 0.0 26.12462010648584 0.0 0.0
1079.5447630034191 -6.342500587323514 0.0 21.722169554422646 0.0 0.0
1077.9426808391524 -9.975141598497885 0.0 34.34057494605427 0.0 0.0
292.2728929236308 124.04066275544295 0.0 28.97181806104418 0.0 0.0
912.3645632619904 -12.504095546272652 0.0 8.69367900436581 0.0 0.0
868.0306893245246 -16.007345364817127 0.0 2.14615579693426 0.0 0.0
868.3377821481967 -9.423316707628373 0.0 -5.1204855175716775 0.0 0.0
871.1630420189673 1.4310692624998183 0.0 43.03270594635393 0.0 0.0
1143.5117306421548 -8.856960708352744 0.0 14.23259800310881 0.0 0.0
270.66101256383786 129.57996672735283 0.0 7.162118413149922 0.0 0.0
1019.6832969841845 107.94955311467702 0.0 -55.178274498056105 0.0 0.0
1051.7845361642167 81.29219942989062 0.0 -104.6920347566077 0.0 0.0
264.80040842343834 94.88752420121345 0.0 -45.34334559370674 0.0 0.0
269.4678108173291 64.64642173183938 0.0 -97.67484363028854 0.0 0.0
1055.639267850701 -0.8199721321020661 0.0 -6.496249476013464 0.0 0.0
1019.6641457539245 -6.9250387830691125 0.0 9.510516066157814 0.0 0.0
276.382507153134 132.108849679418 0.0 23.973719473965364 0.0 0.0
292.1404320602276 104.57196454278365 0.0 42.82292985809963 0.0 0.0
363.8777005478102 80.42917423221007 0.0 44.250528926258916 0.0 0.0
372.60781005950247 110.00578895599334 0.0 42.687577132629464 0.0 0.0
916.1648215482696 27.09748503358054 0.0 74.5611821740321 0.0 0.0
898.0298976056459 45.471320957908375 0.0 82.20088540631673 0.0 0.0
1128.227396401626 -43.07392211879244 0.0 -103.62626055422398 0.0 0.0
691.2779342146932 -112.28683679293357 0.0 171.88492525737468 0.0 0.0
1120.4027922096086 -43.17256708886731 0.0 -106.43954853394901 0.0 0.0
1126.01399475322 -45.72693636134551 0.0 113.11478362421366 0.0 0.0
492.3981861225969 20.03934149866774 0.0 110.7621974196448 0.0 0.0
406.8528624118015 50.892364773275204 0.0 81.50023597771471 0.0 0.0
841.7291258139861 -18.714504747673345 0.0 6.689251784360749 0.0 0.0
300.869353129595 138.59627974732103 0.0 -10.812455077740315 0.0 0.0
288.8901616634999 137.39810769294877 0.0 -8.449378114299902 0.0 0.0
823.1946188173702 27.94662773044621 0.0 -12.827994900307464 0.0 0.0
812.8250411007408 51.466918692444125 0.0 -17.99652840744318 0.0 0.0
912.278853865219 12.991644590315389 0.0 -73.72595658044429 0.0 0.0
860.0510267660443 4.306527953973216 0.0 -58.811898214061216 0.0 0.0
329.69483040153784 119.23037464535052 0.0 -36.88923500726901 0.0 0.0
273.93382301375664 105.6117705689851 0.0 -53.30695887508091 0.0 0.0
1103.5199391746496 17.097022039441697 0.0 114.38214896591954 0.0 0.0
940.0732161378178 46.66068025797301 0.0 -5.40808361707388 0.0 0.0
989.4489214387335 57.92509818832684 0.0 -2.1875427806013548 0.0 0.0
965.4869829452076 114.10659548488616 0.0 -19.075480062041542 0.0 0.0
264.0104872836075 121.5479018298003 0.0 -13.08658083290487 0.0 0.0
468.95719750607077 -7.108055497305116 0.0 147.90008451647964 0.0 0.0
1147.8687194073339 2.2399814499312924 0.0 9.391270299284944 0.0 0.0
1098.3782459486783 -10.607559853172063 0.0 29.9397503581815 0.0 0.0
177.18586872183087 80.46587536686565 0.0 -19.380379633009987 0.0 0.0
1026.472450757478 139.65995280650483 0.0 -25.708969160631558 0.0 0.0
1060.1058913690022 161.98859824386747 0.0 4.6794785243266634 0.0 0.0
1091.13009069555 3.121340124919584 0.0 12.723912326958912 0.0 0.0
1080.5243868789437 -14.517799664460028 0.0 38.74465309451731 0.0 0.0
824.5778654331797 -13.5237073546607 0.0 13.159946207589611 0.0 0.0
870.1334227114277 -9.55661414725455 0.0 3.038208965422769 0.0 0.0
1100.1859459562272 -2.3041400811667927 0.0 -21.832097630695504 0.0 0.0
1142.1244656043523 157.93394305024506 0.0 -39.51426527287709 0.0 0.0
900.7778512775353 -84.90124662596384 0.0 145.60158189424084 0.0 0.0
680.1338174311278 -69.71054887879012 0.0 198.61932201932458 0.0 0.0
256.5850699425394 -118.0498054711686 0.0 -200.95011466360347 0.0 0.0
1330.1334317230794 105.9835500544209 0.0 49.96463313658773 0.0 0.0
245.5395065197217 -122.67764187753112 0.0 -191.11284968584621 0.0 0.0
450.8026280387078 8.00355486379263 0.0 106.46991757061643 0.0 0.0
1040.6418166256428 32.38208341286463 0.0 108.87004904343691 0.0 0.0
1091.730663104697 46.99121685215033 0.0 114.27427176926689 0.0 0.0
511.6597889322996 -41.40671329411015 0.0 152.9661035003683 0.0 0.0
744.5948487493428 9.361864601842257 0.0 14.452666739010022 0.0 0.0
1185.016541745666 -5.372974089447439 0.0 -5.857863180452458 0.0 0.0
285.09409359159355 147.78139667686145 0.0 -0.6539623907018848 0.0 0.0
287.50073133493555 132.63040665282523 0.0 10.989221105940558 0.0 0.0
292.6418505236387 143.41830172816026 0.0 2.5145376235245602 0.0 0.0
287.36159179657204 145.5514713523838 0.0 0.4264912416430688 0.0 0.0
293.3600420941201 146.5572374914791 0.0 2.865095513403008 0.0 0.0
689.2836670763496 9.519498857550133 0.0 11.098740885456541 0.0 0.0
789.6064881861354 -7.4503143691042055 0.0 2.1818676054162007 0.0 0.0
1174.0116361608543 18.967956562352185 0.0 59.666319190974285 0.0 0.0
1149.9799725970465 64.9435940150056 0.0 43.31433106094818 0.0 0.0
1137.3504921973633 47.52265144523432 0.0 38.906453996308606 0.0 0.0
325.78972940377145 -80.62571854198323 0.0 184.63955177467741 0.0 0.0
1140.2031165521703 33.40053738752778 0.0 -64.25225746512466 0.0 0.0
1207.4882243226382 77.4511867265299 0.0 -29.628472911150975 0.0 0.0
947.4121817096753 -14.217503335614936 0.0 11.346847906561116 0.0 0.0
904.2109431032491 -17.023606812992398 0.0 -13.89256216350971 0.0 0.0
898.035820691793 5.699534635022985 0.0 32.18666555166535 0.0 0.0
883.1667411910576 -1.2900584152299643 0.0 27.609419910766835 0.0 0.0
951.0884580391527 -3.7076918479020833 0.0 72.68031300351541 0.0 0.0
914.5347142485465 20.111386652729777 0.0 75.68734178764566 0.0 0.0
512.2450145723183 66.30448147841064 0.0 2.1642458580996498 0.0 0.0
476.95515807880867 83.04439387390258 0.0 21.510632669786443 0.0 0.0
512.7631757816914 58.83049106829765 0.0 46.353238522182316 0.0 0.0
427.91211658052345 67.01117233934895 0.0 27.443268866480068 0.0 0.0
896.9599455989406 2.7235542112256894 0.0 32.93087651828016 0.0 0.0
898.7239872733935 -0.5000570328509184 0.0 31.261568555371166 0.0 0.0
957.2767893161805 -2.89591612093227 0.0 74.5919182831217 0.0 0.0
905.7017691851396 11.037929338390768 0.0 76.67247464674877 0.0 0.0
925.2609142535234 -7.307737576565501 0.0 -36.78805688710267 0.0 0.0
898.1279164913846 7.338550275949217 0.0 -36.0757427853632 0.0 0.0
973.6334641146271 8.637213248098703 0.0 -72.9382004796229 0.0 0.0
1017.5976480541281 -5.353446568492984 0.0 24.076578403316308 0.0 0.0
998.1503747020574 -28.291138294532402 0.0 4.432138640290248 0.0 0.0
453.2752248660191 -108.64926259327824 0.0 -136.2522880987384 0.0 0.0
448.1238917039766 -136.80610239825268 0.0 -232.86401216755579 0.0 0.0
643.7328764567683 -95.32471275909423 0.0 -153.58755532210122 0.0 0.0
1095.4585649339062 81.824186914998 0.0 248.07946580209227 0.0 0.0
1132.823911492188 -1.4006679018413593 0.0 38.920069902091036 0.0 0.0
1111.2627553938805 -60.23648504256431 0.0 64.65559344973677 0.0 0.0
969.4219214122026 78.72895414853593 0.0 96.30082853614135 0.0 0.0
942.5877611532766 13.474462741199204 0.0 75.36175518350282 0.0 0.0
998.4863921696291 54.25522764622377 0.0 62.19011591192979 0.0 0.0
314.25779101744513 94.89838328069999 0.0 52.2494981959392 0.0 0.0
318.57576682246076 96.61872101896286 0.0 53.65353168296574 0.0 0.0
300.5949418068893 103.21807728821047 0.0 59.819933209820135 0.0 0.0
262.8233017135857 112.30709297518933 0.0 25.76161322949825 0.0 0.0
446.2180635409157 -119.866176751129 0.0 -147.97313718621007 0.0 0.0
647.5835139133985 17.756339545192816 0.0 -28.413796979832526 0.0 0.0
672.5488707044068 18.242489471660434 0.0 -19.67095348942718 0.0 0.0
671.9120157440682 -4.72034579905511 0.0 -28.497352252057308 0.0 0.0
1193.2448470164625 167.58748969045027 0.0 84.38283960566767 0.0 0.0
1183.012722692639 139.31668965955356 0.0 50.51947384017603 0.0 0.0
747.1689744211538 2.624556282457803 0.0 -17.212557056044613 0.0 0.0
825.0215935903784 11.377677838758927 0.0 -36.39796137595318 0.0 0.0
155.53568872775037 -36.20945538773396 0.0 145.65800407918988 0.0 0.0
187.9311588544152 17.489787962877827 0.0 102.29259211302222 0.0 0.0
363.1069078492473 120.22062817989048 0.0 -1.2359083111323186 0.0 0.0
313.07845100669226 109.65200622144613 0.0 -18.400227150607098 0.0 0.0
736.3045093397601 8.953687899183137 0.0 -19.961005106615147 0.0 0.0
826.2142494839699 17.054060551017557 0.0 -43.313584750157865 0.0 0.0
358.56390184426965 124.51060445527759 0.0 -0.15242561668524027 0.0 0.0
314.56023466691755 113.2069424628051 0.0 -16.33751912692709 0.0 0.0
117.99564937348207 -66.52787102616662 0.0 -64.93447228096247 0.0 0.0
1408.766978855777 190.82837833638624 0.0 -42.19080970525641 0.0 0.0
1401.4051366451301 214.60875330798225 0.0 48.150208328360684 0.0 0.0
1213.1546307364576 216.27636785750568 0.0 5.326363992958112 0.0 0.0
745.7646840131566 0.4060184848781603 0.0 -23.35751099355328 0.0 0.0
845.4509785768699 -14.953062938472385 0.0 6.03502488678226 0.0 0.0
825.8775997083015 -14.317274271906513 0.0 -19.45713791241743 0.0 0.0
794.7581082395565 -4.254169368502744 0.0 10.605091140297034 0.0 0.0
142.4018945954927 -17.360592844160593 0.0 72.11360825442745 0.0 0.0
1082.6889549739246 -6.041780095222634 0.0 -21.845282799835 0.0 0.0
1062.2004301500438 -11.204174647226864 0.0 -7.802133585703925 0.0 0.0
1090.2214901929415 -5.853012111385567 0.0 -12.61741001872666 0.0 0.0
1044.7862386068496 -13.669793766465602 0.0 -30.331638690679565 0.0 0.0
1219.1604505591624 15.511547202332451 0.0 -45.280387536067245 0.0 0.0
1207.6816126205658 166.94357673137392 0.0 -64.10192215925791 0.0 0.0
471.9401904406397 -105.13406926969333 0.0 169.37590502941018 0.0 0.0
491.99123176456874 -100.87170336758845 0.0 177.93523386452594 0.0 0.0
1240.683377073955 12.836698918594664 0.0 -18.332671011847392 0.0 0.0
186.63943497859478 -46.990404276177365 0.0 -161.17797919709994 0.0 0.0
110.71372618741918 -21.26326402477884 0.0 -53.79525727408649 0.0 0.0
139.58772318538914 26.476451741164258 0.0 -87.95701902481723 0.0 0.0
1245.9422120169736 145.94169399660552 0.0 -98.58165740841706 0.0 0.0
1256.4830361290865 219.0362212028008 0.0 -5.636584775867789 0.0 0.0
1162.5354930953185 177.78292355919294 0.0 -73.76282409050732 0.0 0.0
1230.6840808245997 10.313911831395274 0.0 22.352561947693093 0.0 0.0
343.41870843352905 82.89180389224963 0.0 -74.15849253773277 0.0 0.0
964.8571906253887 59.46742700770335 0.0 -67.2492817090973 0.0 0.0
982.607552889559 23.3004980510334 0.0 -94.9208104766754 0.0 0.0
995.6943039418123 64.17212790679918 0.0 -90.6672766802008 0.0 0.0
913.0321338306959 65.09749412635671 0.0 -61.11023731797841 0.0 0.0
231.52572413608223 55.42986758948705 0.0 -73.2871031042954 0.0 0.0
320.33775535968937 10.949405595935986 0.0 -138.9183347755448 0.0 0.0
316.582371345136 1.1622250483752339 0.0 -119.50002273831842 0.0 0.0
214.65786722287794 49.21256807461154 0.0 -100.1306526648047 0.0 0.0
1128.3709547553897 132.03034972708312 0.0 -49.26493119518678 0.0 0.0
1123.5733006280261 72.38036088485666 0.0 -113.33132841054105 0.0 0.0
1155.0306375322452 93.04107112766502 0.0 -56.08444080412702 0.0 0.0
1072.6184573847531 141.7483221863041 0.0 -91.50912127358886 0.0 0.0
1081.6473175806009 83.99571744584216 0.0 84.7011683931383 0.0 0.0
1173.5078229280593 99.47728041694893 0.0 78.4059217456663 0.0 0.0
1098.9966204533291 143.64455480136186 0.0 86.7502660103682 0.0 0.0
1034.92356657045 128.0162537382081 0.0 86.03860420948774 0.0 0.0
1052.9380375928256 119.71486117656757 0.0 6.9878560523117175 0.0 0.0
202.2402101838821 70.33961875171886 0.0 73.24991708113471 0.0 0.0
238.23411881740572 92.40603619957479 0.0 25.030696637859847 0.0 0.0
1106.0839531883478 -37.40651005794797 0.0 91.54710105999077 0.0 0.0
1060.3191078545563 -27.294387888121435 0.0 64.22503758504834 0.0 0.0
1171.0127077253735 5.9218205966761275 0.0 67.08981333382918 0.0 0.0
1097.520218313546 116.46091010057755 0.0 56.87630378915907 0.0 0.0
1099.3103443196908 93.47801412999041 0.0 119.63195484341618 0.0 0.0
377.6853311538038 117.78361878219657 0.0 2.0502289108065295 0.0 0.0
317.8479357566435 116.09301634786112 0.0 27.81141289251944 0.0 0.0
325.37571948736985 119.34458228461965 0.0 21.959861377974338 0.0 0.0
1110.7978008689995 -26.71589603302533 0.0 90.30764759716133 0.0 0.0
1081.7784097864064 -24.69273446495123 0.0 31.378722624532234 0.0 0.0
1075.838623931178 2.0126389434918224 0.0 84.32543749554284 0.0 0.0
276.5175544427201 58.59849272780347 0.0 78.6784473110819 0.0 0.0
289.45632437885143 16.785796274646884 0.0 140.4995421594929 0.0 0.0
620.1897296933951 -54.59153341388213 0.0 144.19223833878596 0.0 0.0
494.2783995012962 -87.79560866918803 0.0 166.85693499572182 0.0 0.0
508.2079108923505 -41.586116207162206 0.0 165.5059516497022 0.0 0.0
1013.8561902617672 123.5432968440169 0.0 54.363763970955574 0.0 0.0
1030.3695661449965 120.26503264877299 0.0 92.39482672936457 0.0 0.0
1059.5530626761863 109.27522071412572 0.0 33.486915789420145 0.0 0.0
299.24643694684465 55.74442358864345 0.0 98.50392081667523 0.0 0.0
312.9619412399478 6.822168254199596 0.0 129.5029544712106 0.0 0.0
186.49141773195717 21.699150147306966 0.0 103.78943464409565 0.0 0.0
218.14227445806682 71.10669229870742 0.0 83.04965231064484 0.0 0.0
216.79146548887806 89.07289525874103 0.0 29.14606097529824 0.0 0.0
1088.4525510769424 65.0423040622963 0.0 -82.95822330561097 0.0 0.0
1198.966243010579 119.94583248797824 0.0 -63.12708181088562 0.0 0.0
1117.96280099932 141.53283195312036 0.0 -99.85258130545412 0.0 0.0
1101.7483874370678 -36.605891719138924 0.0 -90.82625851391872 0.0 0.0
1054.394248601465 -32.13122760677834 0.0 -62.79191137975189 0.0 0.0
1140.9226816573828 -4.277992759354277 0.0 -53.392571491894195 0.0 0.0
1135.759408054808 167.24559703811792 0.0 -38.25207927371005 0.0 0.0
1096.992251142587 190.5789618853986 0.0 36.395454045329174 0.0 0.0
31.41673773727653 -10.994875947609978 0.0 -40.58362700235163 0.0 0.0
120.71416595913267 35.607761408626736 0.0 -10.157721389614732 0.0 0.0
158.80692449674362 64.41709561503275 0.0 -28.61047600442294 0.0 0.0
136.05897233398645 55.436797964407184 0.0 44.79329757386776 0.0 0.0
1253.3264112475072 258.09211021388455 0.0 -28.947559553739268 0.0 0.0
1201.1477076139242 215.43800613041904 0.0 21.928440803919354 0.0 0.0
1121.0725987550575 180.58778169538832 0.0 -31.00824040505533 0.0 0.0
1099.885647530268 196.0244116047944 0.0 61.51634040238921 0.0 0.0
752.535601440903 -6.699541299169965 0.0 49.752960193100016 0.0 0.0
2024.388306257539 239.83386454411843 0.0 -404.72305233185733 0.0 0.0
1301.6523593352163 162.6240185567054 0.0 -37.03554805565344 0.0 0.0
1679.7160484514236 197.83980376932993 0.0 -61.051394123717905 0.0 0.0
1612.9704563713747 82.44260544119413 0.0 -239.0004252677891 0.0 0.0
28.111649454953096 -458.9884146027925 0.0 -51.12002843875894 0.0 0.0
77.63893451983743 -109.6854892344699 0.0 138.28664515439908 0.0 0.0
100.68762561304108 -236.03295271599168 0.0 53.73049395038671 0.0 0.0
-18.44401551541406 -237.6839046739539 0.0 27.987123149361253 0.0 0.0
2030.0552778944013 245.62753731553144 0.0 -380.45590950308934 0.0 0.0
1294.2133378349615 131.24283589760444 0.0 0.5655747150806612 0.0 0.0
1623.7155227310104 84.00163218924331 0.0 -236.48700189417016 0.0 0.0
1060.8126511483235 -4.42210839571942 0.0 33.025276963987096 0.0 0.0
34.774885613196176 -438.7512651386635 0.0 -21.913429958013243 0.0 0.0
184.66944544484295 -117.18813649964572 0.0 188.73815111907717 0.0 0.0
-15.379026983108766 -217.06402111085166 0.0 -16.850227693663616 0.0 0.0
34.85536274616135 -430.737119598012 0.0 85.31278561815685 0.0 0.0
83.50438238378376 -105.22545687830922 0.0 -93.54151009424918 0.0 0.0
96.24980543283205 -267.50184653740314 0.0 -73.6420352749714 0.0 0.0
-33.81009449146417 -273.1789282697058 0.0 -18.6410030459851 0.0 0.0
666.7182446922317 -7.720361280169186 0.0 83.07629931299283 0.0 0.0
660.4767214000234 -39.148974687393206 0.0 68.00433305620012 0.0 0.0
2061.3689075799034 258.42633482230053 0.0 386.45660907105975 0.0 0.0
1292.9287610934623 138.7754994997468 0.0 33.4835964241096 0.0 0.0
1659.7024518151893 205.13237108237945 0.0 94.45033236463634 0.0 0.0
1580.0342336477927 115.37673479377872 0.0 202.88343102992857 0.0 0.0
37.453948364336895 -432.50164862619613 0.0 83.22516838069969 0.0 0.0
66.04251593839084 -88.93882159140037 0.0 -98.93996509037414 0.0 0.0
89.04314756832348 -265.24181630076185 0.0 -76.46999734495724 0.0 0.0
-27.30332919556118 -268.1184036574087 0.0 -25.81686437721559 0.0 0.0
2017.2653275473 264.10386854503787 0.0 478.34566811295764 0.0 0.0
1295.4895667476264 166.38626169252746 0.0 79.37491953003249 0.0 0.0
1712.3256562746901 198.23853960777873 0.0 71.6804033065692 0.0 0.0
1611.2833387110556 103.709110078116 0.0 212.35967492184366 0.0 0.0
681.4181691174326 -128.56096804833382 0.0 -174.17641085658843 0.0 0.0
887.4463530455596 -97.5389703572535 0.0 -139.51750178386982 0.0 0.0
702.4208291302533 -26.943288108041912 0.0 -235.1527796261497 0.0 0.0
693.8472505562137 -69.8993505728047 0.0 -190.32990650423577 0.0 0.0
674.864125782239 -146.52906470749275 0.0 -190.02504553589765 0.0 0.0
873.0426241713194 -99.95088978490946 0.0 -133.28742576243835 0.0 0.0
692.4507028763625 -31.39915396273824 0.0 -242.23888798259088 0.0 0.0
689.891628209211 -65.42425960383568 0.0 -195.63327966079154 0.0 0.0
860.602578857564 -5.010334845245495 0.0 26.68976772690569 0.0 0.0
298.5406676752079 135.36004021998048 0.0 20.492175827778045 0.0 0.0
646.373673876924 15.943298140730207 0.0 59.86554639950365 0.0 0.0
741.0191769272536 -8.299932643935676 0.0 54.26269427277245 0.0 0.0
637.9983618160787 -12.662863933615085 0.0 50.45442960174264 0.0 0.0
841.7820440038364 36.472337952219505 0.0 283.4035957832225 0.0 0.0
612.9352053565699 -31.881578489223642 0.0 139.3989399744964 0.0 0.0
470.22536273972906 -69.42900702982149 0.0 166.02209410886925 0.0 0.0
302.9715731353521 27.545248821619793 0.0 -217.13470113019403 0.0 0.0
314.80628855085365 76.03888973587871 0.0 -89.27846911625879 0.0 0.0
237.29191438824526 95.13545815444708 0.0 -51.14041454661512 0.0 0.0
1089.3093978411428 -1.9362781777618352 0.0 -14.782776849929514 0.0 0.0
1059.0720930715104 -21.596859643201412 0.0 -40.22765587841813 0.0 0.0
1061.703956131241 -12.35119281945282 0.0 -41.70947689558512 0.0 0.0
293.0090163110465 18.60996862991476 0.0 -208.68054559185984 0.0 0.0
1009.5559760842012 -18.118328565280933 0.0 12.271391801356211 0.0 0.0
948.9795493068265 -14.681063250216653 0.0 1.0905028774039798 0.0 0.0
1017.997171709883 -9.748951120233698 0.0 4.611531651134226 0.0 0.0
585.3551270854033 -66.61345391314075 0.0 -124.6324365375982 0.0 0.0
708.9526700443206 -18.105102141171898 0.0 -73.34647748231728 0.0 0.0
957.2998496943314 -88.8913572098541 0.0 59.34653281645473 0.0 0.0
973.3032424180492 -93.70932441866256 0.0 138.41324119206368 0.0 0.0
829.4847086636601 -46.59519929408492 0.0 154.8700245396934 0.0 0.0
792.8419612277545 -74.9339017801305 0.0 201.97739079157023 0.0 0.0
1009.5886852137588 -37.498818474501945 0.0 94.0948507892523 0.0 0.0
1010.6518167734017 -5.2032070506304535 0.0 106.80228653194693 0.0 0.0
986.1202735584642 -22.536139576983032 0.0 96.11233045703909 0.0 0.0
1019.8015334502401 -9.439181928998437 0.0 88.80402646671932 0.0 0.0
800.121931523186 -9.841007830951469 0.0 23.878873551341155 0.0 0.0
811.294840264647 29.862475393942987 0.0 47.363621561181354 0.0 0.0
883.862684408041 73.66140951168245 0.0 23.58198918825111 0.0 0.0
251.90882825020012 117.23214210380655 0.0 27.89142823188462 0.0 0.0
291.62159283242477 132.44145321346738 0.0 18.64790634191015 0.0 0.0
1397.8202741817242 245.4655792983102 0.0 407.7273142205191 0.0 0.0
1344.9306001488003 80.09086886120866 0.0 364.1140781979247 0.0 0.0
165.37756030240183 -193.24573053169834 0.0 -51.63189914671998 0.0 0.0
94.45207127032474 -178.29015410085194 0.0 -49.56720834580531 0.0 0.0
164.90308412926223 -193.25278608578682 0.0 -42.60781255813482 0.0 0.0
83.27699759504763 -169.28966673572353 0.0 -44.60187304690022 0.0 0.0
1193.3014024564989 -2.8023907241903316 0.0 -1.6474185494771314 0.0 0.0
1129.9349266225133 0.6788058175491187 0.0 -0.5033465267861538 0.0 0.0
372.1520481529046 88.02692078505555 0.0 21.38201254583024 0.0 0.0
866.1785933710784 2.187280698501752 0.0 44.245211035750486 0.0 0.0
1017.3616242699094 -31.189719708108896 0.0 -77.83123156228554 0.0 0.0
1012.284798600131 -48.28400560640074 0.0 -88.65632460419208 0.0 0.0
1016.587583692752 -34.19305217749991 0.0 -77.2506064414965 0.0 0.0
343.37062263161755 39.9283563841296 0.0 -126.60775034791021 0.0 0.0
267.6546845980782 60.90202308458955 0.0 -84.08475767497474 0.0 0.0
1101.8288353858975 -3.747983330442196 0.0 -17.04801001283337 0.0 0.0
1096.5718358945487 -15.413915881153287 0.0 -29.37808998554151 0.0 0.0
900.0562475329056 69.78717051222083 0.0 -57.17817651461405 0.0 0.0
881.0083079329065 -17.99259838261645 0.0 -4.1835088914854595 0.0 0.0
887.679183897761 -27.365557787204807 0.0 -2.77646452877296 0.0 0.0
875.824816744392 -30.340061294624718 0.0 -14.891159547456828 0.0 0.0
891.014323544177 -16.303210409431244 0.0 7.6315417939563845 0.0 0.0
1474.6486580309095 139.58621964246555 0.0 -134.7083582896976 0.0 0.0
1133.5943791528398 29.703828156363784 0.0 -85.1376169507614 0.0 0.0
1021.9707850417345 -8.79858963284903 0.0 -64.22682865485015 0.0 0.0
1471.8321134216449 133.25315712695465 0.0 -110.62661089660828 0.0 0.0
1159.700107371435 30.003633482475323 0.0 -66.37298855695362 0.0 0.0
990.2436976882987 71.82635882442025 0.0 102.76488219478968 0.0 0.0
1002.6697913947123 57.69548342493442 0.0 73.2181491482456 0.0 0.0
303.7657444058838 81.0162300911649 0.0 73.26775385064002 0.0 0.0
261.91202903262945 95.24329836838473 0.0 59.46906687549929 0.0 0.0
310.720917392789 101.63057763710236 0.0 70.35884289328395 0.0 0.0
1206.8379688317925 -2.2452702227483314 0.0 -2.5853678738856276 0.0 0.0
1142.1973019541833 0.4247677073469731 0.0 8.602882211187548 0.0 0.0
1134.4341477732494 -3.935868665245266 0.0 -3.1876724177553215 0.0 0.0
440.48606750507105 -93.11027037936873 0.0 -236.30973519641353 0.0 0.0
668.4782321427687 -128.41757042179066 0.0 -155.67617937800108 0.0 0.0
554.5768567397574 -127.19823047890118 0.0 -223.01617974896774 0.0 0.0
528.5514079381489 -105.59324160045962 0.0 -163.05119694337114 0.0 0.0
1463.8831427524099 135.87265239275047 0.0 103.99577742896777 0.0 0.0
1134.9686312127396 32.788611021794054 0.0 62.964683425581775 0.0 0.0
407.4340102199946 53.344738354330694 0.0 102.66411212166027 0.0 0.0
356.9662351349726 61.80131075712325 0.0 105.15687407389306 0.0 0.0
458.3784593432991 45.84788355277897 0.0 73.14490209010188 0.0 0.0
1086.4470644389817 120.988793569473 0.0 -79.30781343758267 0.0 0.0
241.9137214574505 -165.6911633172005 0.0 111.10647709456362 0.0 0.0
272.53658596023735 -113.3478119538126 0.0 187.18100701965602 0.0 0.0
528.9065525981239 48.5875855541305 0.0 -80.70021338780188 0.0 0.0
514.1097632232718 -13.505360682362152 0.0 -112.1710576541053 0.0 0.0
448.8388828235488 25.11140985653354 0.0 -84.79939305338974 0.0 0.0
1127.5898092685236 -6.399283536552105 0.0 -3.9435643795805717 0.0 0.0
1070.7939686559566 1.1333628478853939 0.0 -4.479066524337296 0.0 0.0
1021.7161636686347 -29.40463925090745 0.0 -76.2187005562612 0.0 0.0
1021.8601334100416 -16.178385655223053 0.0 -86.57798762815803 0.0 0.0
920.4596569543679 23.55320449562271 0.0 87.82353182609768 0.0 0.0
860.3573161232947 -5.363993255991886 0.0 49.8239577195151 0.0 0.0
352.2802466651852 85.9067755470969 0.0 43.858824368307715 0.0 0.0
439.6439769271251 108.75602885449854 0.0 28.434289482153662 0.0 0.0
1122.2553749032036 -0.8490364852070229 0.0 -7.161893705329145 0.0 0.0
1113.9645497330634 -4.896704513721886 0.0 15.65263032190662 0.0 0.0
1192.753871054156 -6.846970396049187 0.0 -2.2792275680198717 0.0 0.0
339.97658374213336 91.79029852684833 0.0 73.43929162383145 0.0 0.0
318.6535032762613 111.42354554567174 0.0 46.25647571975858 0.0 0.0
1081.2906018873477 2.5721211569593265 0.0 -14.13399336379821 0.0 0.0
1294.8445473349439 110.30462467599415 0.0 -222.90505593399755 0.0 0.0
1308.9996685828412 118.02405252921176 0.0 -236.63286423907292 0.0 0.0
394.397941218137 -150.77014998888825 0.0 135.04015279958753 0.0 0.0
1313.0791609073556 111.96157859058911 0.0 228.39661875793502 0.0 0.0
155.31383675763297 59.120297883525076 0.0 -36.6663482404957 0.0 0.0
462.6408115794011 65.55769677192082 0.0 10.055386700100893 0.0 0.0
460.5628027555561 51.60690755821142 0.0 44.879676911190366 0.0 0.0
498.88473715973055 46.69474018639087 0.0 24.446661747941118 0.0 0.0
562.365565798691 65.85913153590296 0.0 22.266264306766868 0.0 0.0
471.0315720345123 93.52689828895836 0.0 9.323082020348776 0.0 0.0
454.78761945030857 104.20156816626225 0.0 28.893731509112154 0.0 0.0
376.93294979478355 81.6917374875479 0.0 22.5544795916167 0.0 0.0
974.674934910019 -4.57069000874975 0.0 -34.328570377860196 0.0 0.0
962.5740553148731 2.9240836286392664 0.0 -37.10437920447953 0.0 0.0
966.5178926397092 -8.784797570154467 0.0 -78.42798218630615 0.0 0.0
1005.5859768811565 -4.0431575625836444 0.0 -76.45763340223724 0.0 0.0
1069.2465473406805 4.9761391886668775 0.0 10.02439521025078 0.0 0.0
1061.871079441076 -21.52524600156147 0.0 8.003840989324804 0.0 0.0
975.4660671703815 27.757798495690167 0.0 95.29418301363448 0.0 0.0
969.0837492273786 84.05916240371582 0.0 83.25004269491524 0.0 0.0
938.605736689774 54.50787601910264 0.0 58.00620848832276 0.0 0.0
1044.1842581364751 -6.496377177840998 0.0 -31.158702389044446 0.0 0.0
1006.3115560268321 -18.14793282924029 0.0 -70.48763047013546 0.0 0.0
1011.3241084296666 2.2897167758460455 0.0 -33.313358319923374 0.0 0.0
1325.4814150725376 98.80082809698604 0.0 -346.4706085398484 0.0 0.0
64.80349654240578 -107.7227255404058 0.0 65.19896873516822 0.0 0.0
1299.1191122966666 106.71610319479151 0.0 -329.6049225240293 0.0 0.0
1311.038882472642 96.35211491543225 0.0 339.3887741052379 0.0 0.0
1056.0765046212907 163.88125545827083 0.0 -14.823578599218363 0.0 0.0
231.7778345166772 7.287447518108323 0.0 -124.27364006874795 0.0 0.0
251.21915193119602 28.833834607418556 0.0 -97.14837893483082 0.0 0.0
203.53824650333036 36.42509106322301 0.0 -106.61191704077936 0.0 0.0
749.6044874013991 11.14814947248857 0.0 22.460363825859016 0.0 0.0
875.0019672265063 0.5811016282799528 0.0 39.95101641603521 0.0 0.0
1164.5037944376231 36.43428735713621 0.0 103.46368349053016 0.0 0.0
1097.5391835067576 88.16599939436026 0.0 97.76692165144645 0.0 0.0
576.050934385026 30.57552303123728 0.0 -0.5317862765444326 0.0 0.0
660.8790945833751 33.481146996503895 0.0 24.685508751695767 0.0 0.0
600.3071274183044 49.30871711270785 0.0 44.622761410720166 0.0 0.0
352.62441666541537 118.43932899189912 0.0 2.086978645794591 0.0 0.0
366.126071439548 127.83153653173764 0.0 31.183255267918913 0.0 0.0
930.6379691605531 204.47274483382796 0.0 -350.9930982569811 0.0 0.0
928.2320721073905 202.25889620477164 0.0 -351.939864374244 0.0 0.0
973.38787826541 73.78534032049774 0.0 -86.41185663621137 0.0 0.0
959.6762027638056 27.792287751654612 0.0 -85.03545334612119 0.0 0.0
1131.534400006871 -2.0052851127445592 0.0 0.5048342143895198 0.0 0.0
1112.5497412648865 -8.207827653439892 0.0 -22.914632173568148 0.0 0.0
1173.544885891715 -0.2964687604342089 0.0 -4.599566718065233 0.0 0.0
375.417521360381 8.509457075338332 0.0 216.11166578568682 0.0 0.0
930.404268995359 206.23540793968706 0.0 349.7596990004951 0.0 0.0
740.7947459645751 135.00168060293993 0.0 310.8940997106683 0.0 0.0
965.8439629867856 200.23046172884722 0.0 363.52752986423496 0.0 0.0
267.03351264857815 135.95696822040105 0.0 4.788505721982114 0.0 0.0
425.02266015380116 19.832989353394453 0.0 -209.23371407303003 0.0 0.0
417.9670700580862 -5.817921387482556 0.0 -193.96291185492115 0.0 0.0
424.05763964578136 21.388783777874266 0.0 -204.60405233107323 0.0 0.0
418.563191943547 2.383210046397096 0.0 -199.9328494239202 0.0 0.0
1138.86170941205 82.93028543472207 0.0 -109.38288539939792 0.0 0.0
1105.3169343877396 35.795833720192945 0.0 -87.82325472860636 0.0 0.0
1109.0003581010255 14.724500462436765 0.0 -113.72639948067946 0.0 0.0
136.40961322405417 -56.41084366960101 0.0 -46.24035290124843 0.0 0.0
94.5424854269233 -10.127035937614565 0.0 -104.61986103821266 0.0 0.0
269.30563301898627 -81.73189323891883 0.0 186.05343272886287 0.0 0.0
479.871371534911 -39.207162676515054 0.0 162.61430687223037 0.0 0.0
925.0573597186695 -15.366788081079449 0.0 14.755006095050186 0.0 0.0
949.5111580413269 -16.449552487116648 0.0 -7.241977370406606 0.0 0.0
895.0212106914755 49.58004813140744 0.0 -45.5593142664171 0.0 0.0
870.4084386232206 2.4836971614798813 0.0 -2.769801033719395 0.0 0.0
900.6686754640365 86.92901660721435 0.0 -18.391000916305856 0.0 0.0
806.0314838727518 52.867574060304634 0.0 6.302216060555878 0.0 0.0
287.2814278478713 141.78559811210215 0.0 -8.257676987628512 0.0 0.0
242.0953600508656 127.87762247959729 0.0 -11.272155734775708 0.0 0.0
265.2060895350521 138.20943947505623 0.0 2.3703764599815806 0.0 0.0
343.0427843760158 -41.77789629387945 0.0 165.24927927329927 0.0 0.0
1100.3678538956162 58.226148490388084 0.0 107.19732621315383 0.0 0.0
876.0513764019212 37.59213152743908 0.0 36.74996830239014 0.0 0.0
200.92430691208878 108.39522006218935 0.0 11.532203454321277 0.0 0.0
240.41822768363542 98.69172561441509 0.0 34.78232735280408 0.0 0.0
222.6559809276383 106.10634331121135 0.0 -21.80458208445289 0.0 0.0
1199.595022236435 50.097614496890515 0.0 -36.23815369638542 0.0 0.0
1174.5651950619867 14.322812139615337 0.0 -20.40389804905536 0.0 0.0
1135.7577649399232 43.86451281568907 0.0 -104.13269522821945 0.0 0.0
287.444144646389 -95.7926047924246 0.0 -202.00529743946558 0.0 0.0
453.29335215685705 -53.53158001655058 0.0 -153.3161274583227 0.0 0.0
367.21628615509854 -58.52714237312191 0.0 -184.32689229819462 0.0 0.0
1094.149603106482 -7.866994170840087 0.0 -24.85344689243908 0.0 0.0
1045.5001348862181 0.13697087868359858 0.0 -25.06849203622068 0.0 0.0
1048.5836977662098 -19.998845608159286 0.0 -56.43020682725464 0.0 0.0
832.8840230824486 -13.923024650989134 0.0 -17.74496029199946 0.0 0.0
784.8931807099965 0.19600514679547132 0.0 6.0341140132708935 0.0 0.0
570.5567656553068 7.482460357578191 0.0 75.10059132464178 0.0 0.0
626.2135331449059 26.778350598877296 0.0 66.06106538609224 0.0 0.0
500.48784486147696 18.093970711051412 0.0 55.75560670363137 0.0 0.0
296.7338616616683 -19.08327802718597 0.0 150.41600371300854 0.0 0.0
416.06275418884525 16.93278690148159 0.0 140.8967819016309 0.0 0.0
297.6969319598976 134.17630224400995 0.0 25.506219835314074 0.0 0.0
228.94072322211858 112.38235496070972 0.0 34.35695720206081 0.0 0.0
1309.6593384120495 99.3682010212354 0.0 5.591610333255993 0.0 0.0
1172.5712810817463 129.4789597357039 0.0 85.45226457886959 0.0 0.0
1153.4047964553188 76.97255474819377 0.0 72.28016128744443 0.0 0.0
327.5500953416386 -69.89479441541918 0.0 139.82708464698055 0.0 0.0
218.4373906077466 -29.122212032377405 0.0 157.53361982258772 0.0 0.0
349.68207384433623 6.235483686196417 0.0 125.73636179318673 0.0 0.0
692.4308483194562 9.471735518480358 0.0 39.852678337815284 0.0 0.0
610.1328956813231 20.57599131893022 0.0 22.440309850364557 0.0 0.0
627.6502755508155 -8.097756267928048 0.0 41.35054736909873 0.0 0.0
920.5578473311886 -5.6790003251200005 0.0 -178.20641376983556 0.0 0.0
727.370754714006 169.4211628487281 0.0 -332.2970074579612 0.0 0.0
916.3691464484233 -17.3289088580309 0.0 -176.12401858252227 0.0 0.0
1012.6121984921889 -14.672003456695734 0.0 -108.42537215937746 0.0 0.0
1049.215009610327 -3.198197276786914 0.0 -122.64286139934387 0.0 0.0
1004.4065041416889 20.7392526340484 0.0 -114.86263332843806 0.0 0.0
1012.889476576573 -19.428688351890514 0.0 -112.61560823194911 0.0 0.0
580.7817235248788 9.877103751263917 0.0 -84.4921062540855 0.0 0.0
514.5174125657585 -1.8281869135720115 0.0 -124.36361245660919 0.0 0.0
434.13699076605263 41.1786511515656 0.0 -87.64227451804352 0.0 0.0
555.9421872790047 2.7539616353775784 0.0 -84.9444244545212 0.0 0.0
989.8004420459557 119.73171270279268 0.0 31.33183359666522 0.0 0.0
1019.7286877025539 96.59716249195742 0.0 -42.255652002705126 0.0 0.0
926.8386036291408 -8.971987261159143 0.0 -174.1815610554528 0.0 0.0
723.7496451252946 167.26844226744254 0.0 -327.07556684098824 0.0 0.0
922.3124377966243 -15.466355534051559 0.0 -170.20892740035595 0.0 0.0
621.2465826391023 -0.017648023092277754 0.0 -33.02205074105782 0.0 0.0
793.7089947283597 -13.3420328961123 0.0 -24.63935789787597 0.0 0.0
946.3682719764947 5.812679005180655 0.0 187.56371744418917 0.0 0.0
720.0702544655942 176.64516436278356 0.0 319.55897485981365 0.0 0.0
925.7159619301104 -20.138331129540916 0.0 171.19775498200593 0.0 0.0
695.5125732600824 -31.56678346316494 0.0 216.56976220039266 0.0 0.0
396.84673253988416 20.32595244698578 0.0 189.29610601149963 0.0 0.0
456.57862749038804 -79.49574403424012 0.0 211.0864555174643 0.0 0.0
1038.8689232102556 -4.582423091966746 0.0 122.36465625781891 0.0 0.0
1003.5432766112576 -30.15449848380615 0.0 106.66015220916135 0.0 0.0
865.6795723617503 7.323855476113181 0.0 41.40574289660399 0.0 0.0
873.0360656724703 59.7513023434019 0.0 15.274351945609908 0.0 0.0
1451.6260697804985 241.13094878282098 0.0 -420.6621847718636 0.0 0.0
903.2974237367847 136.31397708295478 0.0 -325.0607799616208 0.0 0.0
136.7868078207444 -247.6257278262142 0.0 49.698176087211245 0.0 0.0
168.61573030035217 22.409036170138297 0.0 157.64463233470553 0.0 0.0
1476.1373946772208 255.43089335547032 0.0 -417.1555255715637 0.0 0.0
893.5219247654072 127.31641097698632 0.0 -322.3728262773646 0.0 0.0
1460.102458061882 241.52773294927155 0.0 418.7329214455746 0.0 0.0
900.967209814855 125.36579354866501 0.0 318.65528035804635 0.0 0.0
827.2431665055706 -15.013111751709744 0.0 -22.75603196278993 0.0 0.0
731.2028578043552 -22.143854768879862 0.0 -22.231588730842486 0.0 0.0
751.4239231515361 3.6657053108764615 0.0 -17.24192861405888 0.0 0.0
712.1322962161715 -3.987884240204437 0.0 -11.956067125600283 0.0 0.0
-1.5787428010178282 -71.9822261536331 0.0 10.083815565552133 0.0 0.0
119.66026379690304 -66.18183661862452 0.0 88.80341582673417 0.0 0.0
8.068804579030193 -99.31179032040494 0.0 88.3646782174912 0.0 0.0
53.055556514865174 -58.69119210602063 0.0 10.29369667828707 0.0 0.0
1107.5505128510574 -0.4247494981671025 0.0 11.299966237458504 0.0 0.0
1172.8656507826868 -1.676844987748325 0.0 5.55460573161954 0.0 0.0
677.762357425837 6.781745004979285 0.0 -11.174792111679736 0.0 0.0
764.2476380166667 10.145495000321148 0.0 17.971893144042614 0.0 0.0
129.39411543219435 44.10260465247331 0.0 28.03554405382113 0.0 0.0
161.52398434758624 66.61129403345356 0.0 44.66027412362369 0.0 0.0
771.2852611824234 -19.84650019042141 0.0 30.09864902970435 0.0 0.0
733.369864552997 1.6103335082318324 0.0 8.117441894730936 0.0 0.0
1085.2239204840284 -43.847919295441955 0.0 -84.18659163097149 0.0 0.0
1042.0509606297674 -80.53179921877825 0.0 -60.49479434431937 0.0 0.0
615.9511653439305 -94.28002905946694 0.0 -158.34557509067767 0.0 0.0
708.7738162096757 -63.73067212224433 0.0 -97.61983753654857 0.0 0.0
939.286436411603 100.46323005655206 0.0 58.13838206750702 0.0 0.0
934.752525689864 37.33859036550791 0.0 5.4646529798812 0.0 0.0
924.462644109242 50.018657939263335 0.0 58.53142305048676 0.0 0.0
947.4381252911029 81.18647934111777 0.0 5.083597398928814 0.0 0.0
537.6104263384832 -108.41819160470874 0.0 149.6145642905836 0.0 0.0
676.6609008467117 -79.4763450228707 0.0 223.69207332643717 0.0 0.0
1389.8591185375142 209.16210878484344 0.0 -37.25191095097047 0.0 0.0
1200.0310928573283 -1.0170642153069593 0.0 3.341013491682404 0.0 0.0
1148.0633506051183 -1.4298142512960794 0.0 -10.807994526317335 0.0 0.0
1037.0388728019705 19.37498912976025 0.0 -105.23283871455705 0.0 0.0
1024.7601968784707 40.22897468622085 0.0 -123.56225529212985 0.0 0.0
1042.5034593587047 -44.9590682188948 0.0 -96.80044421938881 0.0 0.0
1035.4981896231366 -42.02082060197915 0.0 -95.97196217148014 0.0 0.0
649.977336626732 -75.82688250524663 0.0 -115.38363198206218 0.0 0.0
611.3308256090081 -28.30875501444328 0.0 -100.61766239225979 0.0 0.0
1070.2495604330031 -22.58357777621677 0.0 -109.10138137579504 0.0 0.0
1062.650324231923 -19.673052528012477 0.0 -82.73404609354235 0.0 0.0
570.3853831716144 -26.47186608073679 0.0 -137.52228645123944 0.0 0.0
504.48519448933956 -45.513348361224615 0.0 -137.9613272524851 0.0 0.0
1099.3798195994511 -0.7257967698187713 0.0 7.470398451980084 0.0 0.0
1101.9765480490887 -15.51011116742228 0.0 26.651266306019036 0.0 0.0
1113.836589690037 -8.754879252332557 0.0 21.566728302951173 0.0 0.0
709.966090112634 14.997917251104013 0.0 2.611899143470977 0.0 0.0
640.4278339066121 11.351099582596532 0.0 -25.214169381277667 0.0 0.0
713.0003183061611 22.18926238742071 0.0 -24.983865806795972 0.0 0.0
212.69205692360768 98.64042518121512 0.0 -40.759360872502874 0.0 0.0
282.4526401360177 119.1228594931247 0.0 -36.41807011858335 0.0 0.0
777.4320520312318 1.4807262416542528 0.0 18.248059487048454 0.0 0.0
787.3361349017711 34.09981296566278 0.0 21.01857381652663 0.0 0.0
839.4840081777714 3.4541995089527404 0.0 -9.467196432202918 0.0 0.0
1025.9977761121038 23.63403995285165 0.0 -120.08839698959987 0.0 0.0
977.8548671227078 18.03298714348847 0.0 -105.51706098691706 0.0 0.0
1020.2409993193993 5.113912095638341 0.0 -118.66946176083422 0.0 0.0
1140.6280069968152 0.49048472289888423 0.0 -0.9190642549751388 0.0 0.0
1136.1579308772712 -6.660088405885688 0.0 -8.332029878090704 0.0 0.0
1120.62038094439 0.8098932993424341 0.0 9.57668203441391 0.0 0.0
959.351055704641 132.62669432186465 0.0 16.13202608775005 0.0 0.0
982.1748744200637 58.74386103412098 0.0 28.20860381436434 0.0 0.0
924.9893603263613 19.976765074155765 0.0 23.15702464934618 0.0 0.0
1202.7498331868176 184.5505871563981 0.0 8.923224595729257 0.0 0.0
1259.3090963895063 154.05823379709298 0.0 38.411934103211564 0.0 0.0
1139.8664994871488 182.10224229025152 0.0 83.51531744715565 0.0 0.0
1040.191351027153 134.1809137014866 0.0 -77.55443444692739 0.0 0.0
1016.3688908076193 55.9716452965564 0.0 -85.25890177656763 0.0 0.0
138.1814872731328 23.291650120360128 0.0 28.532714729811044 0.0 0.0
223.19603110047942 -39.27149197238134 0.0 109.74037734468645 0.0 0.0
142.46814441000674 13.434363022033764 0.0 109.53897841074262 0.0 0.0
787.3151642323218 -66.54657732879434 0.0 196.7744736600806 0.0 0.0
451.0632089698981 3.185644893209542 0.0 205.10689451969202 0.0 0.0
454.5702285623015 37.057959790736945 0.0 187.26279441432266 0.0 0.0
739.368043860095 -48.349456267257665 0.0 -52.900121757724456 0.0 0.0
719.5993400861229 -7.619954808349576 0.0 -43.14823747366066 0.0 0.0
732.6072429418444 -4.072096197938123 0.0 -45.87630217112464 0.0 0.0
514.3908097845429 1.4139910785027894 0.0 -65.9656764009579 0.0 0.0
627.1215370097595 -28.27589098485663 0.0 -82.56504092651623 0.0 0.0
616.8589064629947 12.898112052768738 0.0 -69.76370867859838 0.0 0.0
-12.296138409358543 -83.04674348030518 0.0 13.912246935661225 0.0 0.0
85.2013960122593 -27.368254483854532 0.0 56.86004214932665 0.0 0.0
100.25979200789054 -58.907325813925205 0.0 84.8240802427665 0.0 0.0
84.80185802575883 -186.7299579827948 0.0 94.9770628249717 0.0 0.0
693.2984317370489 19.075536891333257 0.0 17.70593233582481 0.0 0.0
808.6159729423349 -7.400283738384417 0.0 19.803904188978358 0.0 0.0
829.2149045132361 39.28462371942712 0.0 52.55101116585934 0.0 0.0
1758.752362583468 229.31001910713394 0.0 -50.94453639185647 0.0 0.0
1462.7939158865438 256.43235123234433 0.0 48.687468063771114 0.0 0.0
1256.7055601877018 240.81935823033436 0.0 45.070564626407666 0.0 0.0
295.08900486983026 140.01461755195567 0.0 1.6124921301618702 0.0 0.0
324.76197320451763 130.6740105251179 0.0 14.42817893554836 0.0 0.0
302.8228627969069 123.3332828051884 0.0 19.12316410952074 0.0 0.0
235.8385416246202 97.96509220442321 0.0 -26.964613910087547 0.0 0.0
190.90500616866223 99.78345897033505 0.0 16.850130837953195 0.0 0.0
257.24715068850077 123.3272054606809 0.0 5.27293828141965 0.0 0.0
481.17281438957815 -97.11790012965567 0.0 210.60306592917922 0.0 0.0
188.3236641478102 -53.53958594274437 0.0 124.7378189412603 0.0 0.0
1459.9715008021496 201.01341857848797 0.0 -63.744074294866856 0.0 0.0
1450.3594304209084 212.8177136822068 0.0 -9.702654118558252 0.0 0.0
1673.991636972259 191.14167089415773 0.0 -28.34191567890353 0.0 0.0
369.09386178181194 89.71091687397193 0.0 -69.00967656750369 0.0 0.0
274.0215572208635 107.92808036538463 0.0 -43.018567539784435 0.0 0.0
320.34390089262627 78.06014815101415 0.0 -75.20231094321579 0.0 0.0
321.7989881477155 119.1102808994143 0.0 -36.9637527532696 0.0 0.0
662.2845808050891 -104.74378411945436 0.0 153.80842009922617 0.0 0.0
660.4919615926726 -108.13151068908117 0.0 157.80636028848807 0.0 0.0
660.1039405097357 -106.05585199529838 0.0 155.23675243722 0.0 0.0
662.5106580719773 -106.95253612812974 0.0 156.4138744468659 0.0 0.0
1287.4657873034141 193.91758396507467 0.0 56.01143492927213 0.0 0.0
1455.2812233402294 233.61105888226686 0.0 -10.935796347689694 0.0 0.0
174.85362555652512 -205.58369951068798 0.0 30.785212171588842 0.0 0.0
1173.8985196812198 -2.2115967819235607 0.0 1.5660962797481337 0.0 0.0
1118.9979777730937 0.16014956064981334 0.0 8.054713037553274 0.0 0.0
935.4579624589359 29.665324855428878 0.0 -34.17225385510232 0.0 0.0
962.3691938714034 116.97867110724549 0.0 -40.508951373103166 0.0 0.0
774.2661503186931 -9.109128613105781 0.0 -8.179053641998518 0.0 0.0
829.368843948732 -8.908541066349187 0.0 16.697452979917944 0.0 0.0
838.1845207451748 -10.001161930334831 0.0 0.5195398280971276 0.0 0.0
744.4366654362852 6.492987897770632 0.0 21.137485370047106 0.0 0.0
1209.381151599766 188.30303705586252 0.0 -71.26060971121738 0.0 0.0
1200.4969854236604 209.82739635119344 0.0 8.557949204496001 0.0 0.0
1327.866066021313 196.7694141945137 0.0 4.154305076500424 0.0 0.0
1318.775807475763 235.31394213121538 0.0 -45.206392857386504 0.0 0.0
164.18599903168428 68.65946263147517 0.0 -31.83577458017466 0.0 0.0
181.63554537167545 53.96179874843502 0.0 -27.263975564942925 0.0 0.0
102.96575909198418 1.6961845433428877 0.0 49.00015396901332 0.0 0.0
62.58216237676853 15.675484491521786 0.0 -40.57449175741505 0.0 0.0
230.3341697499283 90.87432691092738 0.0 -56.76588864412785 0.0 0.0
193.5259290070062 96.8685860520154 0.0 -15.644355758009675 0.0 0.0
265.8687173649344 131.10152825137456 0.0 -21.560757517108396 0.0 0.0
242.96849697264898 123.08261418116847 0.0 1.6707173695763589 0.0 0.0
271.68883850940756 131.30883712787534 0.0 3.5894567578523167 0.0 0.0
239.80511430023557 123.41162566902888 0.0 -23.930153299346774 0.0 0.0
234.89294240433503 -193.29356175195858 0.0 120.24279040394299 0.0 0.0
38.51775964507141 -148.4573617819082 0.0 50.3756921596628 0.0 0.0
232.72929765975445 -116.93436712398405 0.0 177.35165893877002 0.0 0.0
1203.9921428914076 2.5064662063408036 0.0 -4.447697720190038 0.0 0.0
1138.2012732222354 -0.7311036988892283 0.0 12.854595645091118 0.0 0.0
1126.1614682375016 -12.562257522554262 0.0 12.254834422505722 0.0 0.0
1133.141707743146 -2.3773422483656645 0.0 3.0740108454827104 0.0 0.0
1007.9177776383535 -10.03789667980459 0.0 10.296643560412976 0.0 0.0
1054.5652091631732 -6.222773788346103 0.0 -9.794139463716085 0.0 0.0
975.2253086753794 -10.88875627117352 0.0 -9.729838527885603 0.0 0.0
1160.4914930554576 -2.8498320409062785 0.0 -11.986456009247979 0.0 0.0
1154.8262638001956 -2.451356591466663 0.0 11.815012970822856 0.0 0.0
1202.7684356496973 -8.87296877033765 0.0 1.7329654390709301 0.0 0.0
1123.0695510726334 10.360599339214502 0.0 -4.587557579274863 0.0 0.0
1074.5253466284141 -4.895058244512825 0.0 12.68291243221852 0.0 0.0
1118.531097185737 2.8996580656191213 0.0 -9.53338883473538 0.0 0.0
1001.6939559989172 -18.10794785573188 0.0 14.726622816265339 0.0 0.0
1007.7816603292546 -2.73502478925667 0.0 10.271397502459365 0.0 0.0
463.859166161729 74.86963549911337 0.0 63.42147961783777 0.0 0.0
408.568986017226 53.97074321571293 0.0 76.63597799911356 0.0 0.0
SCALARS Strain float 6
LOOKUP_TABLE default
0.0101467501806888 -0.003340752462864593 0.0 0.0025946030214534016 0.0 0.0
0.011830814607244763 -0.0035730839823088834 0.0 -0.0003273252274731825 0.0 0.0
0.010426560726905232 -0.0032328591233196004 0.0 -0.00014553147152559972 0.0 0.0
0.009830810343796223 -0.003047639216348755 0.0 0.00020164932127671284 0.0 0.0
0.010261978230708388 -0.0031523577334903533 0.0 -0.0029382264827921504 0.0 0.0
0.005704030187852038 -0.0018073625641834637 0.0 0.001999499767396752 0.0 0.0
0.010258716022516962 -0.0032105912400567475 0.0 0.002858133929907516 0.0 0.0
0.011871644656751367 -0.00356771696642008 0.0 0.00031562907911822456 0.0 0.0
0.011189385413960917 -0.003387763602264582 0.0 -5.696194346448613e-05 0.0 0.0
0.009517855506724932 -0.0029825499195841724 0.0 0.00025344779817331 0.0 0.0
0.010200208696120289 -0.003133353520846706 0.0 0.00020304302684499384 0.0 0.0
0.009758298871383173 -0.0030467861937256927 0.0 -0.0001649534904262593 0.0 0.0
0.011359481170973074 -0.003499515787578097 0.0 -0.00015360283973224237 0.0 0.0
0.010653281653687008 -0.00323341498248078 0.0 -0.0003718517235409063 0.0 0.0
0.01101055306011997 -0.003373003810023039 0.0 0.0006781321932648105 0.0 0.0
0.010669763352629882 -0.0033430269933004773 0.0 -0.0030853517473486275 0.0 0.0
0.005806662023352505 -0.0016372300675671601 0.0 0.0027813107429384837 0.0 0.0
0.010456304866916446 -0.0033274937245038622 0.0 0.00278917732380044 0.0 0.0
0.010222868892134238 -0.003153308953361148 0.0 2.3902964841943444e-05 0.0 0.0
0.009714537202101498 -0.0030492748713776287 0.0 -0.0003470924314082234 0.0 0.0
0.011615339065581593 -0.0035160205337613237 0.0 0.00038034834474406443 0.0 0.0
0.009321183006624295 -0.0028559180482199895 0.0 -0.00028028292305944027 0.0 0.0
0.006037071954515541 -0.0015063934315720957 0.0 8.81542323509267e-05 0.0 0.0
0.005975866209218472 -0.0014710652550657072 0.0 4.177741200773149e-06 0.0 0.0
0.009760815002043226 -0.0029095915627626277 0.0 -0.0009077727038441681 0.0 0.0
0.009769363337574355 -0.0029408363802933407 0.0 0.0008636357621202486 0.0 0.0
0.00978824321826683 -0.0029219337664108808 0.0 0.0009006623981395873 0.0 0.0
0.005924727679601005 -0.001449140043146592 0.0 -5.1944751255247196e-05 0.0 0.0
0.010426560726905232 -0.0031152274101783634 0.0 -0.00012765864697489825 0.0 0.0
0.01118737356189422 -0.0034068989795830013 0.0 1.4107298623577437e-05 0.0 0.0
0.010818814064637222 -0.0032842815484940818 0.0 -0.0002856510207134102 0.0 0.0
0.007152389904072229 -0.0026040556977935396 0.0 -0.002709197347074102 0.0 0.0
0.009941548046590185 -0.003247117820208324 0.0 -0.0010323186139611631 0.0 0.0
0.007507617063736954 -0.0035644897491884393 0.0 -0.003970198693099728 0.0 0.0
0.007526017214219624 -0.0036032410169320184 0.0 -0.004024772822593059 0.0 0.0
0.010470896715122129 -0.0038764891000100214 0.0 -0.0004697035805715233 0.0 0.0
0.009932360299780799 -0.003953205860051582 0.0 -0.001170287657969303 0.0 0.0
0.009971014093308042 -0.003953654527252411 0.0 -0.001156062609566048 0.0 0.0
0.00983786735554516 -0.004024655077394539 0.0 0.0014709407186487868 0.0 0.0
0.008762976394789318 -0.003506036428821967 0.0 -0.0027898602765795907 0.0 0.0
0.01029325333680246 -0.0040846642672746 0.0 0.0016508313579026955 0.0 0.0
0.008814881681121309 -0.0035400811203908145 0.0 -0.0028298997347626967 0.0 0.0
0.010426841872813215 -0.0034982467293473984 0.0 -0.0011758224975980652 0.0 0.0
0.009736818687234132 -0.003979513264834641 0.0 0.0015914985895904782 0.0 0.0
0.009828617789592082 -0.0033231886592893743 0.0 -0.0004509453424841022 0.0 0.0
0.0104698343837826 -0.0041092670810407815 0.0 0.0018972934809688797 0.0 0.0
0.006087627800234918 -0.0027322110974496334 0.0 -0.0040194778060275715 0.0 0.0
0.006837841329900944 -0.002717357405774057 0.0 -0.003149296307712069 0.0 0.0
0.01094235657092086 -0.004033938369369213 0.0 -0.0005209117186495416 0.0 0.0
0.007000088493407469 -0.0027751787103206978 0.0 -0.003467023797876013 0.0 0.0
0.010587194840505063 -0.003437831815886075 0.0 -0.0012308387739055388 0.0 0.0
0.009987463230132186 -0.0035532503466453613 0.0 -0.0007780173131190908 0.0 0.0
0.009607062799929046 -0.003508710550744284 0.0 -0.0004762306222379142 0.0 0.0
0.009157199133586494 -0.00303753411879411 0.0 -5.330442931656722e-05 0.0 0.0
0.008875054903098936 -0.0032878505688501616 0.0 0.000466283563756803 0.0 0.0
0.010125645745663082 -0.0038941263903971503 0.0 0.00015208492676760908 0.0 0.0
0.00911603792805224 -0.002954461559288012 0.0 0.00017963003583897075 0.0 0.0
0.007149410234170636 -0.0033450834910824256 0.0 0.0040383281081024305 0.0 0.0
0.010126458427398972 -0.0038926250581842754 0.0 -7.987740132607384e-05 0.0 0.0
0.010070528204862813 -0.0032750107062684375 0.0 0.0007438305800375284 0.0 0.0
0.010299201559941788 -0.0036015047222446033 0.0 -0.0013673279822103103 0.0 0.0
0.009307105521385355 -0.0036934341264118265 0.0 -0.0003213566067969279 0.0 0.0
0.007627279060492188 -0.0026952998369678856 0.0 -0.0014298440599804282 0.0 0.0
0.008276368128471906 -0.002678714416740399 0.0 -0.00031619776939890466 0.0 0.0
0.010154164217098582 -0.003925953587133747 0.0 -0.00025135804636122923 0.0 0.0
0.010402253310470021 -0.003491848875250822 0.0 -0.0014944772056050219 0.0 0.0
0.009046323099287837 -0.003539859574909005 0.0 0.0005782587969861558 0.0 0.0
0.008551958589856579 -0.002977447905139935 0.0 0.0004665834237193769 0.0 0.0
0.009363212254525272 -0.003735185205194126 0.0 -0.00032412697246197303 0.0 0.0
0.009802599140026513 -0.00363249169272813 0.0 0.0007811551301964356 0.0 0.0
0.010080875334326164 -0.0034160238196436223 0.0 0.0011567325760635369 0.0 0.0
0.009452271625444486 -0.0034304952262083944 0.0 -0.00035467195247353145 0.0 0.0
0.010036948277328844 -0.0033843995459558462 0.0 0.0008976866495214952 0.0 0.0
0.010098578500407476 -0.003530348964702988 0.0 0.00116126033068695 0.0 0.0
0.009137526455649553 -0.0034474654340528772 0.0 -0.000272481223705229 0.0 0.0
0.01024669822763695 -0.003605135248870496 0.0 -0.001876034680770404 0.0 0.0
0.010084797096955145 -0.003766518097221002 0.0 -0.0008455007290355705 0.0 0.0
0.01008534848235787 -0.0031991629317433684 0.0 -0.000884719104009668 0.0 0.0
0.007508967513754378 -0.00291596556346169 0.0 -0.001983390549057034 0.0 0.0
0.009222372462490719 -0.0032949606271809734 0.0 -0.00033829330973318347 0.0 0.0
0.00898700588799524 -0.0029980739268761665 0.0 -8.452904441245013e-05 0.0 0.0
0.009110835916692914 -0.0032126828138792384 0.0 -0.00027226640831386727 0.0 0.0
0.009163638527906456 -0.003251476613851584 0.0 0.00028488292895563483 0.0 0.0
0.008914110823237786 -0.002992292864288884 0.0 0.00012513926558770788 0.0 0.0
0.007370962756045325 -0.0028874580307841798 0.0 -0.00217400739778413 0.0 0.0
0.009158523796669961 -0.0032879003865206296 0.0 -0.0003886162210375516 0.0 0.0
0.01028320510136388 -0.00375139159831768 0.0 -0.0014475167054184002 0.0 0.0
0.009992274016116034 -0.003952459803057435 0.0 0.00015928199797419357 0.0 0.0
0.010213139956881154 -0.003706215540937969 0.0 -0.001269585428205794 0.0 0.0
0.009494389940843236 -0.0030127509231874343 0.0 0.00022006638927480346 0.0 0.0
0.01026971689474649 -0.00339976084311637 0.0 -0.0019004523259588662 0.0 0.0
0.010135589952296513 -0.0036925990295861837 0.0 -0.0013919630939782518 0.0 0.0
0.007599574335753638 -0.003278556033699191 0.0 -0.002843829884341089 0.0 0.0
0.009495466060845448 -0.003598565047422661 0.0 -0.0006699542039083229 0.0 0.0
0.00979751681767066 -0.003507571988179598 0.0 -0.00048063365469553504 0.0 0.0
0.009774419149363792 -0.003278250471057037 0.0 -0.0008241354433266221 0.0 0.0
0.005523578366616433 -0.002810561183604763 0.0 -0.005297647901993369 0.0 0.0
0.011143040640924681 -0.0035873960928187593 0.0 -0.0012315711161750911 0.0 0.0
0.0035209580102536706 -0.001756025210453132 0.0 -0.0052694446047099166 0.0 0.0
0.006286387447981663 -0.0028659673225670534 0.0 -0.004729026647690874 0.0 0.0
0.0073225884405508194 -0.003216053707029801 0.0 -0.0030014594090938124 0.0 0.0
0.009465202173796983 -0.0036121562885071765 0.0 -0.0007096465559477466 0.0 0.0
0.010127975255533377 -0.0035068530330809172 0.0 0.0012917113549752411 0.0 0.0
0.01016641536520832 -0.003370688173563001 0.0 0.0008717092108104577 0.0 0.0
0.009396157286936088 -0.003169331003957075 0.0 -0.0001811638499667409 0.0 0.0
0.009696159193317067 -0.003357137707295236 0.0 0.0005698568291535311 0.0 0.0
0.009208535055733325 -0.0032986475238092686 0.0 -0.00019285525225774813 0.0 0.0
0.010287457533649652 -0.0031903983224755555 0.0 -0.000810543290600188 0.0 0.0
0.008118800374152274 -0.0027103782577981295 0.0 0.0005228333888655234 0.0 0.0
0.008721103518418621 -0.0027621486330941733 0.0 0.00020941093445865644 0.0 0.0
0.010372326583940612 -0.0033727732998135515 0.0 0.0013784103597072744 0.0 0.0
0.010409848539680133 -0.0033099046111673136 0.0 0.0014768940166866099 0.0 0.0
0.008978079050116269 -0.0033497386836378335 0.0 0.000954972958371983 0.0 0.0
0.0036500045131927783 -0.00020607415471068143 0.0 0.0012113374054460273 0.0 0.0
0.009149731161632303 -0.002554605672450014 0.0 0.002236736248159541 0.0 0.0
0.010190331054964622 -0.0028195862857154155 0.0 0.002931476583384355 0.0 0.0
0.009188691851100578 -0.0024539170271998846 0.0 0.002520268724522383 0.0 0.0
0.010277056824010838 -0.0037206547274287113 0.0 0.001411424126761011 0.0 0.0
0.00965874285032052 -0.0030555991488203336 0.0 0.00047471769911537794 0.0 0.0
0.009782055985178714 -0.0032973532004686086 0.0 0.00021200484877755173 0.0 0.0
0.009125169155790772 -0.002857780918579836 0.0 0.0001551948350305421 0.0 0.0
0.009045756964855836 -0.0029009671332831805 0.0 4.7381278691945375e-05 0.0 0.0
0.010346450896815157 -0.0032753769821163153 0.0 0.0012079393118068112 0.0 0.0
0.01021547231835436 -0.0032235663086336067 0.0 -0.001927727492914132 0.0 0.0
0.009697726078440404 -0.002948279819310895 0.0 -0.002113784472678873 0.0 0.0
0.005210544361806374 -0.0010982207799283901 0.0 -0.0013733510001377354 0.0 0.0
0.005703891412333642 -0.0013558471273192423 0.0 -0.0006528428603615587 0.0 0.0
0.010154531024182109 -0.003969138651967374 0.0 1.2699470037904129e-05 0.0 0.0
0.009487923882046508 -0.0038395049541389338 0.0 0.0005253561504836302 0.0 0.0
0.00600300239189807 -0.0017123607649892209 0.0 -0.0011671127716434606 0.0 0.0
0.008753223525765049 -0.003270285726620442 0.0 0.0012501492120546853 0.0 0.0
0.010549497505605396 -0.0033554134346112387 0.0 0.0012678432968827834 0.0 0.0
0.009090875299827592 -0.0026284282979178383 0.0 -0.0021039294656181665 0.0 0.0
0.004319444293966468 -0.0007200868916463592 0.0 -0.0009119913033455961 0.0 0.0
0.010302057812966614 -0.0037025609510235296 0.0 0.001503338595813931 0.0 0.0
0.010262382670787898 -0.00393101901825818 0.0 0.0003049902545744082 0.0 0.0
0.009590734120743637 -0.0038582153905932517 0.0 -0.0003414520063749829 0.0 0.0
0.008590086981107078 -0.002871761045450281 0.0 0.0006905016312769899 0.0 0.0
0.009312632102990825 -0.003586287238601299 0.0 0.001111549000741439 0.0 0.0
0.008364357264527403 -0.003613584293769933 0.0 0.0021136523358640438 0.0 0.0
0.003364890415839039 -0.0008292400959016575 0.0 -0.0031632511794848564 0.0 0.0
0.010307193483429733 -0.003935321221295128 0.0 0.00037908325318812726 0.0 0.0
0.00963981021964487 -0.003914904323689183 0.0 -0.00036380090881558275 0.0 0.0
0.008363841214590021 -0.002632222076412963 0.0 0.000449264782851374 0.0 0.0
0.010313402765724504 -0.003549640117887412 0.0 0.0018399810926717688 0.0 0.0
0.009604412970837563 -0.0030112430409769387 0.0 -0.002234424986206818 0.0 0.0
0.00938596674393679 -0.002714376538447969 0.0 -0.0021071909499842563 0.0 0.0
0.00922841020364298 -0.0035897779403162855 0.0 0.0013526863245006335 0.0 0.0
0.008218526892772415 -0.0036407519264705993 0.0 0.0023483916435978053 0.0 0.0
0.010449763669037196 -0.003271525687610608 0.0 0.0015231262615882802 0.0 0.0
0.010294620288817793 -0.0033224416265683096 0.0 0.0018166881265014665 0.0 0.0
0.010308190119690017 -0.0034199230064962116 0.0 -0.002575423256247499 0.0 0.0
0.0083488168166423 -0.0028252015558735827 0.0 0.0009188577046679827 0.0 0.0
0.007291483067251643 -0.002284175806994238 0.0 -0.0010318212573483688 0.0 0.0
0.006809927975429009 -0.0022016998861057163 0.0 -0.0019155776403088007 0.0 0.0
0.010466304613101302 -0.003382286770001356 0.0 -0.0006445166690261447 0.0 0.0
0.009420501249620003 -0.003058694783614327 0.0 -8.891992775323515e-05 0.0 0.0
0.010319249654553601 -0.0035444274453580566 0.0 0.0019446438859400117 0.0 0.0
0.00509655776678572 -0.0008594203903429538 0.0 -0.0015526692258712761 0.0 0.0
0.005154841649604863 -0.0012294174405845758 0.0 -0.0008653633171634388 0.0 0.0
0.00425098980048029 -0.0007079111898620032 0.0 -0.0008611688371793387 0.0 0.0
0.023350707039328525 -0.005016480628778252 0.0 0.0036499555055141057 0.0 0.0
0.02358275977860534 -0.004990604827638995 0.0 0.00525978136010487 0.0 0.0
0.013871493660163594 -0.0019354385707636146 0.0 0.0018745193882184763 0.0 0.0
0.0019591146011253002 -0.006170756500811686 0.0 0.0012771312967939236 0.0 0.0
3.116641351808003e-05 -0.0008861861336920095 0.0 -0.0012462964336591408 0.0 0.0
0.001925270857785627 -0.00623601674022681 0.0 0.0012501265349284495 0.0 0.0
4.1528065429438654e-05 -0.0009522931994954761 0.0 -0.0008811083082707512 0.0 0.0
0.0017755030107283187 -0.0060089782528211025 0.0 -0.0005203792191222894 0.0 0.0
0.0018112526964466635 -0.005772417521855045 0.0 -0.0007243125460246139 0.0 0.0
0.023867931479003044 -0.005274961560509925 0.0 -0.00524393807183771 0.0 0.0
0.013679969472369831 -0.0018361224080681027 0.0 -0.0012757809286393171 0.0 0.0
0.024203780586005613 -0.005359107722642559 0.0 -0.004580196017607573 0.0 0.0
0.010342002718826813 -0.003288145756684402 0.0 0.0015175759143160744 0.0 0.0
0.007952019123609474 -0.0023674208203999184 0.0 0.00032768386610582817 0.0 0.0
0.009351232587327469 -0.0028928643072822294 0.0 -0.00012904384376538364 0.0 0.0
0.009708032281342344 -0.0031551297868317174 0.0 -0.00020440625158453865 0.0 0.0
0.0027345099829637134 -0.001162336713190857 0.0 -0.003478500907065682 0.0 0.0
0.011032886739909119 -0.003411005343857085 0.0 0.0005355615154310133 0.0 0.0
0.010341919088145246 -0.0031992792738865187 0.0 0.0012892888918833237 0.0 0.0
0.01028502007748017 -0.003714610197610364 0.0 -0.001795093970659081 0.0 0.0
0.009980622093183802 -0.003281053124495111 0.0 -0.0004755032740581741 0.0 0.0
0.00942050261202617 -0.003044065851621862 0.0 -0.0002094483877522332 0.0 0.0
0.010135053312633147 -0.0031107966301934568 0.0 -0.00038772795170690516 0.0 0.0
0.01049028240091316 -0.003274551777996496 0.0 6.95736231687439e-05 0.0 0.0
0.009670714582580876 -0.0030186519314363974 0.0 2.51049697524079e-05 0.0 0.0
0.010119985092956398 -0.0032279146649752954 0.0 0.0008898235922009078 0.0 0.0
0.0103366740588937 -0.0032988907194264907 0.0 0.00045709116484186213 0.0 0.0
0.006009242766872928 -0.0020782202698484166 0.0 -0.003531903660377394 0.0 0.0
0.01013658102086372 -0.0032127674472842635 0.0 0.002412741254427614 0.0 0.0
0.01022482595183466 -0.0031638153200072225 0.0 0.0017853921778715727 0.0 0.0
0.010286735240053524 -0.0033464276798248704 0.0 -0.0005711501081651343 0.0 0.0
0.009708864982700589 -0.0030783205215437846 0.0 -0.0002536024886505791 0.0 0.0
0.010198624756548494 -0.0031272423307210917 0.0 0.0017864518502185706 0.0 0.0
0.006180969642287454 -0.001730407768300751 0.0 0.0006757927519497123 0.0 0.0
0.0069033068619641785 -0.002676935538156658 0.0 0.002370007261470509 0.0 0.0
0.009924349596455662 -0.0030701783133753446 0.0 -0.0028049591966983357 0.0 0.0
0.007140428021433887 -0.002275770721833867 0.0 0.0006371783013334846 0.0 0.0
0.00810956292957784 -0.0025391012653031182 0.0 0.0006864982500117571 0.0 0.0
0.010275750922636485 -0.0036652056730058203 0.0 0.0018866123479502547 0.0 0.0
0.010004263317940139 -0.003167897190754474 0.0 0.002878248279013812 0.0 0.0
0.010381266701427652 -0.0032253085580139992 0.0 0.0016216638097755857 0.0 0.0
0.010268023597036033 -0.003345510441180869 0.0 0.0019212788611761387 0.0 0.0
0.005672416430782902 -0.0014501449233187934 0.0 0.0019263187856188484 0.0 0.0
0.006511241717790522 -0.002217085915834324 0.0 -0.0020593351153346123 0.0 0.0
0.006362607444461127 -0.002138136861791321 0.0 -0.0027934571530294355 0.0 0.0
0.007505797167635039 -0.002647895914512609 0.0 -0.002044502355613922 0.0 0.0
0.010301050797636407 -0.0034671614053830013 0.0 -0.0025386943807003647 0.0 0.0
0.010525057577628762 -0.0034155970862159296 0.0 -0.002872628054209042 0.0 0.0
0.010547720752880532 -0.0037367139614783995 0.0 -0.0023214198968770985 0.0 0.0
0.01040101829332643 -0.0032102529950867003 0.0 0.0007323948321025339 0.0 0.0
0.009921201198349869 -0.003047849292651438 0.0 0.0018940775528457077 0.0 0.0
0.009989206543901653 -0.0031395464436507203 0.0 0.002512860344849606 0.0 0.0
0.017177013218558298 -0.004560265800741703 0.0 0.0006630029358938947 0.0 0.0
0.017874029929505382 -0.004281298401242389 0.0 -0.0002543186362992597 0.0 0.0
0.017871696293569706 -0.00368355631713721 0.0 9.199409081518672e-05 0.0 0.0
0.0005266170175034918 -0.0029871335215522765 0.0 -0.0009672805875930376 0.0 0.0
0.0012647626575799167 -0.0028193956788506863 0.0 0.00020212251446875829 0.0 0.0
0.00041923560827904216 -0.0028752809341705387 0.0 -0.0009078988911502064 0.0 0.0
0.0011616592781632587 -0.002668758685711991 0.0 0.00028012267410087305 0.0 0.0
0.009947086337320651 -0.0029369231533324866 0.0 -0.00265329502639124 0.0 0.0
0.009328582877749894 -0.002786663434531038 0.0 -0.0024095858423066625 0.0 0.0
0.005405133444560232 -0.0013964810084002507 0.0 0.0019905963605990245 0.0 0.0
0.004737717627162186 -0.0009533051207706689 0.0 0.0012854925373610212 0.0 0.0
0.009575683103293212 -0.0028984751203959686 0.0 0.002636155676883384 0.0 0.0
0.010383760400059817 -0.0032849228309197905 0.0 -0.0015268811567111075 0.0 0.0
0.009978850605139193 -0.003166491843939531 0.0 0.0006660711956491842 0.0 0.0
0.010230938788061278 -0.0032991213954564834 0.0 0.00031890259531218825 0.0 0.0
0.005606727991731494 -0.0015254706351922921 0.0 0.0012164212520625137 0.0 0.0
0.006048717234427431 -0.001544815769651403 0.0 0.0012028299370997302 0.0 0.0
0.009913295838204848 -0.0030497601531748186 0.0 0.001908859180097082 0.0 0.0
0.004223336881759396 -0.0008533905503804945 0.0 -0.0018216350305465985 0.0 0.0
0.005778994691047784 -0.001735963668000393 0.0 -0.0027754639587032164 0.0 0.0
0.010395146972567045 -0.003328101858854751 0.0 0.002711773376392647 0.0 0.0
0.009819641947240328 -0.003162489344517834 0.0 -0.0005190528905432801 0.0 0.0
0.010280029373027036 -0.003469501379057965 0.0 -0.0009252532664170412 0.0 0.0
0.010450183826883454 -0.003449883934583156 0.0 -0.001634699401839787 0.0 0.0
0.010298042733742595 -0.003224074006363405 0.0 -0.0014099735366671605 0.0 0.0
0.008607879550925693 -0.0037036176521462166 0.0 -0.0019594827622604425 0.0 0.0
0.00861893633251467 -0.003391279807740708 0.0 -0.002116579128803164 0.0 0.0
0.009471777909249468 -0.0037839653513668872 0.0 0.0002866970788459062 0.0 0.0
0.010461509321930205 -0.0041192173056273235 0.0 -4.187551409854523e-05 0.0 0.0
0.0086233729192699 -0.0037350842022113354 0.0 -0.0019951608149781364 0.0 0.0
0.008585524531235171 -0.003387759221449054 0.0 -0.00206084193526819 0.0 0.0
0.009378458888461741 -0.00331498885925186 0.0 3.989653265740623e-05 0.0 0.0
0.009324336958764223 -0.003192900080612937 0.0 -0.00025287059868400047 0.0 0.0
0.010505421078361785 -0.0040579292420701695 0.0 -0.0015509945766529042 0.0 0.0
0.008786296045867531 -0.004003124581870725 0.0 -0.0025766563309364667 0.0 0.0
0.010492710942345685 -0.004066869001425583 0.0 -0.0015401825938042516 0.0 0.0
0.008782484496268311 -0.004018323884112128 0.0 -0.0026402711888672825 0.0 0.0
0.008797986308464872 -0.00390087956528036 0.0 0.003770771468282537 0.0 0.0
0.008932937850764974 -0.0037535028005107416 0.0 0.001979179069649513 0.0 0.0
0.009075620362141018 -0.003062685049319426 0.0 -2.936753113107378e-05 0.0 0.0
0.008575192024405744 -0.0029833550169550277 0.0 -0.0006599562534278687 0.0 0.0
0.010195088749003177 -0.0036024214075110403 0.0 -0.001224368276150467 0.0 0.0
0.010187372742752401 -0.003250687061147707 0.0 -0.0013791349711998468 0.0 0.0
0.010509579200685348 -0.0037274493515089013 0.0 0.0017506813724426674 0.0 0.0
0.010704550995707482 -0.004092051220424248 0.0 0.00017302346960992778 0.0 0.0
0.010510433896396165 -0.00375891310849002 0.0 -0.0016504333579247157 0.0 0.0
0.010630925047057212 -0.004121575523055612 0.0 4.269830877938474e-05 0.0 0.0
0.008931216683986137 -0.0036523520397431387 0.0 0.0031268248330460374 0.0 0.0
0.008765074232842736 -0.00385356065073413 0.0 0.002398253739279132 0.0 0.0
0.01042573470780124 -0.003697767878274163 0.0 0.001616404717797823 0.0 0.0
0.010788868330715504 -0.004111478650966463 0.0 0.0003345007006322065 0.0 0.0
0.007350175824698976 -0.003302206441551693 0.0 0.0031949149649465394 0.0 0.0
0.008451160407187151 -0.003383758869764176 0.0 0.002456724398263767 0.0 0.0
0.009564401782036935 -0.003134082097455127 0.0 -0.00041645685032080243 0.0 0.0
0.010082968916362843 -0.003433765649823603 0.0 -0.0007450858737189201 0.0 0.0
0.007210101829409232 -0.0032436252774720627 0.0 0.0031828135152983036 0.0 0.0
0.008235914324267506 -0.003270854597994262 0.0 0.0025419747021826894 0.0 0.0
0.008360810778284919 -0.002788797735714181 0.0 0.0004056944032537757 0.0 0.0
0.009170317738612948 -0.0030505101132823793 0.0 6.89510862262599e-05 0.0 0.0
0.004834204338715675 -0.0019309531332100983 0.0 -0.004171172204788529 0.0 0.0
0.004835303121657475 -0.002083406659543487 0.0 -0.004366712451376913 0.0 0.0
0.00836115259449162 -0.003123700307937379 0.0 -0.0010903168447021694 0.0 0.0
0.00821400202941061 -0.0027890859801414578 0.0 -0.0009021424670305998 0.0 0.0
0.009129840993927038 -0.003615079252471703 0.0 0.0005517510638768913 0.0 0.0
0.009747947118130547 -0.0036236899303239965 0.0 -3.75776753815827e-05 0.0 0.0
0.010492392907637598 -0.003992032454666346 0.0 -0.0013822058447369879 0.0 0.0
0.009875182468474596 -0.003738265259664123 0.0 -0.0007923801590161324 0.0 0.0
0.008336106267103464 -0.00283241019404378 0.0 -0.0005973539975540221 0.0 0.0
0.009997402023233223 -0.0034403521013127193 0.0 -0.0012952178138599287 0.0 0.0
0.010333503769819206 -0.0036943434141666343 0.0 -0.0018553750033245293 0.0 0.0
0.009622971920684134 -0.003017811163515373 0.0 -0.000233910054117761 0.0 0.0
0.009062740860331188 -0.0028950853101743414 0.0 0.00014364950211105502 0.0 0.0
0.00841332331887433 -0.0031797749936855364 0.0 -0.001025667147758355 0.0 0.0
0.008283573164364427 -0.0027900600443794637 0.0 -0.0009230251095441698 0.0 0.0
0.00840154946021246 -0.003178017318256506 0.0 0.0020166072196315526 0.0 0.0
0.008243019185051853 -0.0033033799434437454 0.0 0.0015025590395216781 0.0 0.0
0.009652420337536077 -0.003329197443876626 0.0 0.0004815534303580322 0.0 0.0
0.009680452302570725 -0.0034040642391744516 0.0 0.000445169537186086 0.0 0.0
0.010428734361047104 -0.003332898749548551 0.0 0.0010930999794856473 0.0 0.0
0.010313890050474742 -0.003436412475440562 0.0 0.001423123282744066 0.0 0.0
0.009776433023257855 -0.0033295912924789575 0.0 0.00031636495911030113 0.0 0.0
0.00962877406647597 -0.003162327363978435 0.0 0.0005646470477013391 0.0 0.0
0.008366042748539401 -0.003024176449135739 0.0 -0.0015512419898113458 0.0 0.0
0.00840552573607415 -0.0034325788842998906 0.0 -0.0014826299943693786 0.0 0.0
0.009768782758295236 -0.0035856506320714517 0.0 0.0007303328469484413 0.0 0.0
0.009906361787474276 -0.0036350576483146755 0.0 0.00044491961243071226 0.0 0.0
0.010297070206848287 -0.003325043755756981 0.0 -0.00248397398084482 0.0 0.0
0.01027158347456588 -0.0035050107033289535 0.0 -0.002000035499856759 0.0 0.0
0.01042793905146317 -0.003966706663896626 0.0 -0.001219990557350033 0.0 0.0
0.009842151196531021 -0.0036640316337986194 0.0 -0.0008056116615319138 0.0 0.0
0.00868162699672913 -0.0032071301336676766 0.0 0.000604468579705004 0.0 0.0
0.009551033810901922 -0.0035848300710591523 0.0 0.00023138900167731652 0.0 0.0
0.010514643388061788 -0.003942157495962634 0.0 0.0015562997335321202 0.0 0.0
0.00994903233528991 -0.00372016052916027 0.0 0.0009865180635453344 0.0 0.0
0.008246117002504633 -0.003182296141771075 0.0 0.0021416078861883833 0.0 0.0
0.00813065650439801 -0.003238098915228093 0.0 0.00168274329172248 0.0 0.0
0.010631452836257271 -0.003897364782816666 0.0 0.0016760979994456526 0.0 0.0
0.010011838196932854 -0.0037661646240418414 0.0 0.001043762765377071 0.0 0.0
0.009213770457359043 -0.0035002041266680856 0.0 -0.00022526298198260325 0.0 0.0
0.009931576993953542 -0.003602345077860003 0.0 0.0005034147755295544 0.0 0.0
0.007531912656941364 -0.0025763158350998027 0.0 0.0008841163692372127 0.0 0.0
0.0084612914857959 -0.0031002822409929784 0.0 -0.0014106945318229022 0.0 0.0
0.008526230306023376 -0.003464790962240824 0.0 -0.0013927702823880832 0.0 0.0
0.010053670809040537 -0.0033327553687538328 0.0 0.0010870263121320126 0.0 0.0
0.00973764594606441 -0.0034611175741380167 0.0 0.0005297414504391593 0.0 0.0
0.010266205563714804 -0.0034422225904495777 0.0 0.0022647819824162703 0.0 0.0
0.01029643311780682 -0.003363800063077271 0.0 0.0017959258422670403 0.0 0.0
0.009580330786850388 -0.0032698870976609756 0.0 -0.00023514917938728674 0.0 0.0
0.00913406724163027 -0.0031739590579940163 0.0 -7.460774282394078e-05 0.0 0.0
0.009523561401927075 -0.0031838060096271836 0.0 -5.7053398995294755e-05 0.0 0.0
0.009527273784787814 -0.0031167185044257296 0.0 0.0005336449975530504 0.0 0.0
0.00832096768361397 -0.0029275656668015394 0.0 0.000690199005942662 0.0 0.0
0.008921843097649372 -0.002954724757817627 0.0 0.00024172523608486296 0.0 0.0
0.009357929075181015 -0.0029997516624686686 0.0 -2.9308351580152603e-05 0.0 0.0
0.008721537084187948 -0.002828993771124187 0.0 0.00020816737066783062 0.0 0.0
0.010438384295885228 -0.0032740507704734564 0.0 -0.0006267003521175166 0.0 0.0
0.009979201091086784 -0.0031588659048148587 0.0 -0.0004986302069426227 0.0 0.0
0.010280553891833973 -0.0032792531838060773 0.0 0.0021533125973999256 0.0 0.0
0.010160682742975949 -0.0032083089223263945 0.0 0.0018951055827097461 0.0 0.0
0.010111202092341273 -0.0034668353809639355 0.0 0.0013113179401549255 0.0 0.0
0.01028880970418447 -0.0034058588194792656 0.0 0.0015780507665198477 0.0 0.0
0.010637803755346065 -0.0033600839173692047 0.0 0.000883347867868073 0.0 0.0
0.010271405832858974 -0.0034660107331413482 0.0 -0.0023625063300022143 0.0 0.0
0.010456959273721401 -0.0036308377340794665 0.0 -0.0021325853481263066 0.0 0.0
0.007417220356544171 -0.002515662451776578 0.0 0.0009817670436147348 0.0 0.0
0.010282499884182755 -0.003363685792152904 0.0 0.001938759028677909 0.0 0.0
0.009070116788511561 -0.002405377622031149 0.0 -0.0021329695525575637 0.0 0.0
0.003472962978751555 -0.001269984349787947 0.0 -0.004131069393578968 0.0 0.0
0.00711341031735549 -0.0020559453678862492 0.0 0.001007863985090219 0.0 0.0
0.007050176013264117 -0.0027639848380860573 0.0 0.0022545357022728096 0.0 0.0
0.01007248370386142 -0.0032227979387139324 0.0 0.0020362748627979 0.0 0.0
0.010622828766701509 -0.003254978342883373 0.0 0.00025307660374526697 0.0 0.0
0.010700298878439887 -0.003363155505052215 0.0 0.0008116806781960639 0.0 0.0
0.010028951192576255 -0.0030975891972245713 0.0 -0.00011252347967426538 0.0 0.0
0.010003185282951826 -0.0032089735553127163 0.0 -0.0002926860121700084 0.0 0.0
0.01016405188512727 -0.003090874323254692 0.0 -0.00034801003831833044 0.0 0.0
0.01016244683451624 -0.0032207298197018436 0.0 -0.0003185855681867118 0.0 0.0
0.00874172361113068 -0.0027329149634925717 0.0 0.0002983309905334828 0.0 0.0
0.009043295186013836 -0.002848599608770694 0.0 -0.0002860710456153454 0.0 0.0
0.009902226078518043 -0.002914422283630702 0.0 0.0028154682086370085 0.0 0.0
0.009891321872561306 -0.002879920964249879 0.0 0.00288312516380472 0.0 0.0
0.005013941667346408 -0.001381340586025407 0.0 0.0022303324276773985 0.0 0.0
0.004268839304705792 -0.0007114269997389282 0.0 0.002146023145316837 0.0 0.0
0.01031477944768028 -0.0030621752571965283 0.0 0.003252530517366138 0.0 0.0
0.00980633270762174 -0.0027221355476263996 0.0 0.0028844295937665437 0.0 0.0
0.0097981390889528 -0.0029135585003449687 0.0 0.0026215942131226667 0.0 0.0
0.004928086844979515 -0.0014755945775784167 0.0 0.0029172226670668606 0.0 0.0
0.009730180011422049 -0.0027849439022996896 0.0 -0.0027112389410475293 0.0 0.0
0.010163595122689106 -0.0032194390372191125 0.0 -0.0025968895377316333 0.0 0.0
0.010039188441122678 -0.003255945817373776 0.0 -0.002418954164038989 0.0 0.0
0.005919045124384424 -0.0017467361120956718 0.0 -0.0015612967219327534 0.0 0.0
0.006625342789488758 -0.0018119716391243063 0.0 -0.001111022252652697 0.0 0.0
0.006693555314168043 -0.0021454225419666045 0.0 -0.0012814885495458887 0.0 0.0
0.003073735062634614 -0.001675629711911519 0.0 0.003416730595008747 0.0 0.0
0.013135288808619935 -0.0028761628615592977 0.0 0.000454208252939646 0.0 0.0
0.01292269572385249 -0.0029100335836984535 0.0 -0.0011488303438828883 0.0 0.0
0.012969769114749237 -0.0029418214688432323 0.0 0.0010142917152766578 0.0 0.0
0.0026156879820540546 -0.0014908186282455913 0.0 -0.0039147207544587455 0.0 0.0
0.002726765826890437 -0.0015080124883406938 0.0 -0.0030577973722532674 0.0 0.0
0.011425363331133517 -0.003474003601263513 0.0 -0.0003135903548669161 0.0 0.0
0.01061449131540912 -0.0032252572738695 0.0 -0.0008792508700843737 0.0 0.0
0.008772334499479409 -0.002736443215569498 0.0 0.00028947942200050966 0.0 0.0
0.008833706504822958 -0.0028907004732126175 0.0 -0.00043823368672092806 0.0 0.0
0.011013493445653388 -0.0034117884678921545 0.0 0.0006340071310912479 0.0 0.0
0.010568398239571517 -0.0031589751083870576 0.0 0.0009858406375946593 0.0 0.0
0.00805893824142781 -0.0024655232806205206 0.0 -0.00014371174024849914 0.0 0.0
0.008000281501079398 -0.0025822854680073795 0.0 0.000434595105542529 0.0 0.0
0.010991497221658202 -0.003361344076926589 0.0 -0.0005725584971263062 0.0 0.0
0.010806138935717732 -0.003255044906602094 0.0 -0.0004779240302472962 0.0 0.0
0.010460478904575484 -0.003178737520411092 0.0 -0.00133246182050844 0.0 0.0
0.010781684168369651 -0.0033713441109510162 0.0 -0.0010622724782212052 0.0 0.0
0.008157328369196484 -0.0025421353380138192 0.0 -2.358702706460776e-05 0.0 0.0
0.0027520318218201834 0.00036341614182035156 0.0 0.0007527929034090051 0.0 0.0
0.006881807523194775 -0.0018896556143318394 0.0 0.00025332956190427663 0.0 0.0
0.002763540802820652 0.0004458761967628181 0.0 -3.9400266985227236e-05 0.0 0.0
0.007438422221553702 -0.0022312865868726606 0.0 -0.0008046082704084795 0.0 0.0
0.0027272007631677364 0.00044207978634710696 0.0 -3.197461011721081e-05 0.0 0.0
0.002717365739505595 0.00043324566067343834 0.0 -3.725587758846016e-05 0.0 0.0
0.0070103776345377235 -0.002092978022592777 0.0 -9.273336522789069e-05 0.0 0.0
0.007039045809183359 -0.0020737419181223876 0.0 -3.209039257444021e-05 0.0 0.0
0.0027470091688330533 0.00021145704650753043 0.0 -0.0009602609037930518 0.0 0.0
0.0027196788942069478 0.0002183855518485241 0.0 -0.0008939372703834943 0.0 0.0
0.00880514016851134 -0.0025001409786084977 0.0 -0.0013369181955709367 0.0 0.0
0.008944685163695697 -0.002566368522705753 0.0 -0.0016005780126750382 0.0 0.0
0.0040294991006283865 -0.00032243419608502313 0.0 -1.953069312331593e-05 0.0 0.0
0.004078444233715756 -0.00038530592661339437 0.0 -0.0012546929870009861 0.0 0.0
0.003977472115512887 -0.00033133795275627764 0.0 -3.64018371680902e-05 0.0 0.0
0.004046894988515792 -0.00043970460843161885 0.0 -0.0012015211538651815 0.0 0.0
0.008082622148928017 -0.0024076871261157484 0.0 0.000746953947386767 0.0 0.0
0.008160269929086795 -0.0024007850394215657 0.0 0.0007288293258405493 0.0 0.0
0.009106520596388067 -0.002748812160024719 0.0 0.0016407269830146023 0.0 0.0
0.008132932338782668 -0.0024332800627590995 0.0 -0.0007071190951924329 0.0 0.0
0.008165710296410899 -0.002400582138945312 0.0 -0.0007895535267145324 0.0 0.0
0.00923895553927046 -0.0027799778939045783 0.0 -0.0018594905003619187 0.0 0.0
0.004108318074548867 -0.0003729714039190657 0.0 3.1676077473826995e-05 0.0 0.0
0.005401357165899831 -0.0012867384812064245 0.0 -0.0008512321394523164 0.0 0.0
0.009311044651758006 -0.002518691600753742 0.0 -0.002627744989259216 0.0 0.0
0.01039131219724707 -0.0027964114680412294 0.0 -0.0032127728116783222 0.0 0.0
0.0035926197978019825 -0.0004005413716470481 0.0 -0.0014281991522504776 0.0 0.0
0.003604251256128621 -0.0008018085763591897 0.0 -0.0031959422073378346 0.0 0.0
0.003980932748067795 -0.000452381711616955 0.0 -0.001305904789971113 0.0 0.0
0.00415826575637733 -0.0008088249369986936 0.0 -0.002905714206177662 0.0 0.0
0.004648515875312717 -0.0017516805197950042 0.0 -0.003873435504784646 0.0 0.0
0.004649444705805764 -0.0014003972270643563 0.0 -0.0035780617411644844 0.0 0.0
0.0034788264097782504 -0.0013902515132508397 0.0 -0.004114627374611038 0.0 0.0
0.010452419741483124 -0.002630780419890552 0.0 -0.002612414757138623 0.0 0.0
0.003617141857043066 -0.0008331848479061505 0.0 -0.0028964959115020446 0.0 0.0
0.006561604830187334 -0.0017921042371978196 0.0 0.0007354838900528807 0.0 0.0
0.009912456347506766 -0.003018538265888486 0.0 0.0009727352522676778 0.0 0.0
0.009982509613234769 -0.002998790432681661 0.0 0.0008576113473667268 0.0 0.0
0.010178446853293513 -0.003594381052446402 0.0 0.0016766311255689628 0.0 0.0
0.011336991385229742 -0.0034133793490019244 0.0 0.00011820176233993192 0.0 0.0
0.007610896540367673 -0.0027810960812495455 0.0 0.0012873526150119566 0.0 0.0
0.006550084478049528 -0.002292627078304115 0.0 0.0019576504894502113 0.0 0.0
0.0076257478986665106 -0.0026043405106447766 0.0 0.0018665279903589587 0.0 0.0
0.011222572741302839 -0.0034136414085905093 0.0 7.282332209010054e-05 0.0 0.0
0.011876687842724429 -0.0036007130316585384 0.0 0.00010153029941088916 0.0 0.0
0.011213992079088436 -0.003456937930968638 0.0 2.607896699687636e-05 0.0 0.0
0.010651065335319843 -0.0032704190204332927 0.0 0.0004542077422949346 0.0 0.0
0.011834642565920081 -0.003577703581844012 0.0 -0.00020964098789739288 0.0 0.0
0.00787400750202473 -0.002873221725703227 0.0 0.0011817215825753805 0.0 0.0
0.007906619548954698 -0.002759880487911145 0.0 0.0015930230226263312 0.0 0.0
0.010149526101396869 -0.0035970037122381882 0.0 0.001551086368674139 0.0 0.0
0.010284067226278643 -0.0033184764394843906 0.0 0.0024527203574908453 0.0 0.0
0.01027397265401421 -0.003442579787930696 0.0 0.002370535285364462 0.0 0.0
0.010461539743306734 -0.0036258699341012494 0.0 0.002233920115332204 0.0 0.0
0.011688663949241443 -0.003511416892375295 0.0 -0.00016011053048058544 0.0 0.0
0.010067334180252567 -0.0033071889713123612 0.0 -0.002587503386008194 0.0 0.0
0.010071797067626759 -0.0030456655557498697 0.0 -0.0022590828153104796 0.0 0.0
0.010309791714463709 -0.0031318603791792455 0.0 -0.001718596189675221 0.0 0.0
0.009980755588739676 -0.0031796120522737197 0.0 -0.002008085971788861 0.0 0.0
0.010444032842402856 -0.0031967247681367918 0.0 -0.0007107554509123148 0.0 0.0
0.010487841807195399 -0.003140052206920195 0.0 -0.000593479709108868 0.0 0.0
0.010062451299009699 -0.003049936777971475 0.0 -0.000933783661981465 0.0 0.0
0.010719601155281346 -0.003419396581758218 0.0 -0.0008901526535663208 0.0 0.0
0.010792733366241383 -0.0032568082365997957 0.0 -0.0005645578785584411 0.0 0.0
0.010741726010720244 -0.003390736492001544 0.0 -0.00034548661720998266 0.0 0.0
0.010282806417603735 -0.0031809438175039086 0.0 -0.00047327792196890294 0.0 0.0
0.010402159661867319 -0.0034281487132963515 0.0 0.0008688509034268164 0.0 0.0
0.010696377294930969 -0.0033309383349472144 0.0 0.00019253920227481564 0.0 0.0
0.011183114141735631 -0.003505427522479912 0.0 0.00027749136526611373 0.0 0.0
0.010997307477894278 -0.003286943863625954 0.0 0.00028511152910553825 0.0 0.0
0.0054007198409412455 -0.0012281516606355222 0.0 -0.0009006628847640884 0.0 0.0
0.0108068918120554 -0.0035561266281984513 0.0 0.002691764301777812 0.0 0.0
0.01033643771793654 -0.003667748535606301 0.0 0.0021032795032254192 0.0 0.0
0.010291026816232944 -0.0032894025632869764 0.0 0.0026411724443345906 0.0 0.0
0.010451570848380463 -0.0036197460320676 0.0 0.0023266686918627048 0.0 0.0
0.006514140935325083 -0.0020174436255692204 0.0 0.0018935642699190805 0.0 0.0
0.006778577938364672 -0.002496587063924886 0.0 0.002922216312479471 0.0 0.0
0.0060136902666188125 -0.0019345735449863913 0.0 0.0026555041426158145 0.0 0.0
0.005865791416864163 -0.0019327260783948037 0.0 0.0026681969818496062 0.0 0.0
0.010348465413469655 -0.003435328557571919 0.0 0.0026828124256568792 0.0 0.0
0.010392973625537365 -0.0033279272943555808 0.0 0.0028211163874769913 0.0 0.0
0.010753175820335477 -0.003679977955219526 0.0 0.002329752143760631 0.0 0.0
0.011451473694160906 -0.003968533297874004 0.0 0.00037247006918620165 0.0 0.0
0.010592002560205696 -0.0037775752092250453 0.0 0.0016494335867658222 0.0 0.0
0.004886479932091417 -0.000883490984210724 0.0 0.0011353933136854198 0.0 0.0
0.009587156059201032 -0.0028309656348887192 0.0 0.0026587321620205467 0.0 0.0
0.010032715141317903 -0.003086063895944447 0.0 0.0026665275759175083 0.0 0.0
0.006329550421769595 -0.0024646535959258475 0.0 0.0030789885478947933 0.0 0.0
0.01146873040797379 -0.003981031442436575 0.0 0.00028296881278749506 0.0 0.0
0.010475916381963081 -0.0037740543020179616 0.0 0.0018357623129341433 0.0 0.0
0.006200872029365728 -0.001545076611109579 0.0 -0.00141477787609268 0.0 0.0
0.010361885006337605 -0.0034407292549580686 0.0 -0.002675082278358318 0.0 0.0
0.010416486904358896 -0.0033963841894966763 0.0 -0.002803928950064505 0.0 0.0
0.010755237108293536 -0.003697443431487675 0.0 -0.0022420667159474853 0.0 0.0
0.01139393448104304 -0.003998326529483405 0.0 -0.00016899271691703938 0.0 0.0
0.01046142455016343 -0.00377536042146964 0.0 -0.0017116141506705006 0.0 0.0
0.005800740812609943 -0.002075197609711695 0.0 0.0025446199142571233 0.0 0.0
0.007062285011390543 -0.0025730809389591745 0.0 0.0026716721153165427 0.0 0.0
0.007102085305433745 -0.0030020332040423675 0.0 0.00383339332483494 0.0 0.0
0.006536412698165434 -0.0025180571554259956 0.0 0.0029133542010983445 0.0 0.0
0.009863677227452461 -0.0031294711337290504 0.0 0.0001224256926864349 0.0 0.0
0.010676986994270379 -0.003334711138830916 0.0 -0.00034145781367960794 0.0 0.0
0.008954989705143641 -0.002706380194183608 0.0 -0.0008895107534967533 0.0 0.0
0.009116897420141816 -0.002723216150186364 0.0 -0.0009801463021939134 0.0 0.0
0.005106251873664702 -0.0009791603252276768 0.0 1.9853774424388787e-05 0.0 0.0
0.004525548461854476 -0.0007135677347236066 0.0 -0.0008378141217310203 0.0 0.0
0.006968983037994869 -0.0019879830134029394 0.0 -0.00018991055170614448 0.0 0.0
0.007360092175953306 -0.002258300416590347 0.0 0.0005313462680028545 0.0 0.0
0.010436351714320077 -0.003182849977866671 0.0 0.000758318293432262 0.0 0.0
0.010589354812602425 -0.0031631562183326405 0.0 0.0006442996197035776 0.0 0.0
0.010432509695181238 -0.0031924672158581864 0.0 0.0007759691909328785 0.0 0.0
0.010642316165602517 -0.0031722113554360277 0.0 0.000644989909575476 0.0 0.0
0.00676371409085566 -0.0019490196444763783 0.0 -0.00014258255265146152 0.0 0.0
0.004893335667792473 -0.0008782732992171152 0.0 8.774938057586057e-05 0.0 0.0
0.004487091682490854 -0.0007011394262570608 0.0 -0.0007739237395899424 0.0 0.0
0.003356813742664083 -0.0002713412079020025 0.0 -0.002051068492828859 0.0 0.0
0.0031178965767781758 -0.00027432702071239837 0.0 -0.0019545578506101127 0.0 0.0
0.008626081942254577 -0.0025184822009462933 0.0 -0.0010453832602066813 0.0 0.0
0.008210347441628454 -0.0022658406173027903 0.0 -0.0011400141412968457 0.0 0.0
0.003612436078137063 -0.00011267159192905607 0.0 -0.0005354941245927052 0.0 0.0
0.003316278115078508 0.00015503661893892864 0.0 -0.0005839209284756036 0.0 0.0
0.0032969045846848594 -0.0001450309760239049 0.0 -0.0007430403780006346 0.0 0.0
0.008467636428540135 -0.0025340374919847405 0.0 0.0007739053161174934 0.0 0.0
0.008564389216431833 -0.002430508185256093 0.0 0.0018245949248517357 0.0 0.0
0.0035905402323774954 -8.10258513617157e-05 0.0 -0.0005911764313009799 0.0 0.0
0.003253600806656376 0.00018488703296358489 0.0 -0.0005078282874068987 0.0 0.0
0.003217061637128593 -0.00011424131731548742 0.0 -0.0008193121846330163 0.0 0.0
0.008384475201609603 -0.0025197630781315164 0.0 -0.0007282522758610514 0.0 0.0
0.0082666094378248 -0.0024497530284177532 0.0 -0.000905786587873627 0.0 0.0
0.008664886712559895 -0.0022971295899479466 0.0 -0.0019538601442911623 0.0 0.0
0.011341220634858387 -0.0034033955950463907 0.0 -2.551442634950163e-05 0.0 0.0
0.011076251539045429 -0.003401733404469913 0.0 -0.000553928767338091 0.0 0.0
0.011441006873642154 -0.0034873699344866727 0.0 -0.00040935636267522583 0.0 0.0
0.011000302674071413 -0.0033606404861981423 0.0 -0.0004749454503418203 0.0 0.0
0.0038146963520865468 -0.0021261070429592264 0.0 -0.0037854282125105807 0.0 0.0
0.002462432186089228 0.0004857184295838264 0.0 -0.0002599239086316374 0.0 0.0
0.0024960537898340157 0.0005045144995608694 0.0 -0.0001823336059853034 0.0 0.0
0.007964606456779025 -0.0023463455140461387 0.0 -0.0006591033373777863 0.0 0.0
0.008017405376359631 -0.002345004874936645 0.0 -0.0007500704770192242 0.0 0.0
0.012211825907864826 -0.0031030132762787654 0.0 0.0021751286340025173 0.0 0.0
0.003944226662379341 -0.0020120812069471614 0.0 -0.003741660235076813 0.0 0.0
0.0033965382640200326 -0.0007013563323342133 0.0 0.0028350039233557105 0.0 0.0
0.010190076496701169 -0.0024591166912957887 0.0 0.002560068264570738 0.0 0.0
0.005407310420654329 -0.002770627316323108 0.0 0.005452772737806831 0.0 0.0
0.009061356765047393 -0.0037245947422879316 0.0 -0.0031412238548168773 0.0 0.0
0.01062534513751736 -0.0035961280626332867 0.0 -0.00012216474487392395 0.0 0.0
0.008978095877910257 -0.0037006043574541875 0.0 -0.0032255777357985474 0.0 0.0
0.010702243495070457 -0.003627273971322044 0.0 5.73209493194898e-05 0.0 0.0
0.010833426926772242 -0.0030668436409463234 0.0 -0.0032115740054488515 0.0 0.0
0.011064576184753191 -0.0033844270329255813 0.0 -0.0021789208268409854 0.0 0.0
0.01049699406098545 -0.0032322347663810563 0.0 -0.002738541067865875 0.0 0.0
0.010606962359666211 -0.0035342671771061915 0.0 -0.0006677299829205702 0.0 0.0
0.004418349973443994 -0.0015855252140705468 0.0 -0.003968677896356182 0.0 0.0
0.005179373182398181 -0.0016646180772353913 0.0 -0.003751154664415352 0.0 0.0
0.005101539855103532 -0.0015568057516911233 0.0 -0.0028981006527917675 0.0 0.0
0.005225667390766395 -0.0025134031044408353 0.0 0.005621180337973295 0.0 0.0
0.01092727617502163 -0.0034263842998482658 0.0 0.0008124318004736624 0.0 0.0
0.010394398698806507 -0.003169936319658047 0.0 0.0007250647296877396 0.0 0.0
0.010632884702149376 -0.0032769390226979355 0.0 0.0008733838635627132 0.0 0.0
0.010663672356974213 -0.0033398208551734337 0.0 0.0005839921364392603 0.0 0.0
0.00799881489091507 -0.0036005312081902434 0.0 0.003497303863729366 0.0 0.0
0.009121661326537654 -0.003695805764996467 0.0 0.003003838494170587 0.0 0.0
0.0027835363515939827 -0.00048266697424762667 0.0 0.002776982478406335 0.0 0.0
0.003682508834046236 -0.0004840433361663274 0.0 0.0026863692705375447 0.0 0.0
0.01045140712893318 -0.0024321040530625414 0.0 -0.0032557530695679782 0.0 0.0
0.007223005799861071 -0.003325199388879362 0.0 0.004316077167924588 0.0 0.0
0.004893412561635169 -0.0010991206811404195 0.0 -0.0014177069937422338 0.0 0.0
0.004565897973379099 -0.0008815799216925178 0.0 -0.002162002261194361 0.0 0.0
0.009749711495269457 -0.0029263042786377216 0.0 -0.002815419268799177 0.0 0.0
0.009961327173863704 -0.0029691553673445517 0.0 -0.0027984829264392497 0.0 0.0
0.008502273896493218 -0.0026486395820335806 0.0 -0.0003132493533413454 0.0 0.0
0.009121958508620914 -0.0028539547234183588 0.0 0.0001152711400428635 0.0 0.0
0.010353543950809008 -0.0019402675811777369 0.0 -0.0020097592843303104 0.0 0.0
0.0017463627364672774 -1.338879267413079e-05 0.0 -0.0018329963624167467 0.0 0.0
0.010811399237858121 -0.00329987504497307 0.0 -4.03621466494369e-05 0.0 0.0
0.010834630924970806 -0.0032864100307590954 0.0 0.00016458601061558414 0.0 0.0
0.002601858028266388 0.00047490009526973687 0.0 0.00036862861162229726 0.0 0.0
0.009061203387263433 -0.0026940213095685995 0.0 -0.0009071316079164761 0.0 0.0
0.008962123581363106 -0.002767426819506088 0.0 -0.0016521611537192449 0.0 0.0
0.010596589024715747 -0.0033566143140463106 0.0 -0.00239158536142969 0.0 0.0
0.004816057616887359 -0.001667329352376002 0.0 0.00339214884125235 0.0 0.0
0.010468520977864918 -0.003202466648152158 0.0 -0.0008644693019428541 0.0 0.0
0.010690996318714008 -0.003375514172242522 0.0 -0.0009932734487208394 0.0 0.0
0.010550275899621112 -0.0032227703863354495 0.0 0.00027586758455681176 0.0 0.0
0.009927754636281025 -0.0029720594823667984 0.0 -0.0002486684485064755 0.0 0.0
0.010189440233180636 -0.003109041737897285 0.0 9.308446939228221e-05 0.0 0.0
0.010243456095312575 -0.0031980790138227133 0.0 -0.0003008193430909384 0.0 0.0
0.010436051736705554 -0.0031325045953005063 0.0 0.0028772530663706847 0.0 0.0
0.010268383183059455 -0.00277779782871633 0.0 0.0033054118005026167 0.0 0.0
0.010197813677799872 -0.0022966641196611026 0.0 0.0029046698748768167 0.0 0.0
0.010147477282186033 -0.0027418947414312167 0.0 0.0025971260508407326 0.0 0.0
0.009544430118225852 -0.002867973899428111 0.0 0.0008205676198593248 0.0 0.0
0.009569932399070634 -0.00289720358789319 0.0 0.0019383039062625708 0.0 0.0
0.010366973774492291 -0.0032387946728913222 0.0 -0.0014192273071900775 0.0 0.0
0.009729676889304366 -0.003121952137081628 0.0 0.0005640400641711805 0.0 0.0
0.009511689089791654 -0.0019460559417564874 0.0 -0.0020049011877103914 0.0 0.0
0.009514933102864755 -0.002868639666521615 0.0 0.0008375971383909019 0.0 0.0
0.009544693659463414 -0.0028783834541196013 0.0 0.001924115060261071 0.0 0.0
0.0054549457587253075 -0.0012313382179312618 0.0 0.0006326296005083037 0.0 0.0
0.0053486105653403615 -0.0012292048572973384 0.0 0.0005646629382150339 0.0 0.0
0.00677550401093055 -0.0019003368903005831 0.0 9.815490916839698e-05 0.0 0.0
0.007398025808297348 -0.002174422062597839 0.0 -0.00027434077962195345 0.0 0.0
0.008069259459554515 -0.002664597059603445 0.0 -0.0008518269181330097 0.0 0.0
0.00749326852909295 -0.0022804615270162892 0.0 -0.0001863438349639754 0.0 0.0
0.010818762113607897 -0.0032024699220488465 0.0 0.003173261896683474 0.0 0.0
0.01070477448390015 -0.0031686312949710683 0.0 0.0006792401227686319 0.0 0.0
0.010814475131796161 -0.003302059294883492 0.0 0.0005647764084149888 0.0 0.0
0.01080935223318702 -0.0033335794585024367 0.0 0.0008928549485974109 0.0 0.0
0.0025506069409699794 0.00036358794878353705 0.0 0.0007532672695871488 0.0 0.0
0.00916115791925872 -0.002862134645248697 0.0 0.00022603565411351105 0.0 0.0
0.008728328929339696 -0.0027641655216217448 0.0 5.580005072029076e-05 0.0 0.0
0.008711647771604852 -0.002699246513520874 0.0 -0.0001331326234568636 0.0 0.0
0.008707337212402175 -0.002599178433431904 0.0 0.0011188503546052022 0.0 0.0
0.011461688188546607 -0.003519104799009992 0.0 0.00037004754808082907 0.0 0.0
0.00231787022545632 0.0004838166295820149 0.0 0.00018621507874189798 0.0 0.0
0.009872984310497815 -0.001979554359805784 0.0 -0.0014346351369494588 0.0 0.0
0.010273968763352494 -0.0023424316141937435 0.0 -0.0027219929036718 0.0 0.0
0.0023633415116307427 0.00015447401674181967 0.0 -0.0011789269854363751 0.0 0.0
0.0025007388429777733 -0.0001619392151335935 0.0 -0.002539545934387502 0.0 0.0
0.010558852594903315 -0.0031751175248731236 0.0 -0.00016890248637635007 0.0 0.0
0.010217416573888452 -0.0031282428250924647 0.0 0.0002472734177201032 0.0 0.0
0.002367498522493086 0.000491940975334778 0.0 0.0006233167063230995 0.0 0.0
0.0026076884269739253 0.00016929834924715378 0.0 0.0011133961763105903 0.0 0.0
0.003397489482781471 -0.0002873413593213296 0.0 0.0011505137520827317 0.0 0.0
0.0033960607337270438 -1.776554061857366e-05 0.0 0.0011098770054483661 0.0 0.0
0.009080355760381955 -0.002477519614309004 0.0 0.0019385907365248346 0.0 0.0
0.008843885013182734 -0.0022393764832378538 0.0 0.002137223020564235 0.0 0.0
0.011411495730372638 -0.003815421410392803 0.0 -0.0026942827744098237 0.0 0.0
0.007249639852525733 -0.0031967021705734153 0.0 0.004469008056691742 0.0 0.0
0.011333545623362688 -0.0037929340475174995 0.0 -0.002767428261882674 0.0 0.0
0.011397320756616237 -0.0038353113478731154 0.0 0.0029409843742295556 0.0 0.0
0.004863863836729966 -0.0012768011433811136 0.0 0.0028798171329107655 0.0 0.0
0.003915851529798189 -0.0007116349395026525 0.0 0.0021190061354205824 0.0 0.0
0.008473434772382882 -0.002712332424918692 0.0 0.00017392054639337948 0.0 0.0
0.002592904692053987 0.00048335473808442525 0.0 -0.0002811238320212482 0.0 0.0
0.002476707293556153 0.0005073105919389878 0.0 -0.00021968383097179748 0.0 0.0
0.008148106304982363 -0.0021901175791476483 0.0 -0.0003335278674079941 0.0 0.0
0.007973849654930077 -0.0019238059363777815 0.0 -0.00046790973859352274 0.0 0.0
0.009083813604881244 -0.002606920115692503 0.0 -0.0019168748710915514 0.0 0.0
0.008587590683798524 -0.002537087800758401 0.0 -0.0015291093535655916 0.0 0.0
0.002939257180079327 0.0002032192552488916 0.0 -0.0009591201101889942 0.0 0.0
0.002422502918430611 0.00023431623664858098 0.0 -0.0013859809307521034 0.0 0.0
0.01098390832562817 -0.0031395895971295315 0.0 0.002973935873113908 0.0 0.0
0.009260750120604259 -0.002353612845833723 0.0 -0.00014061017404392087 0.0 0.0
0.009720713919822354 -0.0023890957824329317 0.0 -5.687611229563522e-05 0.0 0.0
0.009312550042997417 -0.0017553949939867614 0.0 -0.0004959624816130801 0.0 0.0
0.002275461167346674 0.0004234475564471804 0.0 -0.0003402511016555266 0.0 0.0
0.004710896141552623 -0.0014779521474912634 0.0 0.0038454021974284706 0.0 0.0
0.011471967249723545 -0.0034212063437226888 0.0 0.00024417302778140856 0.0 0.0
0.0110156051390463 -0.0034012103363777555 0.0 0.000778433509312719 0.0 0.0
0.001530461061117712 0.00027310114750316375 0.0 -0.0005038898704582597 0.0 0.0
0.009845744649155268 -0.001682817824207386 0.0 -0.0006684331981764205 0.0 0.0
0.010115093118958418 -0.0015604316916683313 0.0 0.00012166644163249325 0.0 0.0
0.01090193688658074 -0.0032421768708374536 0.0 0.0003308217205009317 0.0 0.0
0.010848797267782817 -0.0033867511572814313 0.0 0.0010073609804574502 0.0 0.0
0.00828634977639578 -0.002608970669846146 0.0 0.0003421586013973299 0.0 0.0
0.008730004069556041 -0.0027059664096068282 0.0 7.8993433100992e-05 0.0 0.0
0.011008771879805776 -0.00332359923868035 0.0 -0.0005676345383980831 0.0 0.0
0.010947442826892787 -0.0018470339663106058 0.0 -0.0010273708970948044 0.0 0.0
0.009262482252653245 -0.003551346020092244 0.0 0.0037856411292502613 0.0 0.0
0.0070104698209476485 -0.0027375069410812843 0.0 0.005164102372502439 0.0 0.0
0.0029200001158389 -0.0019502532645393044 0.0 -0.005224702981253691 0.0 0.0
0.012983383667067533 -0.002930564794625029 0.0 0.001299080461551281 0.0 0.0
0.0028234279908298104 -0.0019633949383344763 0.0 -0.004968934091832002 0.0 0.0
0.0044840156157957 -0.0012723723354781972 0.0 0.0027682178568360274 0.0 0.0
0.010309271916017833 -0.0027981046157482814 0.0 0.00283062127512936 0.0 0.0
0.010776332980490516 -0.0028052798207925875 0.0 0.002971131066000939 0.0 0.0
0.005240818029205327 -0.0019490464997380004 0.0 0.003977118691009576 0.0 0.0
0.007417862893687901 -0.0021401659002296056 0.0 0.0003757693352142606 0.0 0.0
0.011866284339725003 -0.003608779366131473 0.0 -0.0001523044426917639 0.0 0.0
0.0024075967458853514 0.0006225316859938337 0.0 -1.7003022158249004e-05 0.0 0.0
0.00247711609339088 0.00046380187252344565 0.0 0.0002857197487544545 0.0 0.0
0.0024961636000519066 0.0005562574657106863 0.0 6.537797821163857e-05 0.0 0.0
0.002436961503908569 0.000593429938134122 0.0 1.1088772282719789e-05 0.0 0.0
0.002493928708466764 0.0005854922486324306 0.0 7.449248334847822e-05 0.0 0.0
0.006864278174190847 -0.001972656012653548 0.0 0.00028856726302187006 0.0 0.0
0.007918415824968668 -0.0024433226082494486 0.0 5.672855774082122e-05 0.0 0.0
0.011683212491921488 -0.003332355342859042 0.0 0.0015513242989653314 0.0 0.0
0.01130496894392545 -0.0028005039776410837 0.0 0.0011261726075846527 0.0 0.0
0.011230936967637932 -0.0029368249621397474 0.0 0.0010115678039040238 0.0 0.0
0.0034997744496636646 -0.0017836263736311468 0.0 0.004800628346141613 0.0 0.0
0.011301829553359122 -0.003086603975781234 0.0 -0.0016705586940932412 0.0 0.0
0.01184252868304679 -0.002847952805702615 0.0 -0.0007703402956899252 0.0 0.0
0.0095167743271036 -0.0029844115784851757 0.0 0.00029501804557058905 0.0 0.0
0.009093180251471468 -0.0028828688974396714 0.0 -0.0003612066162512525 0.0 0.0
0.00896325960301286 -0.0026371121157251487 0.0 0.0008368533043432991 0.0 0.0
0.008835537587156266 -0.002662400807725472 0.0 0.0007178449176799377 0.0 0.0
0.009522007655935232 -0.002890342292596479 0.0 0.0018896881380914008 0.0 0.0
0.009085012982527275 -0.0025424902762183413 0.0 0.001967870886478787 0.0 0.0
0.0049235367012879505 -0.0008736902289328483 0.0 5.627039231059089e-05 0.0 0.0
0.004520418399166379 -0.0006004215354974002 0.0 0.0005592764494144475 0.0 0.0
0.004951140284612021 -0.0009499846166620978 0.0 0.0012051842015767403 0.0 0.0
0.004078087648787188 -0.0006136246263480812 0.0 0.0007135249905284818 0.0 0.0
0.008961428793355729 -0.0026636442946845647 0.0 0.0008562027894752841 0.0 0.0
0.008988740043832488 -0.0027011725321486896 0.0 0.0008128007824396502 0.0 0.0
0.009581455641524602 -0.002900789529157864 0.0 0.0019393898753611643 0.0 0.0
0.009023903903836224 -0.0026067260141715114 0.0 0.001993484340815468 0.0 0.0
0.00927453235526493 -0.0028488601185262252 0.0 -0.0009564894790646695 0.0 0.0
0.008959263514085998 -0.002620998246714662 0.0 -0.000937969312419443 0.0 0.0
0.009710423001401975 -0.0028345282598628944 0.0 -0.0018963932124701956 0.0 0.0
0.010192036820246761 -0.003106327409847315 0.0 0.000625991038486224 0.0 0.0
0.010066377161904172 -0.0032773625070514957 0.0 0.00011523560464754643 0.0 0.0
0.004858700036440025 -0.002446318300530839 0.0 -0.0035425594905671987 0.0 0.0
0.004891657224234524 -0.0027124326990944567 0.0 -0.0060544643163564504 0.0 0.0
0.006723302902844966 -0.002884445756961248 0.0 -0.003993276438374632 0.0 0.0
0.010709113088594069 -0.0024681338256517388 0.0 0.006450066110854399 0.0 0.0
0.011332441118627405 -0.003412478413494978 0.0 0.001011921817454367 0.0 0.0
0.011293337009066496 -0.003936153116607284 0.0 0.001681045429693156 0.0 0.0
0.009458032351676417 -0.002120976222751248 0.0 0.0025038215419396753 0.0 0.0
0.00938545422330917 -0.0026930186560478377 0.0 0.0019594056347710734 0.0 0.0
0.00982209823875762 -0.0024529069000466495 0.0 0.0016169430137101745 0.0 0.0
0.0028578827603323517 6.2104597546644436e-06 0.0 0.0013584869530944193 0.0 0.0
0.0028959015051677195 1.0459909722246308e-05 0.0 0.0013949918237571093 0.0 0.0
0.0026962951862042617 0.00013039594746143673 0.0 0.0015553182634553235 0.0 0.0
0.0022913117382102888 0.0003346010246111364 0.0 0.0006698019439669543 0.0 0.0
0.0048217791656625444 -0.0025373159581340374 0.0 -0.003847301566841462 0.0 0.0
0.0064225661204984075 -0.0017651871462882676 0.0 -0.0007387587214756457 0.0 0.0
0.006670761238629086 -0.0018352217173966158 0.0 -0.0005114447907251067 0.0 0.0
0.006733281194837848 -0.0020629395052227557 0.0 -0.00074093115855349 0.0 0.0
0.011429686001093273 -0.001903859644144884 0.0 0.0021939538297473596 0.0 0.0
0.011412177157947729 -0.002155871271482382 0.0 0.001313506319844577 0.0 0.0
0.007463816075364164 -0.0022152613604388832 0.0 -0.0004475264834571599 0.0 0.0
0.008216082902387508 -0.002361288002383546 0.0 -0.0009463469957747828 0.0 0.0
0.0016639852534407057 -0.0008287016200605908 0.0 0.0037871081060589368 0.0 0.0
0.0018268422246555185 -0.00038889559693446735 0.0 0.002659607394938578 0.0 0.0
0.0032704071939528012 0.00011288555825116315 0.0 -3.2133616089440286e-05 0.0 0.0
0.0028018284914025846 0.00015728470919438436 0.0 -0.00047840590591578455 0.0 0.0
0.007336184029700053 -0.002119376649027449 0.0 -0.0005189861327719938 0.0 0.0
0.008210980313186646 -0.002308102142941734 0.0 -0.0011261532035041046 0.0 0.0
0.003212107205076864 0.00016941433901996686 0.0 -3.963066033816247e-06 0.0 0.0
0.00280598151928076 0.00018838872062729856 0.0 -0.0004247754973001044 0.0 0.0
0.0013795401068133206 -0.0010192656583821124 0.0 -0.0016882962793050241 0.0 0.0
0.013515184653548612 -0.0023180171532034693 0.0 -0.0010969610523366667 0.0 0.0
0.01337022510652735 -0.002058127876855567 0.0 0.0012519054165373777 0.0 0.0
0.011482717203792061 -0.001476700213634316 0.0 0.00013848546381691092 0.0 0.0
0.007456428784676932 -0.0022332338671906884 0.0 -0.0006072952858323854 0.0 0.0
0.008499368974584115 -0.002685883565115333 0.0 0.00015691064705633875 0.0 0.0
0.008301727819898734 -0.0026208055418439694 0.0 -0.0005058855857228532 0.0 0.0
0.007960343590501073 -0.002426816018403697 0.0 0.0002757323696477229 0.0 0.0
0.0014761007244874086 -0.0006008116122280839 0.0 0.0018749538146151136 0.0 0.0
0.010845014890024915 -0.0033084846658740005 0.0 -0.0005679773527957101 0.0 0.0
0.010655616825442117 -0.0032986430369223996 0.0 -0.00020285547322830208 0.0 0.0
0.010919773938263572 -0.00332919459169268 0.0 -0.00032805266048689316 0.0 0.0
0.010488871767367893 -0.003271056653485205 0.0 -0.0007886226059576687 0.0 0.0
0.012145069863984627 -0.0035023658796541624 0.0 -0.0011772900759377484 0.0 0.0
0.011575985396011535 -0.0019536090705479583 0.0 -0.0016666499761407057 0.0 0.0
0.005034804112215477 -0.0024671612640188526 0.0 0.004403773530764665 0.0 0.0
0.005222527427748452 -0.0024846907289695908 0.0 0.004626316080477675 0.0 0.0
0.012368323673983765 -0.003593683142035918 0.0 -0.0004766494463080322 0.0 0.0
0.00200736556261448 -0.001029822347697558 0.0 -0.004190627459124598 0.0 0.0
0.0011709270539485284 -0.0005447738188100459 0.0 -0.0013986766891262489 0.0 0.0
0.0013164478766303986 -0.00015399865214452482 0.0 -0.002286882494645248 0.0 0.0
0.01202159703817992 -0.0022784096960848654 0.0 -0.0025631230926188436 0.0 0.0
0.011907721697682462 -0.001579086896359251 0.0 -0.0001465512041725625 0.0 0.0
0.011092006160275608 -0.0017097772436940268 0.0 -0.0019178334263531902 0.0 0.0
0.012275899072751811 -0.0035889131241598465 0.0 0.0005811666106400205 0.0 0.0
0.003185511672658542 -0.000201338086378091 0.0 -0.001928120805981052 0.0 0.0
0.009470169625230777 -0.0022998973017991325 0.0 -0.00174848132443653 0.0 0.0
0.009756174034742491 -0.0027148176781583433 0.0 -0.0024679410723935603 0.0 0.0
0.009764426655697723 -0.0023453616327574443 0.0 -0.0023573491936852205 0.0 0.0
0.008935028855927889 -0.0020881214602285203 0.0 -0.0015888661702674386 0.0 0.0
0.002148967638592361 -0.00014027849651337618 0.0 -0.0019054646807116805 0.0 0.0
0.003170529336809086 -0.0008515192101197083 0.0 -0.0036118767041641645 0.0 0.0
0.0031623370383062344 -0.0009381248635516558 0.0 -0.0031070005911962794 0.0 0.0
0.0019989409680049447 -0.00015184792092251846 0.0 -0.0026033969692849223 0.0 0.0
0.010887618498372645 -0.0020648093669953377 0.0 -0.0012808882110748564 0.0 0.0
0.011018591923625691 -0.0026469162930355117 0.0 -0.0029466145386740673 0.0 0.0
0.011271183161939459 -0.002534681201320086 0.0 -0.0014581954609073026 0.0 0.0
0.010300939607288619 -0.0018003721502912184 0.0 -0.0023792371531133104 0.0 0.0
0.010564486023468482 -0.002404984778283381 0.0 0.002202230378221596 0.0 0.0
0.011436646388029747 -0.002525750664614688 0.0 0.002038553965387324 0.0 0.0
0.010559032540129206 -0.0018605443133463684 0.0 0.0022555069162695732 0.0 0.0
0.009965186904489878 -0.00182460816232927 0.0 0.0022370037094466815 0.0 0.0
0.010170235792398553 -0.001961665501012801 0.0 0.00018168425736010468 0.0 0.0
0.0018113832455836643 9.667555696554232e-05 0.0 0.0019044978441095026 0.0 0.0
0.002105123079575333 0.00020935800554353068 0.0 0.0006507981125843561 0.0 0.0
0.011173059062057324 -0.003692316960144524 0.0 0.0023802246275597596 0.0 0.0
0.010685074242209927 -0.0034539012024448826 0.0 0.0016698509772112569 0.0 0.0
0.011692361615463706 -0.0034538199172093587 0.0 0.0017443351466795588 0.0 0.0
0.010625819452833729 -0.0021279515539348627 0.0 0.0014787838985181358 0.0 0.0
0.010712669400806937 -0.002363150891659168 0.0 0.003110430825928821 0.0 0.0
0.003423502455191449 4.478019436055412e-05 0.0 5.330595168096976e-05 0.0 0.0
0.002830200308522851 0.00020738635620868098 0.0 0.0007230967352055053 0.0 0.0
0.0028957234480198393 0.000217318664384087 0.0 0.0005709563958273328 0.0 0.0
0.011188125696789071 -0.003599552362937252 0.0 0.0023479988375261947 0.0 0.0
0.010891862301258918 -0.0034922625740087324 0.0 0.0008158467882378381 0.0 0.0
0.010752348322481306 -0.0032073894823586163 0.0 0.002192461374884114 0.0 0.0
0.0025893800662437905 -0.00024356773605012545 0.0 0.0020456396300881294 0.0 0.0
0.002844205854964574 -0.0007005110103900855 0.0 0.0036529880961468156 0.0 0.0
0.0063656718971755975 -0.0024064845232190067 0.0 0.0037489981968084353 0.0 0.0
0.005206170821020525 -0.002360791285195769 0.0 0.004338280309888767 0.0 0.0
0.005206837457544992 -0.0019404848947486737 0.0 0.004303154742892257 0.0 0.0
0.00976793201208562 -0.0018061356023451325 0.0 0.0014134578632448447 0.0 0.0
0.009942900563503648 -0.0018884583719472603 0.0 0.002402265494963479 0.0 0.0
0.010267704964619487 -0.002085906980887302 0.0 0.0008706598105249237 0.0 0.0
0.002825231098702516 -0.00034029507495409936 0.0 0.002561101941233556 0.0 0.0
0.0031091529076368793 -0.0008706641411778474 0.0 0.003367076816251475 0.0 0.0
0.001799816726877651 -0.0003424827517228019 0.0 0.002698525300746487 0.0 0.0
0.001968102667684546 5.664009961287367e-05 0.0 0.002159290960076766 0.0 0.0
0.0019006959691125576 0.00024035455612077608 0.0 0.0007577975853577543 0.0 0.0
0.010689398598582539 -0.002614934612607865 0.0 -0.0021569138059458854 0.0 0.0
0.011629824932641857 -0.0023974404041519548 0.0 -0.001641304127083026 0.0 0.0
0.01075502951413384 -0.0019385600834667567 0.0 -0.0025961671139418073 0.0 0.0
0.011127301549528096 -0.0036713040795025935 0.0 -0.0023614827213618867 0.0 0.0
0.010640336168834983 -0.0034844950218721783 0.0 -0.0016325896958735492 0.0 0.0
0.01142206079485189 -0.003465547972565691 0.0 -0.0013882068587892493 0.0 0.0
0.010855857289433729 -0.0017348222537832449 0.0 -0.0009945540611164614 0.0 0.0
0.010398185625769675 -0.0013851871345737753 0.0 0.0009462818051785586 0.0 0.0
0.0003471520052155952 -0.0002041989726879294 0.0 -0.0010551743020611425 0.0 0.0
0.0011003183753654465 -6.064883791130626e-06 0.0 -0.00026410075612998303 0.0 0.0
0.001394817958122338 0.00016775018266009661 0.0 -0.0007438723761149964 0.0 0.0
0.001194279329446643 0.00014619106264211236 0.0 0.0011646257369205618 0.0 0.0
0.011758987781833421 -0.001179058131603676 0.0 -0.000752636548397221 0.0 0.0
0.011365163057747985 -0.0014490630615375819 0.0 0.0005701394609019032 0.0 0.0
0.01066896264246441 -0.0015573399793112896 0.0 -0.0008062142505314385 0.0 0.0
0.010410783240488298 -0.00133941282654286 0.0 0.0015994248504621195 0.0 0.0
0.007545454638306537 -0.002324602217314408 0.0 0.0012935769650206004 0.0 0.0
0.019524381468943034 -0.003674826273331433 0.0 -0.01052279936062829 0.0 0.0
0.012528651537682048 -0.0022787168924385953 0.0 -0.0009629242494469895 0.0 0.0
0.016203641073206248 -0.0030607501076609714 0.0 -0.0015873362472166655 0.0 0.0
0.015882376747390164 -0.004014485314702183 0.0 -0.0062140110569625165 0.0 0.0
0.0016580817383579083 -0.004674219094392784 0.0 -0.0013291207394077326 0.0 0.0
0.0011054458129017841 -0.0013297716959042114 0.0 0.003595452774014376 0.0 0.0
0.001714975114278386 -0.0026623924039990404 0.0 0.0013969928427100542 0.0 0.0
0.0005286115588677212 -0.002321507000193297 0.0 0.0007276652018833926 0.0 0.0
0.019563670166997425 -0.003633890460527891 0.0 -0.009891853647080322 0.0 0.0
0.012548404870656803 -0.00257021165452884 0.0 1.470494259209719e-05 0.0 0.0
0.015985150330742375 -0.004031130246300599 0.0 -0.006148662049248424 0.0 0.0
0.010621392836670393 -0.0032266590374021645 0.0 0.0008586572010636645 0.0 0.0
0.0016640026515479522 -0.0044918373082262235 0.0 -0.0005697491789083443 0.0 0.0
0.0021982588639473666 -0.0017258897013309859 0.0 0.004907191929096007 0.0 0.0
0.0004974017935014674 -0.0021245031301591905 0.0 -0.000438105920035254 0.0 0.0
0.0016407649862556495 -0.004411937284218604 0.0 0.002218132426072078 0.0 0.0
0.0011507201944727652 -0.0013027677159344435 0.0 -0.002432079262450478 0.0 0.0
0.0017650035939405298 -0.0029637678816725275 0.0 -0.0019146929171492567 0.0 0.0
0.0004814358398944757 -0.0026303589992226657 0.0 -0.00048466607919561266 0.0 0.0
0.006690343530762824 -0.0020773583468783868 0.0 0.0021599837821378136 0.0 0.0
0.006722214138062413 -0.002372919911074002 0.0 0.0017681126594612032 0.0 0.0
0.019838410071332132 -0.0035998433745167042 0.0 0.010047871835847554 0.0 0.0
0.012512961112435383 -0.0024910312882829196 0.0 0.0008705735070268497 0.0 0.0
0.015981627404904754 -0.0029277836446217724 0.0 0.002455708641480545 0.0 0.0
0.015454212132096593 -0.0035863353530055913 0.0 0.005274969206778143 0.0 0.0
0.0016720444295219572 -0.004437378331354972 0.0 0.0021638543778981917 0.0 0.0
0.0009272416241581094 -0.001087515763729176 0.0 -0.002572439092349728 0.0 0.0
0.0016861569245855204 -0.0029195476057125892 0.0 -0.001988219930968888 0.0 0.0
0.0005313219190166141 -0.002599274048987403 0.0 -0.0006712384738076053 0.0 0.0
0.01938034166983789 -0.0034107572971915218 0.0 0.012436987370936898 0.0 0.0
0.012455736882398682 -0.002222606083317605 0.0 0.0020637479077808447 0.0 0.0
0.016528540943923566 -0.0031545915727462827 0.0 0.0018636904859707995 0.0 0.0
0.015801706056876207 -0.0037967589153520068 0.0 0.005521351547967936 0.0 0.0
0.007199864595319329 -0.0033298641878356365 0.0 -0.0045285866822713 0.0 0.0
0.009167080441527357 -0.0036377287627092137 0.0 -0.003627455046380615 0.0 0.0
0.007105038155626658 -0.0023766953684711788 0.0 -0.006113972270279894 0.0 0.0
0.00714817055728055 -0.002780535257396688 0.0 -0.00494857756911013 0.0 0.0
0.007188228451944868 -0.0034898830244216444 0.0 -0.004940651183933338 0.0 0.0
0.009030278911067922 -0.0036186367703630526 0.0 -0.0034654730698233972 0.0 0.0
0.007018704490651839 -0.00239134364825647 0.0 -0.006298211087547363 0.0 0.0
0.007095189060903617 -0.0027239174806659903 0.0 -0.00508646527118058 0.0 0.0
0.008621056793111377 -0.0026319110850251473 0.0 0.0006939339608995478 0.0 0.0
0.0025793265560921375 0.00045797839917418107 0.0 0.0005327965715222292 0.0 0.0
0.00641590684434705 -0.0017796880402234701 0.0 0.0015565042063870951 0.0 0.0
0.007435091567204344 -0.0023060568572211178 0.0 0.0014108300510920838 0.0 0.0
0.006417972209961632 -0.002040623724784387 0.0 0.0013118151696453085 0.0 0.0
0.008308403426181707 -0.002160622752489315 0.0 0.0073684934903637846 0.0 0.0
0.00622499678903337 -0.002157621400961946 0.0 0.003624372439336906 0.0 0.0
0.004910540648486755 -0.002104966158517402 0.0 0.0043165744468306 0.0 0.0
0.002947079984888662 -0.0006334622311898585 0.0 -0.005645502229385046 0.0 0.0
0.0029199462163009005 -0.00018402996829377377 0.0 -0.0023212401970227284 0.0 0.0
0.0020875127694191115 0.000239478838379735 0.0 -0.001329650778211993 0.0 0.0
0.010898902812944714 -0.0032872909753010465 0.0 -0.00038435219809816734 0.0 0.0
0.010655511509644708 -0.0033931848756465453 0.0 -0.0010459190528388715 0.0 0.0
0.010654093139770768 -0.0033086237965882516 0.0 -0.0010844463992852132 0.0 0.0
0.0028742602572207204 -0.0006929273626339917 0.0 -0.005425694185388356 0.0 0.0
0.010149914746537855 -0.0032098512139054135 0.0 0.0003190561868352615 0.0 0.0
0.009533838682818915 -0.002993749280422646 0.0 2.8353074812503473e-05 0.0 0.0
0.010209218570459533 -0.0031514810263319863 0.0 0.00011989982292948988 0.0 0.0
0.006053391632593455 -0.0024221999203876176 0.0 -0.003240443349977553 0.0 0.0
0.00714384200686672 -0.0023079090315446804 0.0 -0.0019070084145402493 0.0 0.0
0.009839672568572877 -0.0037608131211815353 0.0 0.0015430098532278232 0.0 0.0
0.01001416039743648 -0.0038570029714407733 0.0 0.0035987442709936555 0.0 0.0
0.008434632684518856 -0.0029544061189318294 0.0 0.004026620638032028 0.0 0.0
0.008153221317617938 -0.0031278649014845686 0.0 0.005251412160580827 0.0 0.0
0.010208383307561096 -0.003403754240386296 0.0 0.00244646612052056 0.0 0.0
0.01012212778888591 -0.0030839875208265102 0.0 0.0027768594498306202 0.0 0.0
0.00992881115431559 -0.003183722216445223 0.0 0.0024989205918830165 0.0 0.0
0.010226332880289395 -0.0031537964196407045 0.0 0.0023089046881347025 0.0 0.0
0.008030742338724715 -0.002498775872879073 0.0 0.00062085071233487 0.0 0.0
0.00802336097646464 -0.002135259766854511 0.0 0.001231454160590715 0.0 0.0
0.008617642615545363 -0.0019149739581072987 0.0 0.0006131317188945288 0.0 0.0
0.0021673918561905814 0.00041659493628746526 0.0 0.0007251771340290002 0.0 0.0
0.0025188915686838453 0.0004495497536373995 0.0 0.00048484556488966393 0.0 0.0
0.01324180600392231 -0.001738805029562071 0.0 0.010600910169733496 0.0 0.0
0.013209033394904377 -0.0032338831118343147 0.0 0.009466966033146042 0.0 0.0
0.0022335127946191136 -0.002428589986224189 0.0 -0.0013424293778147196 0.0 0.0
0.0014793911750058033 -0.0020662577548194935 0.0 -0.0012887474169909381 0.0 0.0
0.0022287891995499826 -0.0024272371132456547 0.0 -0.0011078031265115054 0.0 0.0
0.0013406389761576468 -0.0019427276601423783 0.0 -0.0011596486992194056 0.0 0.0
0.01194142119673756 -0.0036079281146114 0.0 -4.283288228640542e-05 0.0 0.0
0.011297312848772487 -0.003383016721692049 0.0 -1.308700969644e-05 0.0 0.0
0.00345743971917388 -0.00023618693660815843 0.0 0.0005559323261915862 0.0 0.0
0.008655224091615277 -0.0025766629731282173 0.0 0.0011503754869295127 0.0 0.0
0.01026718540182342 -0.003363982069890817 0.0 -0.002023612020619424 0.0 0.0
0.010267700002820512 -0.0035196944518644004 0.0 -0.002305064439708994 0.0 0.0
0.010268454993460019 -0.003391693272853255 0.0 -0.002008515767478909 0.0 0.0
0.0033139211571637864 -0.0006308283040535566 0.0 -0.0032918015090456654 0.0 0.0
0.002493840776727013 -0.00019394382294833905 0.0 -0.002186203699549343 0.0 0.0
0.0110295323038503 -0.003342966339462114 0.0 -0.00044324826033366764 0.0 0.0
0.011011960106588947 -0.0034438546664951795 0.0 -0.0007638303396240794 0.0 0.0
0.008791200963792392 -0.002002297037476508 0.0 -0.0014866325893799655 0.0 0.0
0.008864060874476914 -0.0028229509076248844 0.0 -0.00010877123117862195 0.0 0.0
0.008958888512339225 -0.0029366931295653313 0.0 -7.218807774809696e-05 0.0 0.0
0.008849268351327794 -0.002930875063179423 0.0 -0.0003871701482338775 0.0 0.0
0.008959052866670064 -0.002836075074726843 0.0 0.000198420086642866 0.0 0.0
0.014327727921381699 -0.003028083777668073 0.0 -0.0035024173155321376 0.0 0.0
0.011246832307059307 -0.0031037448558948813 0.0 -0.0022135780407197964 0.0 0.0
0.010246103619315891 -0.0031538982514536934 0.0 -0.0016698975450261042 0.0 0.0
0.014318561662835586 -0.0030829647689953887 0.0 -0.0028762918833118156 0.0 0.0
0.011506990173266923 -0.0031790639872895515 0.0 -0.001725697702480794 0.0 0.0
0.009686957900409725 -0.0022524675048206932 0.0 0.002671886937064532 0.0 0.0
0.009853611463672321 -0.0024310545399347933 0.0 0.0019036718778543855 0.0 0.0
0.0027946087537853437 -0.00010113493230600248 0.0 0.0019049616001166406 0.0 0.0
0.00233339039522114 0.00016669689658595915 0.0 0.0015461957387629816 0.0 0.0
0.002802317441016583 8.414302419265662e-05 0.0 0.0018293299152253827 0.0 0.0
0.01207511549898617 -0.00364296660872286 0.0 -6.721956472102632e-05 0.0 0.0
0.011420698716419792 -0.00342234422878908 0.0 0.00022367493749087626 0.0 0.0
0.011356149083728229 -0.0034426611299722006 0.0 -8.287948286163837e-05 0.0 0.0
0.004684191486188816 -0.0022525609063089 0.0 -0.006144053115106751 0.0 0.0
0.007070035032693059 -0.0032896104006462125 0.0 -0.004047580663828028 0.0 0.0
0.005927363258834278 -0.0029357128750082846 0.0 -0.005798420673473161 0.0 0.0
0.005602293804182867 -0.002641586639819043 0.0 -0.004239331120527649 0.0 0.0
0.014231213470345845 -0.0030329229043297243 0.0 0.0027038902131531622 0.0 0.0
0.011251320479062014 -0.0030770197834202786 0.0 0.0016370817690651261 0.0 0.0
0.003914305887136954 -0.0006888546471166771 0.0 0.0026692669151631675 0.0 0.0
0.0033842584190783565 -0.0004528855978336854 0.0 0.00273407872592122 0.0 0.0
0.004446240942774654 -0.0009166565425021075 0.0 0.001901767454342649 0.0 0.0
0.010501504263681398 -0.002049453257622215 0.0 -0.0020620031493771493 0.0 0.0
0.0029162107045261065 -0.002382652797544357 0.0 0.002888768404458654 0.0 0.0
0.0030654092954638112 -0.001951087877418838 0.0 0.004866706182511057 0.0 0.0
0.005143302769318847 -0.0011008438022530667 0.0 -0.0020982055480828488 0.0 0.0
0.0051816137142798036 -0.0016773828964934366 0.0 -0.002916447499006738 0.0 0.0
0.004413054598665887 -0.001095402549905311 0.0 -0.002204784219388133 0.0 0.0
0.011295095943294892 -0.0034467622631710916 0.0 -0.00010253267386909487 0.0 0.0
0.010704539598015908 -0.003201048277489016 0.0 -0.00011645572963276968 0.0 0.0
0.010305375554439071 -0.0033591948835149793 0.0 -0.001981686214462791 0.0 0.0
0.010267136491066087 -0.0032273642567823557 0.0 -0.0022510276783321084 0.0 0.0
0.009133936956056812 -0.002525846925906877 0.0 0.0022834118274785396 0.0 0.0
0.008619665141000921 -0.0026347118809298027 0.0 0.0012954229007073924 0.0 0.0
0.003265082140010561 -0.00019777298452458656 0.0 0.0011403294335760004 0.0 0.0
0.004070171682707756 -0.00023137164223639012 0.0 0.0007392915265359954 0.0 0.0
0.011225100858487658 -0.003375256489561681 0.0 -0.00018620923633855778 0.0 0.0
0.011154335610871799 -0.003390860694336409 0.0 0.00040696838836957214 0.0 0.0
0.011948079621729708 -0.00364673131712296 0.0 -5.925991676851666e-05 0.0 0.0
0.0031243949418407885 -0.00010202676595791674 0.0 0.0019094215822196177 0.0 0.0
0.002852264396125598 0.0001582749456279335 0.0 0.0012026683687137232 0.0 0.0
0.0108051896554026 -0.0032181505940924505 0.0 -0.00036748382745875347 0.0 0.0
0.012617531599321455 -0.00278148739524489 0.0 -0.0057955314542839365 0.0 0.0
0.012735924528240775 -0.0027467584804564057 0.0 -0.006152454470215896 0.0 0.0
0.004396289862148035 -0.0026908953235432933 0.0 0.003511043972789276 0.0 0.0
0.012794906873301787 -0.0028196216968161755 0.0 0.005938312087706311 0.0 0.0
0.0013757774739257544 0.0001252614685623519 0.0 -0.0009533250542528883 0.0 0.0
0.004429735025478249 -0.0007323454670189952 0.0 0.00026144005420262323 0.0 0.0
0.004450807304880927 -0.0008656193326845541 0.0 0.0011668715996909496 0.0 0.0
0.004848763151038132 -0.0010297068096152828 0.0 0.000635613205446469 0.0 0.0
0.005426078263379201 -0.0010285053820370434 0.0 0.0005789228719759384 0.0 0.0
0.004429735025478249 -0.00047782573321395355 0.0 0.0002424001325290682 0.0 0.0
0.0042352714900043 -0.0003223471766883035 0.0 0.000751237019236916 0.0 0.0
0.003524254285485192 -0.00031388147450887166 0.0 0.0005864164693820343 0.0 0.0
0.00976046141912644 -0.0029697317048175548 0.0 -0.0008925428298243651 0.0 0.0
0.009616968302262816 -0.0028584813296582273 0.0 -0.0009647138593164677 0.0 0.0
0.009691533319107555 -0.002987401653620672 0.0 -0.00203912753684396 0.0 0.0
0.010067989241499316 -0.003057189506269306 0.0 -0.001987898468458168 0.0 0.0
0.010677537055840805 -0.003157978250135373 0.0 0.0002606342754665203 0.0 0.0
0.010683286532415445 -0.003400865698338843 0.0 0.0002080998657224449 0.0 0.0
0.009671387276216744 -0.002648820216554243 0.0 0.002477648758354496 0.0 0.0
0.00943866000506264 -0.002066659623644978 0.0 0.002164501110067796 0.0 0.0
0.009222533738840431 -0.0022707384498782957 0.0 0.0015081614206963918 0.0 0.0
0.010461331712898274 -0.0031975165461878355 0.0 -0.0008101262621151555 0.0 0.0
0.010117559358756044 -0.0032004139963729 0.0 -0.0018326783922235218 0.0 0.0
0.010106371933969127 -0.003011075157530539 0.0 -0.0008661473163180076 0.0 0.0
0.012958411666434418 -0.002988435964247752 0.0 -0.009008235822036059 0.0 0.0
0.0009712031420452752 -0.0012716377450312753 0.0 0.0016951731871143738 0.0 0.0
0.012671042813382292 -0.002830196304942085 0.0 -0.008569727985624762 0.0 0.0
0.012821332479980123 -0.002969595498263603 0.0 0.008824108126736186 0.0 0.0
0.010069121279838094 -0.0015294169592811636 0.0 -0.00038541304357967744 0.0 0.0
0.002295916002612447 -0.0006224590283689484 0.0 -0.0032311146417874463 0.0 0.0
0.0024256900154897044 -0.00046531910971940246 0.0 -0.0025258578523056014 0.0 0.0
0.0019261071918436345 -0.000246363828877761 0.0 -0.0027719098430602634 0.0 0.0
0.007462600425596524 -0.002137331967479311 0.0 0.0005839694594723345 0.0 0.0
0.008748276367380223 -0.0026191948853967195 0.0 0.0010387264268169154 0.0 0.0
0.011535735082304826 -0.0031291685097415076 0.0 0.002690055770753784 0.0 0.0
0.010710893836884497 -0.00241095755657667 0.0 0.0025419399629376073 0.0 0.0
0.005668782774756548 -0.001422397572842705 0.0 -1.3826443190155247e-05 0.0 0.0
0.0065083475048442405 -0.0016478258137850865 0.0 0.00064182322754409 0.0 0.0
0.005855145122844921 -0.0013078342111278347 0.0 0.0011601917966787244 0.0 0.0
0.003170926179678457 0.00012652003992274485 0.0 5.426144479065936e-05 0.0 0.0
0.003277766104800267 0.00017993715099873242 0.0 0.0008107646369658918 0.0 0.0
0.008692961457104048 -0.0007471864591433799 0.0 -0.009125820554681509 0.0 0.0
0.008675544032459591 -0.0007621072542744554 0.0 -0.009150436473730345 0.0 0.0
0.009512522761692607 -0.002182310231591253 0.0 -0.0022467082725414955 0.0 0.0
0.009513385164383091 -0.0026011057307748706 0.0 -0.002210921786999151 0.0 0.0
0.011321359855406943 -0.0034146560511480583 0.0 1.3125689574127516e-05 0.0 0.0
0.011150120895609184 -0.003419727500329058 0.0 -0.0005957804365127719 0.0 0.0
0.011736338265198454 -0.003523599345279488 0.0 -0.00011958873466969607 0.0 0.0
0.0037286468423777946 -0.0010411579933277595 0.0 0.0056189033104278585 0.0 0.0
0.008685336466134529 -0.0007288587275892065 0.0 0.009093752174012872 0.0 0.0
0.00700294241783693 -0.0008723674318643256 0.0 0.008083246592477375 0.0 0.0
0.009057748244681314 -0.0008952272716718848 0.0 0.00945171577647011 0.0 0.0
0.0022624642218245783 0.0005584691442582761 0.0 0.00012450114877153497 0.0 0.0
0.004190727633477828 -0.001076738086927459 0.0 -0.005440076565898781 0.0 0.0
0.00419712446474331 -0.0013120804240490842 0.0 -0.00504303570822795 0.0 0.0
0.004176410045124191 -0.0010582850811586015 0.0 -0.005319705360607903 0.0 0.0
0.004178482289296279 -0.00123185747536667 0.0 -0.005198254085021926 0.0 0.0
0.011139826237816335 -0.00258728227388893 0.0 -0.0028439550203843457 0.0 0.0
0.01094578184271682 -0.00295799246596129 0.0 -0.0022834046229437653 0.0 0.0
0.011045830079622947 -0.0031797560696787096 0.0 -0.002956886386497666 0.0 0.0
0.0015333286632493448 -0.0009733372763681726 0.0 -0.0012022491754324592 0.0 0.0
0.0009758059620820769 -0.00038489781565691564 0.0 -0.002720116386993529 0.0 0.0
0.0029382520099066195 -0.0016252358314461472 0.0 0.004837389250950435 0.0 0.0
0.004916335203378655 -0.0018316857413698834 0.0 0.00422797197867799 0.0 0.0
0.009296673961429934 -0.002928839959966803 0.0 0.0003836301584713049 0.0 0.0
0.00954446023787462 -0.003013028998995148 0.0 -0.0001882914116305718 0.0 0.0
0.008801471962520534 -0.0021892631507603524 0.0 -0.0011845421709268445 0.0 0.0
0.008696633294747767 -0.0025863883442548627 0.0 -7.201482687670428e-05 0.0 0.0
0.008745899704818724 -0.0018327158603199667 0.0 -0.0004781660238239523 0.0 0.0
0.007901712116546604 -0.0018894187110152089 0.0 0.00016385761757445284 0.0 0.0
0.002447457484142407 0.0005560116975774076 0.0 -0.00021469960167834132 0.0 0.0
0.002037320733069864 0.0005524901446433764 0.0 -0.0002930760491041684 0.0 0.0
0.0022374325769253522 0.000586476126145406 0.0 6.162978795952109e-05 0.0 0.0
0.0035557615326417963 -0.0014469073160668419 0.0 0.004296481261105781 0.0 0.0
0.010829000093484998 -0.002718842076782968 0.0 0.0027871304815419995 0.0 0.0
0.008647737369436895 -0.0022522328139313727 0.0 0.0009554991758621434 0.0 0.0
0.0016840574089343197 0.000481179279885627 0.0 0.0002998372898123532 0.0 0.0
0.002108107099993109 0.0002656625730932446 0.0 0.0009043405111729061 0.0 0.0
0.0019082407793427486 0.0003930954903291987 0.0 -0.0005669191341957751 0.0 0.0
0.011845657378873678 -0.0030978089217404 0.0 -0.0009421919961060208 0.0 0.0
0.01170268351420102 -0.0033804674637898068 0.0 -0.0005305013492754394 0.0 0.0
0.011225984110952165 -0.002968628166662879 0.0 -0.0027074500759337056 0.0 0.0
0.0031618192608411644 -0.001820258481863413 0.0 -0.005252137733426105 0.0 0.0
0.0046935282616182225 -0.0018951958566360769 0.0 -0.00398621931391639 0.0 0.0
0.0038477442886703517 -0.001686920282196515 0.0 -0.00479249919975306 0.0 0.0
0.01096509701357734 -0.0033611187510278473 0.0 -0.0006461896192034161 0.0 0.0
0.010454590436226131 -0.0031351306958718184 0.0 -0.0006517807929417377 0.0 0.0
0.010545833514486576 -0.0033457395493802222 0.0 -0.001467185377508621 0.0 0.0
0.008370609304777454 -0.0026378823157572374 0.0 -0.0004613689675919859 0.0 0.0
0.007848343791659579 -0.002352719490662035 0.0 0.00015688696434504323 0.0 0.0
0.005683120275480333 -0.0016368456933901383 0.0 0.0019526153744406863 0.0 0.0
0.006181800279652427 -0.0016108570934459448 0.0 0.0017175877000383984 0.0 0.0
0.004950596536481614 -0.0013205238274739163 0.0 0.0014496457742944155 0.0 0.0
0.003024588450698241 -0.0010810343652568645 0.0 0.003910816096538222 0.0 0.0
0.004109829181184008 -0.00107886039355172 0.0 0.0036633163294424037 0.0 0.0
0.0025744404128669462 0.0004486722265604065 0.0 0.0006631617157181659 0.0 0.0
0.0019522601673390566 0.0004370013799407414 0.0 0.0008932808872535811 0.0 0.0
0.01279848878105679 -0.0029352960050237943 0.0 0.00014538186866465581 0.0 0.0
0.011337275931610352 -0.0022229242458882002 0.0 0.0022217588790506095 0.0 0.0
0.011303130300308606 -0.0026904888418840187 0.0 0.001879284193473555 0.0 0.0
0.003485185336662644 -0.0016815982301791078 0.0 0.0036355042008214943 0.0 0.0
0.002271740542174598 -0.0009465342921470138 0.0 0.004095874115387281 0.0 0.0
0.003478114287384773 -0.0009866913846710446 0.0 0.0032691454066228545 0.0 0.0
0.0068958932766391215 -0.0019825751897735652 0.0 0.0010361696367831973 0.0 0.0
0.006039600982856441 -0.0016246387738546673 0.0 0.0005834480561094785 0.0 0.0
0.006300796024311939 -0.0019639283893317268 0.0 0.0010751142315965669 0.0 0.0
0.009222615474287245 -0.002818463545244765 0.0 -0.004633366758015725 0.0 0.0
0.006765444058593875 -0.0004879006356547366 0.0 -0.00863972219390699 0.0 0.0
0.009215678191058327 -0.002922396527925579 0.0 -0.004579224483145579 0.0 0.0
0.010170137995291977 -0.003184556630043524 0.0 -0.0028190596761438146 0.0 0.0
0.010501744687933629 -0.0031796270015988504 0.0 -0.003188714396382941 0.0 0.0
0.009981847283514745 -0.002805826986084583 0.0 -0.0029864284665393898 0.0 0.0
0.010187180830821402 -0.003232955313248624 0.0 -0.002928005814030677 0.0 0.0
0.005778185923994997 -0.0016435741330619973 0.0 -0.002196794762606223 0.0 0.0
0.005150658686398302 -0.001561834106832996 0.0 -0.003233453923871839 0.0 0.0
0.00421783395420583 -0.000890624460782502 0.0 -0.002278699137469132 0.0 0.0
0.0055511599878839135 -0.001640286945483238 0.0 -0.0022085550358175512 0.0 0.0
0.00953880928235118 -0.0017720841991099405 0.0 0.0008146276735132959 0.0 0.0
0.009907495389549667 -0.0020932144381880877 0.0 -0.0010986469520703334 0.0 0.0
0.009295301998074885 -0.0028702356834990144 0.0 -0.004528720587441772 0.0 0.0
0.0067356911244506185 -0.0004985645127014585 0.0 -0.008503964737865695 0.0 0.0
0.009269523444568398 -0.0029216008687303883 0.0 -0.004425432112409255 0.0 0.0
0.0062125187704603 -0.0018639162281482297 0.0 -0.0008585733192675032 0.0 0.0
0.007977116045971934 -0.0025145473131462023 0.0 -0.0006406233053447754 0.0 0.0
0.009446244682749405 -0.002780978025877677 0.0 0.004876656653548919 0.0 0.0
0.0066707670515675915 -0.00039375911976894697 0.0 0.008308533346355155 0.0 0.0
0.009317574612689727 -0.002978531197085741 0.0 0.004451141629532154 0.0 0.0
0.007049826082990321 -0.0024022055544118967 0.0 0.00563081381721021 0.0 0.0
0.003907489468057884 -0.0009872806731497947 0.0 0.004921698756298991 0.0 0.0
0.004804273507006601 -0.0021646933228135655 0.0 0.005488247843454071 0.0 0.0
0.010402436501378457 -0.003162431000550435 0.0 0.0031814810627032917 0.0 0.0
0.010125896261563995 -0.0033121748146718345 0.0 0.002773163957438195 0.0 0.0
0.008634824157189164 -0.002523800162324119 0.0 0.0010765493153117038 0.0 0.0
0.008551106749694497 -0.0020215951735833917 0.0 0.0003971331505858576 0.0 0.0
0.013792867851456524 -0.0019435687215132863 0.0 -0.010937216804068456 0.0 0.0
0.008624032306118981 -0.001346752500380806 0.0 -0.008451580279002141 0.0 0.0
0.0021107452616860867 -0.0028866177017243754 0.0 0.0012921525782674925 0.0 0.0
0.0016189301944931067 -0.00028175682919967353 0.0 0.004098760440702344 0.0 0.0
0.013995081266705796 -0.0018741032504769588 0.0 -0.010846043664860658 0.0 0.0
0.008553270014723113 -0.0014074016645263584 0.0 -0.00838169348321148 0.0 0.0
0.013876441381771007 -0.001965030044692931 0.0 0.01088705595758494 0.0 0.0
0.008633574717502555 -0.0014492436939579148 0.0 0.008285037289309205 0.0 0.0
0.008317471000310835 -0.0026318606170338092 0.0 -0.0005916568310325382 0.0 0.0
0.0073784601423501905 -0.002415047121101864 0.0 -0.0005780213070019045 0.0 0.0
0.007503242115582731 -0.0022176147163458435 0.0 -0.00044829014396553096 0.0 0.0
0.007133286614882328 -0.0021762757310505587 0.0 -0.00031085774526560736 0.0 0.0
0.00020015925045072103 -0.0007150860331332776 0.0 0.00026217920470435543 0.0 0.0
0.001395148147824904 -0.0010207991575769543 0.0 0.0023088888114950884 0.0 0.0
0.0003786234167515168 -0.00101732431694114 0.0 0.0022974816336547715 0.0 0.0
0.0007066291414667136 -0.0007460785906048019 0.0 0.0002676361136354638 0.0 0.0
0.011076779377005075 -0.003326899033534843 0.0 0.0002937991221739211 0.0 0.0
0.011733687042790111 -0.003535365402225543 0.0 0.00014441974902210802 0.0 0.0
0.006757278339243433 -0.001965469622227718 0.0 -0.00029054459490367315 0.0 0.0
0.007612039895165703 -0.0021912879640467887 0.0 0.0004672692217451079 0.0 0.0
0.0011616333403645235 5.28437002281501e-05 0.0 0.0007289241453993494 0.0 0.0
0.0014154059613755016 0.00018154098729177698 0.0 0.001161167127214216 0.0 0.0
0.007772392112395499 -0.0025123207854514844 0.0 0.0007825648747723131 0.0 0.0
0.007328867645005274 -0.0021840062585766727 0.0 0.00021105348926300435 0.0 0.0
0.010983782962726611 -0.0036941509544065054 0.0 -0.002188851382405259 0.0 0.0
0.010662105003954009 -0.003931470874077084 0.0 -0.0015728646529523035 0.0 0.0
0.006442351740617705 -0.0027906537866264607 0.0 -0.00411698495235762 0.0 0.0
0.00727893017846349 -0.0027636281698514703 0.0 -0.002538115775950263 0.0 0.0
0.009091474673946373 -0.001813227008669288 0.0 0.0015115979337551825 0.0 0.0
0.009235509485802117 -0.0024308716734145128 0.0 0.0001420809774769112 0.0 0.0
0.009094570467274632 -0.0022732013529350933 0.0 0.0015218169993126557 0.0 0.0
0.009230821814887675 -0.0020304495824621308 0.0 0.00013217353237214916 0.0 0.0
0.005701358838198958 -0.002697013195062537 0.0 0.003889978671555173 0.0 0.0
0.007005038043535729 -0.0028247461527688422 0.0 0.005815993906487366 0.0 0.0
0.013271104859020612 -0.0020779562677641084 0.0 -0.0009685496847252322 0.0 0.0
0.012003362121219203 -0.003610263920725054 0.0 8.68663507837425e-05 0.0 0.0
0.01148492294880507 -0.003458488194328315 0.0 -0.00028100785768425066 0.0 0.0
0.010312263760630424 -0.0029173667271083087 0.0 -0.0027360538065784833 0.0 0.0
0.010126915044726043 -0.002671990843773203 0.0 -0.0032126186375953762 0.0 0.0
0.010559911798243733 -0.003577101060265063 0.0 -0.0025168115497041094 0.0 0.0
0.010481044358037303 -0.003526702774889201 0.0 -0.002495271016458484 0.0 0.0
0.00672725401378306 -0.002708200834932662 0.0 -0.002999974431533617 0.0 0.0
0.006198234521133411 -0.002117080026971457 0.0 -0.0026160592221987546 0.0 0.0
0.010770246337658683 -0.0034365844590611774 0.0 -0.0028366359157706716 0.0 0.0
0.010685522399903266 -0.0033846814979758932 0.0 -0.002151085198432101 0.0 0.0
0.005783269429958354 -0.001975874810322211 0.0 -0.003575579447732225 0.0 0.0
0.005181391989977069 -0.0019685890670802647 0.0 -0.0035869945085646123 0.0 0.0
0.010995975586303969 -0.003305397426496541 0.0 0.00019423035975148217 0.0 0.0
0.011066295813993154 -0.003461030755821489 0.0 0.0006929329239564949 0.0 0.0
0.011164630534657369 -0.003429058561593437 0.0 0.0005607349358767305 0.0 0.0
0.007054667149373028 -0.001979919097826862 0.0 6.79093777302454e-05 0.0 0.0
0.006370225040318332 -0.001807772505893871 0.0 -0.0006555684039132193 0.0 0.0
0.007063435395899348 -0.001917108331044276 0.0 -0.0006495805109766953 0.0 0.0
0.0018309992936924313 0.00034832808104132834 0.0 -0.0010597433826850747 0.0 0.0
0.0024671578228808028 0.00034387067452319384 0.0 -0.0009468698230831671 0.0 0.0
0.007769878341587354 -0.0023174888936771526 0.0 0.00047444954666325985 0.0 0.0
0.007771061910120722 -0.0020210102750486854 0.0 0.0005464829192296924 0.0 0.0
0.008384477483250856 -0.0024839100294437866 0.0 -0.00024614710723727586 0.0 0.0
0.010189075641262483 -0.0028416529288077946 0.0 -0.003122298321729597 0.0 0.0
0.009724449709796613 -0.002753234729933239 0.0 -0.0027434435856598435 0.0 0.0
0.01018706825690708 -0.0030095838770018146 0.0 -0.00308540600578169 0.0 0.0
0.011404808615799455 -0.003416979173761457 0.0 -2.3895670629353605e-05 0.0 0.0
0.011381559573990369 -0.0034750746766906704 0.0 -0.0002166327768303583 0.0 0.0
0.011203774129545874 -0.003353762209839746 0.0 0.0002489937328947617 0.0 0.0
0.009195630474080816 -0.0015517862238952768 0.0 0.00041943267828150124 0.0 0.0
0.009645517161098275 -0.0023590860129189817 0.0 0.000733423699173473 0.0 0.0
0.009189963308041145 -0.002575200430237526 0.0 0.0006020826408830006 0.0 0.0
0.011473846570398981 -0.0017627436279964714 0.0 0.0002320038394889607 0.0 0.0
0.012130916262503783 -0.002237344951197589 0.0 0.0009987102866835006 0.0 0.0
0.010852358268000734 -0.001598577075558931 0.0 0.002171398253626047 0.0 0.0
0.009999370769167069 -0.0017787649160665928 0.0 -0.0020164152956201123 0.0 0.0
0.009995773972186523 -0.0024893902194572937 0.0 -0.0022167314461907584 0.0 0.0
0.0013119399223702477 -0.00018162796061579715 0.0 0.0007418505829750871 0.0 0.0
0.002349774786921938 -0.0010623030130252516 0.0 0.002853249810961847 0.0 0.0
0.0013843783550339661 -0.00029306080300968256 0.0 0.002848013438679308 0.0 0.0
0.0080727913743096 -0.0030274112659849084 0.0 0.005116136315162095 0.0 0.0
0.004501075155019352 -0.0013213331779775989 0.0 0.005332779257511994 0.0 0.0
0.004434528406250804 -0.000993131087779535 0.0 0.004868832654772389 0.0 0.0
0.0075387288074027226 -0.0027015986942528613 0.0 -0.0013754031657008357 0.0 0.0
0.007218853265286276 -0.002234997568341864 0.0 -0.0011218541743151771 0.0 0.0
0.007338288718012259 -0.0022385426908049146 0.0 -0.0011927838564492407 0.0 0.0
0.005139666124609921 -0.0015290325185686009 0.0 -0.0017151075864249056 0.0 0.0
0.006356043043052165 -0.0021641235208778448 0.0 -0.002146691064089422 0.0 0.0
0.006129894728471641 -0.0017215955988612967 0.0 -0.0018138564256435577 0.0 0.0
0.00012617884634733012 -0.0007935790195749762 0.0 0.0003617184203271919 0.0 0.0
0.0009341187235741566 -0.0005292867328753233 0.0 0.001478361095882493 0.0 0.0
0.001179319897520681 -0.0008898526341629236 0.0 0.002205426086311929 0.0 0.0
0.0014082084542059725 -0.0021217051539052243 0.0 0.0024694036334492638 0.0 0.0
0.006875757706696489 -0.0018891399262978142 0.0 0.00046035424073144504 0.0 0.0
0.008108360580638503 -0.002499850756210849 0.0 0.0005149015089134373 0.0 0.0
0.00817429517397408 -0.002094798476345437 0.0 0.001366326290312343 0.0 0.0
0.01689959356851328 -0.002983156896679065 0.0 -0.001324557946188268 0.0 0.0
0.013858642105168404 -0.001824058235336188 0.0 0.001265874169658049 0.0 0.0
0.011844597527186015 -0.0013619230982597624 0.0 0.0011718346802865993 0.0 0.0
0.0025308461960424355 0.0005148791609100659 0.0 4.1924795384208624e-05 0.0 0.0
0.0028555977004698224 0.0003324541856376262 0.0 0.00037513265232425735 0.0 0.0
0.0026582287795535037 0.00032486423966116354 0.0 0.0004972022668475393 0.0 0.0
0.0020644901396329324 0.0002721352971703714 0.0 -0.0007010799616622761 0.0 0.0
0.0016096996847756173 0.00042511957119736356 0.0 0.0004381034017867831 0.0 0.0
0.002202489890502965 0.0004615306025413067 0.0 0.0001370963953169109 0.0 0.0
0.005103081844284749 -0.0024146974444652913 0.0 0.00547567971415866 0.0 0.0
0.002043855399306335 -0.0011003668518708744 0.0 0.0032431832924727684 0.0 0.0
0.013996674752286033 -0.0023697803166215694 0.0 -0.0016573459316665384 0.0 0.0
0.013865141163162465 -0.0022229011544406575 0.0 -0.00025226900708251454 0.0 0.0
0.016166491357040118 -0.0031105582019752 0.0 -0.0007368898076514918 0.0 0.0
0.0034218058671962037 -0.00021017241660571673 0.0 -0.001794251590755096 0.0 0.0
0.0024164313311124813 0.0002572161319912558 0.0 -0.0011184827560343953 0.0 0.0
0.0029692585644732206 -0.00018043022116773742 0.0 -0.0019552600845236107 0.0 0.0
0.002860659038778912 0.0002257058445509965 0.0 -0.0009610575715850098 0.0 0.0
0.006937077160409255 -0.0030342915836098112 0.0 0.0039990189225798806 0.0 0.0
0.00692931414799397 -0.0030627909916688296 0.0 0.00410296536750069 0.0 0.0
0.006919206961083252 -0.003040870341482191 0.0 0.00403615556336772 0.0 0.0
0.006945964189104162 -0.003057057335497229 0.0 0.004066760735618513 0.0 0.0
0.012292905121138916 -0.0019232215222594953 0.0 0.0014562973081610753 0.0 0.0
0.013851979056755495 -0.0020297330811980194 0.0 -0.000284330705039932 0.0 0.0
0.0023652873540973146 -0.0025803978717764547 0.0 0.00080041551646131 0.0 0.0
0.011745619987157967 -0.0035438115268628945 0.0 4.0718503273451476e-05 0.0 0.0
0.011189499329048988 -0.003355392437712783 0.0 0.00020942253897638513 0.0 0.0
0.009265583650023073 -0.002509720638822519 0.0 -0.0008884786002326603 0.0 0.0
0.009272755925392296 -0.0017173208705417546 0.0 -0.0010532327357006823 0.0 0.0
0.007769988889026247 -0.0024138897370871368 0.0 -0.00021265539469196148 0.0 0.0
0.008320414062686368 -0.002577191942509688 0.0 0.00043413377747786655 0.0 0.0
0.008411848693242754 -0.0026145651815388735 0.0 1.350803553052532e-05 0.0 0.0
0.0074248876906695405 -0.0021683801173311493 0.0 0.0005495746196212247 0.0 0.0
0.011528902404830073 -0.001745113084240673 0.0 -0.001852775852491652 0.0 0.0
0.011375487665183023 -0.0015032169927590468 0.0 0.00022250667931689606 0.0 0.0
0.012688352417629589 -0.0020159040561188012 0.0 0.00010801193198901101 0.0 0.0
0.012481816248363984 -0.0016031880011151353 0.0 -0.0011753662142920491 0.0 0.0
0.0014358816024224175 0.00019403662921969878 0.0 -0.0008277301390845412 0.0 0.0
0.0016544700574714494 -5.288648630676074e-06 0.0 -0.000708863364688516 0.0 0.0
0.001024569037289813 -0.00029193543184252366 0.0 0.0012740040031943463 0.0 0.0
0.0005787951702931199 -3.099164221508771e-05 0.0 -0.0010549367856927915 0.0 0.0
0.002030718716766501 0.00021774075985948882 0.0 -0.0014759131047473242 0.0 0.0
0.0016446535319140157 0.00038810807349913545 0.0 -0.0004067532497082516 0.0 0.0
0.0022653825888952206 0.0005134091304189424 0.0 -0.0005605796954448183 0.0 0.0
0.0020604371271829847 0.0005019206508937377 0.0 4.343865160898533e-05 0.0 0.0
0.0023229618737104496 0.0004980218557505307 0.0 9.332587570416023e-05 0.0 0.0
0.002027816265995269 0.0005147009137895821 0.0 -0.0006221839857830161 0.0 0.0
0.0029288101092992264 -0.002637614444732591 0.0 0.0031263125505025177 0.0 0.0
0.0008305496817964386 -0.0016001268967542961 0.0 0.0013097679961512326 0.0 0.0
0.0026780960779694968 -0.0018675315642191041 0.0 0.00461114313240802 0.0 0.0
0.012032402030295054 -0.0035869117666108147 0.0 -0.000115640140724941 0.0 0.0
0.011384206043319023 -0.0034219148566555987 0.0 0.0003342194867723691 0.0 0.0
0.011299301454942678 -0.0035041069799380473 0.0 0.00031862569498514876 0.0 0.0
0.01133854910417656 -0.003423198545713095 0.0 7.992428198255047e-05 0.0 0.0
0.010109291466422948 -0.0031241322997131063 0.0 0.0002677127325707374 0.0 0.0
0.01056432041299677 -0.0032259233653729805 0.0 -0.0002546476260566182 0.0 0.0
0.009784919355567315 -0.0030345634887378736 0.0 -0.0002529758017250257 0.0 0.0
0.011613464426677295 -0.0035099727995754355 0.0 -0.00031164785624044743 0.0 0.0
0.011555616707776356 -0.0034889923573152536 0.0 0.00030719033724139425 0.0 0.0
0.012054303262807986 -0.0036970349946524685 0.0 4.505710141584419e-05 0.0 0.0
0.01119961371270869 -0.0032656026598257555 0.0 -0.00011927649706114645 0.0 0.0
0.01075993864101768 -0.003272526622330371 0.0 0.0003297557232376815 0.0 0.0
0.011176611997660513 -0.0033265967109010197 0.0 -0.0002478681097031199 0.0 0.0
0.010071263403556366 -0.00318616134655407 0.0 0.00038289219322289875 0.0 0.0
0.010086021677660317 -0.0030506952288803305 0.0 0.0002670563350639435 0.0 0.0
0.0044139827551199495 -0.0006428811434940531 0.0 0.001648958470063782 0.0 0.0
0.0039237776305251215 -0.0006859995258945489 0.0 0.0019925354279769526 0.0 0.0